 Entering Gaussian System, Link 0=g09
 Input=ferro_pbe0_polar.com
 Output=ferro_pbe0_polar.log
 Initial command:
 /usr/local/g09/l1.exe "/tmp/Gau-48743.inp" -scrdir="/tmp/"
 Entering Link 1 = /usr/local/g09/l1.exe PID=     48745.
  
 Copyright (c) 1988,1990,1992,1993,1995,1998,2003,2009,2013,
            Gaussian, Inc.  All Rights Reserved.
  
 This is part of the Gaussian(R) 09 program.  It is based on
 the Gaussian(R) 03 system (copyright 2003, Gaussian, Inc.),
 the Gaussian(R) 98 system (copyright 1998, Gaussian, Inc.),
 the Gaussian(R) 94 system (copyright 1995, Gaussian, Inc.),
 the Gaussian 92(TM) system (copyright 1992, Gaussian, Inc.),
 the Gaussian 90(TM) system (copyright 1990, Gaussian, Inc.),
 the Gaussian 88(TM) system (copyright 1988, Gaussian, Inc.),
 the Gaussian 86(TM) system (copyright 1986, Carnegie Mellon
 University), and the Gaussian 82(TM) system (copyright 1983,
 Carnegie Mellon University). Gaussian is a federally registered
 trademark of Gaussian, Inc.
  
 This software contains proprietary and confidential information,
 including trade secrets, belonging to Gaussian, Inc.
  
 This software is provided under written license and may be
 used, copied, transmitted, or stored only in accord with that
 written license.
  
 The following legend is applicable only to US Government
 contracts under FAR:
  
                    RESTRICTED RIGHTS LEGEND
  
 Use, reproduction and disclosure by the US Government is
 subject to restrictions as set forth in subparagraphs (a)
 and (c) of the Commercial Computer Software - Restricted
 Rights clause in FAR 52.227-19.
  
 Gaussian, Inc.
 340 Quinnipiac St., Bldg. 40, Wallingford CT 06492
  
  
 ---------------------------------------------------------------
 Warning -- This program may not be used in any manner that
 competes with the business of Gaussian, Inc. or will provide
 assistance to any competitor of Gaussian, Inc.  The licensee
 of this program is prohibited from giving any competitor of
 Gaussian, Inc. access to this program.  By using this program,
 the user acknowledges that Gaussian, Inc. is engaged in the
 business of creating and licensing software in the field of
 computational chemistry and represents and warrants to the
 licensee that it is not a competitor of Gaussian, Inc. and that
 it will not use this program in any manner prohibited above.
 ---------------------------------------------------------------
  

 Cite this work as:
 Gaussian 09, Revision D.01,
 M. J. Frisch, G. W. Trucks, H. B. Schlegel, G. E. Scuseria, 
 M. A. Robb, J. R. Cheeseman, G. Scalmani, V. Barone, B. Mennucci, 
 G. A. Petersson, H. Nakatsuji, M. Caricato, X. Li, H. P. Hratchian, 
 A. F. Izmaylov, J. Bloino, G. Zheng, J. L. Sonnenberg, M. Hada, 
 M. Ehara, K. Toyota, R. Fukuda, J. Hasegawa, M. Ishida, T. Nakajima, 
 Y. Honda, O. Kitao, H. Nakai, T. Vreven, J. A. Montgomery, Jr., 
 J. E. Peralta, F. Ogliaro, M. Bearpark, J. J. Heyd, E. Brothers, 
 K. N. Kudin, V. N. Staroverov, T. Keith, R. Kobayashi, J. Normand, 
 K. Raghavachari, A. Rendell, J. C. Burant, S. S. Iyengar, J. Tomasi, 
 M. Cossi, N. Rega, J. M. Millam, M. Klene, J. E. Knox, J. B. Cross, 
 V. Bakken, C. Adamo, J. Jaramillo, R. Gomperts, R. E. Stratmann, 
 O. Yazyev, A. J. Austin, R. Cammi, C. Pomelli, J. W. Ochterski, 
 R. L. Martin, K. Morokuma, V. G. Zakrzewski, G. A. Voth, 
 P. Salvador, J. J. Dannenberg, S. Dapprich, A. D. Daniels, 
 O. Farkas, J. B. Foresman, J. V. Ortiz, J. Cioslowski, 
 and D. J. Fox, Gaussian, Inc., Wallingford CT, 2013.
 
 ******************************************
 Gaussian 09:  ES64L-G09RevD.01 24-Apr-2013
                11-Apr-2021 
 ******************************************
 %nprocshared=25
 Will use up to   25 processors via shared memory.
 %mem=1000MW
 %chk=ferr_pbe0.chk
 ----------------------------------------------------------------------
 #p pbe1pbe/genecp polar=(cubic,four,DCSHG) scfcon=10 cphf=(rdfreq,conv
 er=10) int=acc2e=12
 ----------------------------------------------------------------------
 1/30=1,38=200101,83=1,84=49/1,6;
 2/12=2,17=6,18=5,40=1/2;
 3/5=7,11=2,16=1,17=8,25=1,30=1,74=-13/1,2,3;
 4/69=2/1;
 5/5=2,6=10,38=5,87=12,96=-2,98=1/2;
 8/6=4,10=90,11=11,87=12/1;
 10/6=20001,7=10,13=10,60=-2,72=3,87=12/2;
 6/7=2,8=2,9=2,10=2,12=2,28=1/1;
 1/38=200100,84=49/6(1);
 99/9=1/99;
 3/5=7,6=1,11=2,14=-3,16=1,17=8,25=1,30=1,74=-13,82=7/1,2,3;
 4/5=5,16=3,69=2/1;
 5/5=2,6=10,38=5,87=12,96=-2,98=1/2;
 8/6=4,10=90,11=11,87=12/1;
 10/6=20001,7=10,13=10,60=-2,72=3,87=12/2;
 6/7=2,8=2,9=2,10=2,12=2,28=1/1;
 1/38=200100,84=49/6(-6);
 99/9=1/99;
 Leave Link    1 at Sun Apr 11 15:52:40 2021, MaxMem=  1048576000 cpu:         2.8
 (Enter /usr/local/g09/l101.exe)
 -------------------
 Title Card Required
 -------------------
 Symbolic Z-matrix:
 Charge =  0 Multiplicity = 1
 C                     3.03073   1.44841  -0.69029 
 C                     1.94406   1.01922  -1.49866 
 H                     1.93301   0.97914  -2.57773 
 C                     0.8886    0.61585  -0.63735 
 H                    -0.06529   0.21547  -0.947 
 C                     2.64688   1.31026   0.67065 
 H                     3.26354   1.53024   1.52941 
 C                     1.32296   0.79574   0.70335 
 H                     0.75705   0.55614   1.5913 
 C                     2.08901  -2.47066  -0.61305 
 C                     2.52314  -2.29133   0.72781 
 H                     1.93899  -2.48473   1.61521 
 C                     3.84703  -1.77675   0.69556 
 H                     4.44542  -1.51052   1.55414 
 C                     3.14459  -2.06686  -1.47402 
 H                     3.11549  -2.05964  -2.55347 
 C                     4.2311   -1.63797  -0.66524 
 H                     5.17256  -1.24768  -1.02221 
 Fe                    2.56679  -0.50542  -0.27792 
 H                     3.99033   1.79169  -1.04727 
 H                     1.11701  -2.82417  -0.92347 
 
 NAtoms=     21 NQM=       21 NQMF=       0 NMMI=      0 NMMIF=      0
                NMic=       0 NMicF=      0.
                    Isotopes and Nuclear Properties:
 (Nuclear quadrupole moments (NQMom) in fm**2, nuclear magnetic moments (NMagM)
  in nuclear magnetons)

  Atom         1           2           3           4           5           6           7           8           9          10
 IAtWgt=          12          12           1          12           1          12           1          12           1          12
 AtmWgt=  12.0000000  12.0000000   1.0078250  12.0000000   1.0078250  12.0000000   1.0078250  12.0000000   1.0078250  12.0000000
 NucSpn=           0           0           1           0           1           0           1           0           1           0
 AtZEff=   0.0000000   0.0000000   0.0000000   0.0000000   0.0000000   0.0000000   0.0000000   0.0000000   0.0000000   0.0000000
 NQMom=    0.0000000   0.0000000   0.0000000   0.0000000   0.0000000   0.0000000   0.0000000   0.0000000   0.0000000   0.0000000
 NMagM=    0.0000000   0.0000000   2.7928460   0.0000000   2.7928460   0.0000000   2.7928460   0.0000000   2.7928460   0.0000000
 AtZNuc=   6.0000000   6.0000000   1.0000000   6.0000000   1.0000000   6.0000000   1.0000000   6.0000000   1.0000000   6.0000000

  Atom        11          12          13          14          15          16          17          18          19          20
 IAtWgt=          12           1          12           1          12           1          12           1          56           1
 AtmWgt=  12.0000000   1.0078250  12.0000000   1.0078250  12.0000000   1.0078250  12.0000000   1.0078250  55.9349393   1.0078250
 NucSpn=           0           1           0           1           0           1           0           1           0           1
 AtZEff=   0.0000000   0.0000000   0.0000000   0.0000000   0.0000000   0.0000000   0.0000000   0.0000000   0.0000000   0.0000000
 NQMom=    0.0000000   0.0000000   0.0000000   0.0000000   0.0000000   0.0000000   0.0000000   0.0000000   0.0000000   0.0000000
 NMagM=    0.0000000   2.7928460   0.0000000   2.7928460   0.0000000   2.7928460   0.0000000   2.7928460   0.0000000   2.7928460
 AtZNuc=   6.0000000   1.0000000   6.0000000   1.0000000   6.0000000   1.0000000   6.0000000   1.0000000  26.0000000   1.0000000

  Atom        21
 IAtWgt=           1
 AtmWgt=   1.0078250
 NucSpn=           1
 AtZEff=   0.0000000
 NQMom=    0.0000000
 NMagM=    2.7928460
 AtZNuc=   1.0000000
 Using perturbation frequencies:    0.000000    0.105471
 Leave Link  101 at Sun Apr 11 15:52:40 2021, MaxMem=  1048576000 cpu:         4.1
 (Enter /usr/local/g09/l106.exe)
 Differentiate once with respect to electric field.
 Nuclear step= 0.001000 Angstroms, electric field step= 0.000333 atomic units, NStep=2.
 Leave Link  106 at Sun Apr 11 15:52:40 2021, MaxMem=  1048576000 cpu:         0.0
 (Enter /usr/local/g09/l202.exe)
                          Input orientation:                          
 ---------------------------------------------------------------------
 Center     Atomic      Atomic             Coordinates (Angstroms)
 Number     Number       Type             X           Y           Z
 ---------------------------------------------------------------------
      1          6           0        3.030734    1.448406   -0.690287
      2          6           0        1.944056    1.019218   -1.498663
      3          1           0        1.933012    0.979139   -2.577726
      4          6           0        0.888603    0.615849   -0.637353
      5          1           0       -0.065289    0.215471   -0.946999
      6          6           0        2.646880    1.310256    0.670651
      7          1           0        3.263535    1.530239    1.529405
      8          6           0        1.322963    0.795737    0.703352
      9          1           0        0.757051    0.556140    1.591299
     10          6           0        2.089010   -2.470663   -0.613053
     11          6           0        2.523140   -2.291329    0.727814
     12          1           0        1.938990   -2.484733    1.615214
     13          6           0        3.847031   -1.776746    0.695557
     14          1           0        4.445419   -1.510521    1.554143
     15          6           0        3.144587   -2.066859   -1.474016
     16          1           0        3.115486   -2.059643   -2.553466
     17          6           0        4.231102   -1.637965   -0.665239
     18          1           0        5.172558   -1.247679   -1.022212
     19         26           0        2.566790   -0.505419   -0.277918
     20          1           0        3.990333    1.791687   -1.047275
     21          1           0        1.117007   -2.824169   -0.923466
 ---------------------------------------------------------------------
                    Distance matrix (angstroms):
                    1          2          3          4          5
     1  C    0.000000
     2  C    1.420754   0.000000
     3  H    2.233300   1.079864   0.000000
     4  C    2.298843   1.420754   2.233342   0.000000
     5  H    3.342363   2.233340   2.689919   1.079858   0.000000
     6  C    1.420768   2.298823   3.342334   2.298829   3.342335
     7  H    2.233366   3.342359   4.352301   3.342342   4.352271
     8  C    2.298845   2.298819   3.342345   1.420746   2.233296
     9  H    3.342366   3.342348   4.352308   2.233330   2.689843
    10  C    4.031366   3.603413   3.973086   3.311816   3.459457
    11  C    4.031660   4.031409   4.687303   3.603759   3.973539
    12  H    4.687944   4.687636   5.438675   3.973787   4.227667
    13  C    3.603958   4.031542   4.687510   4.031558   4.687554
    14  H    3.974173   4.687859   5.439020   4.687755   5.438864
    15  C    3.603371   3.311458   3.458930   3.603664   3.973673
    16  H    3.973037   3.458937   3.260833   3.973507   4.227790
    17  C    3.311676   3.603581   3.973419   4.031471   4.687600
    18  H    3.459257   3.973544   4.227647   4.687550   5.438888
    19  Fe   2.050055   2.050008   2.809752   2.050060   2.809838
    20  H    1.079867   2.233318   2.689811   3.342358   4.352308
    21  H    4.687390   3.973221   4.227007   3.459444   3.261562
                    6          7          8          9         10
     6  C    0.000000
     7  H    1.079868   0.000000
     8  C    1.420759   2.233311   0.000000
     9  H    2.233324   2.689826   1.079867   0.000000
    10  C    4.031682   4.687948   3.604042   3.974270   0.000000
    11  C    3.604163   3.974307   3.312250   3.460167   1.420758
    12  H    3.974324   4.228686   3.460125   3.262585   2.233356
    13  C    3.312184   3.460046   3.603977   3.974001   2.298830
    14  H    3.460070   3.262466   3.973966   4.228064   3.342346
    15  C    4.031404   4.687622   4.031588   4.687921   1.420760
    16  H    4.687296   5.438659   4.687558   5.439082   2.233337
    17  C    3.603660   3.973684   4.031528   4.687760   2.298840
    18  H    3.973395   4.227523   4.687484   5.438833   3.342360
    19  Fe   2.050091   2.809942   2.050123   2.809988   2.050067
    20  H    2.233363   2.689957   3.342376   4.352328   4.687345
    21  H    4.687770   5.439212   3.974000   4.228487   1.079867
                   11         12         13         14         15
    11  C    0.000000
    12  H    1.079868   0.000000
    13  C    1.420748   2.233301   0.000000
    14  H    2.233302   2.689796   1.079868   0.000000
    15  C    2.298834   3.342368   2.298835   3.342368   0.000000
    16  H    3.342357   4.352326   3.342355   4.352322   1.079866
    17  C    2.298829   3.342343   1.420752   2.233345   1.420769
    18  H    3.342336   4.352273   2.233308   2.689874   2.233349
    19  Fe   2.050092   2.809940   2.050108   2.809969   2.050023
    20  H    4.687709   5.439175   3.973879   4.228363   3.973131
    21  H    2.233350   2.689938   3.342359   4.352303   2.233317
                   16         17         18         19         20
    16  H    0.000000
    17  C    2.233341   0.000000
    18  H    2.689901   1.079858   0.000000
    19  Fe   2.809768   2.050027   2.809795   0.000000
    20  H    4.226903   3.459253   3.261293   2.809819   0.000000
    21  H    2.689855   3.342357   4.352306   2.809841   5.438516
                   21
    21  H    0.000000
 Stoichiometry    C10H10Fe
 Framework group  C1[X(C10H10Fe)]
 Deg. of freedom    57
 Full point group                 C1      NOp   1
 Largest Abelian subgroup         C1      NOp   1
 Largest concise Abelian subgroup C1      NOp   1
                         Standard orientation:                         
 ---------------------------------------------------------------------
 Center     Atomic      Atomic             Coordinates (Angstroms)
 Number     Number       Type             X           Y           Z
 ---------------------------------------------------------------------
      1          6           0       -1.655847   -0.899338   -0.807417
      2          6           0       -1.655721   -1.045853    0.605762
      3          1           0       -1.630409   -1.980047    1.146822
      4          6           0       -1.655905    0.252875    1.181824
      5          1           0       -1.630788    0.478843    2.237476
      6          6           0       -1.656078    0.489971   -1.104745
      7          1           0       -1.631205    0.927747   -2.091582
      8          6           0       -1.656144    1.202063    0.124677
      9          1           0       -1.631335    2.275890    0.236008
     10          6           0        1.655911    0.252503    1.181912
     11          6           0        1.656106    1.202030    0.125053
     12          1           0        1.631250    2.275824    0.236692
     13          6           0        1.656106    0.490327   -1.104583
     14          1           0        1.631261    0.928409   -2.091285
     15          6           0        1.655737   -1.046050    0.605442
     16          1           0        1.630424   -1.980403    1.146233
     17          6           0        1.655829   -0.899061   -0.807703
     18          1           0        1.630646   -1.702089   -1.529232
     19         26           0        0.000002    0.000138   -0.000057
     20          1           0       -1.630647   -1.702647   -1.528647
     21          1           0        1.630774    0.478074    2.237658
 ---------------------------------------------------------------------
 Rotational constants (GHZ):      2.2161666      1.0755442      1.0755429
 Leave Link  202 at Sun Apr 11 15:52:40 2021, MaxMem=  1048576000 cpu:         0.5
 (Enter /usr/local/g09/l301.exe)
 General basis read from cards:  (5D, 7F)
 Centers:       1      2      4      6      8     10     11     13     15     17
 Centers:       3      5      7      9     12     14     16     18     20     21
 6-311+g(2d,p)
 ****
 Centers:      19
 def2tzvp
 ****
 ======================================================================================================
                                       Pseudopotential Parameters
 ======================================================================================================
  Center     Atomic      Valence      Angular      Power
  Number     Number     Electrons     Momentum     of R      Exponent        Coefficient   SO-Coeffient
 ======================================================================================================
    1          6
                                   No pseudopotential on this center.
    2          6
                                   No pseudopotential on this center.
    3          1
                                   No pseudopotential on this center.
    4          6
                                   No pseudopotential on this center.
    5          1
                                   No pseudopotential on this center.
    6          6
                                   No pseudopotential on this center.
    7          1
                                   No pseudopotential on this center.
    8          6
                                   No pseudopotential on this center.
    9          1
                                   No pseudopotential on this center.
   10          6
                                   No pseudopotential on this center.
   11          6
                                   No pseudopotential on this center.
   12          1
                                   No pseudopotential on this center.
   13          6
                                   No pseudopotential on this center.
   14          1
                                   No pseudopotential on this center.
   15          6
                                   No pseudopotential on this center.
   16          1
                                   No pseudopotential on this center.
   17          6
                                   No pseudopotential on this center.
   18          1
                                   No pseudopotential on this center.
   19         26
                                   No pseudopotential on this center.
   20          1
                                   No pseudopotential on this center.
   21          1
                                   No pseudopotential on this center.
 ======================================================================================================
 Ernie: Thresh=  0.10000D-02 Tol=  0.10000D-05 Strict=F.
 There are   402 symmetry adapted cartesian basis functions of A   symmetry.
 There are   375 symmetry adapted basis functions of A   symmetry.
   375 basis functions,   602 primitive gaussians,   402 cartesian basis functions
    48 alpha electrons       48 beta electrons
       nuclear repulsion energy       919.2345822002 Hartrees.
 IExCor= 1009 DFT=T Ex+Corr=PBE1PBE ExCW=0 ScaHFX=  0.250000
 ScaDFX=  0.750000  0.750000  1.000000  1.000000 ScalE2=  1.000000  1.000000
 IRadAn=      0 IRanWt=     -1 IRanGd=            0 ICorTp=0 IEmpDi=  4
 NAtoms=   21 NActive=   21 NUniq=   21 SFac= 1.00D+00 NAtFMM=   60 NAOKFM=F Big=F
 Integral buffers will be    131072 words long.
 Raffenetti 2 integral format.
 Two-electron integral symmetry is turned on.
 Leave Link  301 at Sun Apr 11 15:52:41 2021, MaxMem=  1048576000 cpu:         1.7
 (Enter /usr/local/g09/l302.exe)
 NPDir=0 NMtPBC=     1 NCelOv=     1 NCel=       1 NClECP=     1 NCelD=      1
         NCelK=      1 NCelE2=     1 NClLst=     1 CellRange=     0.0.
 One-electron integrals computed using PRISM.
   1 Symmetry operations used in ECPInt.
 ECPInt:  NShTT=    7875 NPrTT=   28235 LenC2=    7866 LenP2D=   21150.
 LDataN:  DoStor=T MaxTD1= 6 Len=  172
 NBasis=   375 RedAO= T EigKep=  3.67D-06  NBF=   375
 NBsUse=   375 1.00D-06 EigRej= -1.00D+00 NBFU=   375
 Precomputing XC quadrature grid using
 IXCGrd= 4 IRadAn=           0 IRanWt=          -1 IRanGd=           0 AccXCQ= 0.00D+00.
 Generated NRdTot=       0 NPtTot=           0 NUsed=           0 NTot=          32
 NSgBfM=   402   402   402   402   402 MxSgAt=    21 MxSgA2=    21.
 Leave Link  302 at Sun Apr 11 15:52:41 2021, MaxMem=  1048576000 cpu:        13.6
 (Enter /usr/local/g09/l303.exe)
 DipDrv:  MaxL=1.
 Leave Link  303 at Sun Apr 11 15:52:42 2021, MaxMem=  1048576000 cpu:         7.7
 (Enter /usr/local/g09/l401.exe)
 ExpMin= 4.20D-02 ExpMax= 3.01D+05 ExpMxC= 2.91D+03 IAcc=2 IRadAn=         4 AccDes= 0.00D+00
 Harris functional with IExCor= 1009 and IRadAn=       4 diagonalized for initial guess.
 HarFok:  IExCor= 1009 AccDes= 0.00D+00 IRadAn=         4 IDoV= 1 UseB2=F ITyADJ=14
 ICtDFT=  3500011 ScaDFX=  1.000000  1.000000  1.000000  1.000000
 FoFCou: FMM=F IPFlag=           0 FMFlag=      100000 FMFlg1=           0
         NFxFlg=           0 DoJE=T BraDBF=F KetDBF=T FulRan=T
         wScrn=  0.000000 ICntrl=     500 IOpCl=  0 I1Cent=   200000004 NGrid=           0
         NMat0=    1 NMatS0=      1 NMatT0=    0 NMatD0=    1 NMtDS0=    0 NMtDT0=    0
 Petite list used in FoFCou.
 Harris En= -1650.40208678898    
 JPrj=0 DoOrth=F DoCkMO=F.
 Leave Link  401 at Sun Apr 11 15:52:43 2021, MaxMem=  1048576000 cpu:        30.1
 (Enter /usr/local/g09/l502.exe)
 Closed shell SCF:
 Using DIIS extrapolation, IDIIS=  1040.
 Integral symmetry usage will be decided dynamically.
 IVT=      516366 IEndB=      516366 NGot=  1048576000 MDV=  1048238281
 LenX=  1048238281 LenY=  1048076236
 Requested convergence on RMS density matrix=1.00D-10 within 128 cycles.
 Requested convergence on MAX density matrix=1.00D-08.
 Requested convergence on             energy=1.00D-08.
 No special actions if energy rises.
 Fock matrices will be formed incrementally for  20 cycles.

 Cycle   1  Pass 1  IDiag  1:
 FoFJK:  IHMeth= 1 ICntrl=       0 DoSepK=F KAlg= 0 I1Cent=   0 FoldK=F
 IRaf= 980000000 NMat=   1 IRICut=       1 DoRegI=T DoRafI=F ISym2E= 0.
 FoFCou: FMM=F IPFlag=           0 FMFlag=      100000 FMFlg1=           0
         NFxFlg=           0 DoJE=F BraDBF=F KetDBF=F FulRan=T
         wScrn=  0.000000 ICntrl=       0 IOpCl=  0 I1Cent=           0 NGrid=           0
         NMat0=    1 NMatS0=      1 NMatT0=    0 NMatD0=    1 NMtDS0=    0 NMtDT0=    0
 Symmetry not used in FoFCou.
 E= -1649.91549020171    
 DIIS: error= 4.23D-02 at cycle   1 NSaved=   1.
 NSaved= 1 IEnMin= 1 EnMin= -1649.91549020171     IErMin= 1 ErrMin= 4.23D-02
 ErrMax= 4.23D-02  0.00D+00 EMaxC= 1.00D-01 BMatC= 4.18D-01 BMatP= 4.18D-01
 IDIUse=3 WtCom= 5.77D-01 WtEn= 4.23D-01
 Coeff-Com:  0.100D+01
 Coeff-En:   0.100D+01
 Coeff:      0.100D+01
 Gap=     0.264 Goal=   None    Shift=    0.000
 GapD=    0.264 DampG=1.000 DampE=0.250 DampFc=0.2500 IDamp=-1.
 Damping current iteration by 2.50D-01
 RMSDP=1.16D-02 MaxDP=2.74D-01              OVMax= 1.87D-01

 Cycle   2  Pass 1  IDiag  1:
 RMSU=  2.46D-03    CP:  9.20D-01
 E= -1650.01873456540     Delta-E=       -0.103244363692 Rises=F Damp=T
 DIIS: error= 1.99D-02 at cycle   2 NSaved=   2.
 NSaved= 2 IEnMin= 2 EnMin= -1650.01873456540     IErMin= 2 ErrMin= 1.99D-02
 ErrMax= 1.99D-02  0.00D+00 EMaxC= 1.00D-01 BMatC= 1.03D-01 BMatP= 4.18D-01
 IDIUse=3 WtCom= 8.01D-01 WtEn= 1.99D-01
 Coeff-Com: -0.285D+00 0.129D+01
 Coeff-En:   0.000D+00 0.100D+01
 Coeff:     -0.228D+00 0.123D+01
 Gap=     0.226 Goal=   None    Shift=    0.000
 RMSDP=1.58D-02 MaxDP=1.05D+00 DE=-1.03D-01 OVMax= 3.19D-01

 Cycle   3  Pass 1  IDiag  1:
 RMSU=  1.53D-02    CP:  9.03D-01  2.59D+00
 E= -1649.39379774966     Delta-E=        0.624936815748 Rises=F Damp=F
 DIIS: error= 1.39D-01 at cycle   3 NSaved=   3.
 NSaved= 3 IEnMin= 2 EnMin= -1650.01873456540     IErMin= 2 ErrMin= 1.99D-02
 ErrMax= 1.39D-01  0.00D+00 EMaxC= 1.00D-01 BMatC= 1.64D+00 BMatP= 1.03D-01
 IDIUse=2 WtCom= 0.00D+00 WtEn= 1.00D+00
 Coeff-En:   0.000D+00 0.830D+00 0.170D+00
 Coeff:      0.000D+00 0.830D+00 0.170D+00
 Gap=     0.231 Goal=   None    Shift=    0.000
 RMSDP=1.60D-02 MaxDP=7.57D-01 DE= 6.25D-01 OVMax= 2.97D-01

 Cycle   4  Pass 1  IDiag  1:
 RMSU=  5.53D-03    CP:  5.99D-01  1.76D+00  1.07D-01
 E= -1649.93600094808     Delta-E=       -0.542203198423 Rises=F Damp=F
 DIIS: error= 7.58D-02 at cycle   4 NSaved=   4.
 NSaved= 4 IEnMin= 2 EnMin= -1650.01873456540     IErMin= 2 ErrMin= 1.99D-02
 ErrMax= 7.58D-02  0.00D+00 EMaxC= 1.00D-01 BMatC= 6.82D-01 BMatP= 1.03D-01
 IDIUse=2 WtCom= 0.00D+00 WtEn= 1.00D+00
 EnCoef did     2 forward-backward iterations
 Coeff-En:   0.124D+00 0.000D+00 0.292D+00 0.585D+00
 Coeff:      0.124D+00 0.000D+00 0.292D+00 0.585D+00
 Gap=     0.276 Goal=   None    Shift=    0.000
 RMSDP=4.33D-03 MaxDP=2.40D-01 DE=-5.42D-01 OVMax= 1.63D-01

 Cycle   5  Pass 1  IDiag  1:
 RMSU=  1.00D-03    CP:  7.56D-01  8.47D-01  1.51D-01  6.61D-01
 E= -1650.18736227665     Delta-E=       -0.251361328574 Rises=F Damp=F
 DIIS: error= 2.71D-02 at cycle   5 NSaved=   5.
 NSaved= 5 IEnMin= 5 EnMin= -1650.18736227665     IErMin= 2 ErrMin= 1.99D-02
 ErrMax= 2.71D-02  0.00D+00 EMaxC= 1.00D-01 BMatC= 1.13D-01 BMatP= 1.03D-01
 IDIUse=3 WtCom= 7.29D-01 WtEn= 2.71D-01
 Coeff-Com: -0.595D+00 0.810D+00-0.587D-01-0.199D-01 0.863D+00
 Coeff-En:   0.000D+00 0.000D+00 0.000D+00 0.249D+00 0.751D+00
 Coeff:     -0.434D+00 0.591D+00-0.428D-01 0.529D-01 0.833D+00
 Gap=     0.214 Goal=   None    Shift=    0.000
 RMSDP=2.26D-03 MaxDP=1.35D-01 DE=-2.51D-01 OVMax= 5.37D-02

 Cycle   6  Pass 1  IDiag  1:
 RMSU=  1.85D-04    CP:  6.70D-01  1.28D+00  1.42D-01  8.61D-01  6.51D-01
 E= -1650.24208245587     Delta-E=       -0.054720179216 Rises=F Damp=F
 DIIS: error= 3.74D-03 at cycle   6 NSaved=   6.
 NSaved= 6 IEnMin= 6 EnMin= -1650.24208245587     IErMin= 6 ErrMin= 3.74D-03
 ErrMax= 3.74D-03  0.00D+00 EMaxC= 1.00D-01 BMatC= 1.87D-03 BMatP= 1.03D-01
 IDIUse=3 WtCom= 9.63D-01 WtEn= 3.74D-02
 Coeff-Com: -0.694D-01 0.880D-01-0.831D-02-0.285D-01 0.152D+00 0.866D+00
 Coeff-En:   0.000D+00 0.000D+00 0.000D+00 0.000D+00 0.000D+00 0.100D+01
 Coeff:     -0.668D-01 0.847D-01-0.800D-02-0.274D-01 0.146D+00 0.871D+00
 Gap=     0.216 Goal=   None    Shift=    0.000
 RMSDP=2.26D-04 MaxDP=1.21D-02 DE=-5.47D-02 OVMax= 8.89D-03

 Cycle   7  Pass 1  IDiag  1:
 RMSU=  4.61D-05    CP:  6.78D-01  1.23D+00  1.43D-01  8.45D-01  6.97D-01
                    CP:  8.31D-01
 E= -1650.24292539427     Delta-E=       -0.000842938405 Rises=F Damp=F
 DIIS: error= 5.59D-04 at cycle   7 NSaved=   7.
 NSaved= 7 IEnMin= 7 EnMin= -1650.24292539427     IErMin= 7 ErrMin= 5.59D-04
 ErrMax= 5.59D-04  0.00D+00 EMaxC= 1.00D-01 BMatC= 3.53D-05 BMatP= 1.87D-03
 IDIUse=3 WtCom= 9.94D-01 WtEn= 5.59D-03
 Coeff-Com:  0.248D-01-0.339D-01 0.115D-02-0.206D-02-0.403D-01 0.112D+00
 Coeff-Com:  0.939D+00
 Coeff-En:   0.000D+00 0.000D+00 0.000D+00 0.000D+00 0.000D+00 0.000D+00
 Coeff-En:   0.100D+01
 Coeff:      0.247D-01-0.337D-01 0.114D-02-0.205D-02-0.401D-01 0.111D+00
 Coeff:      0.939D+00
 Gap=     0.216 Goal=   None    Shift=    0.000
 RMSDP=4.16D-05 MaxDP=2.41D-03 DE=-8.43D-04 OVMax= 1.50D-03

 Cycle   8  Pass 1  IDiag  1:
 RMSU=  1.16D-05    CP:  6.77D-01  1.23D+00  1.42D-01  8.48D-01  6.92D-01
                    CP:  8.45D-01  1.16D+00
 E= -1650.24294256577     Delta-E=       -0.000017171497 Rises=F Damp=F
 DIIS: error= 1.67D-04 at cycle   8 NSaved=   8.
 NSaved= 8 IEnMin= 8 EnMin= -1650.24294256577     IErMin= 8 ErrMin= 1.67D-04
 ErrMax= 1.67D-04  0.00D+00 EMaxC= 1.00D-01 BMatC= 2.48D-06 BMatP= 3.53D-05
 IDIUse=3 WtCom= 9.98D-01 WtEn= 1.67D-03
 Coeff-Com:  0.778D-02-0.100D-01-0.232D-03 0.185D-02-0.170D-01-0.404D-01
 Coeff-Com:  0.278D+00 0.780D+00
 Coeff-En:   0.000D+00 0.000D+00 0.000D+00 0.000D+00 0.000D+00 0.000D+00
 Coeff-En:   0.000D+00 0.100D+01
 Coeff:      0.777D-02-0.100D-01-0.232D-03 0.185D-02-0.170D-01-0.403D-01
 Coeff:      0.278D+00 0.780D+00
 Gap=     0.217 Goal=   None    Shift=    0.000
 RMSDP=1.36D-05 MaxDP=6.85D-04 DE=-1.72D-05 OVMax= 4.46D-04

 Cycle   9  Pass 1  IDiag  1:
 RMSU=  5.38D-06    CP:  6.77D-01  1.23D+00  1.41D-01  8.49D-01  6.90D-01
                    CP:  8.41D-01  1.20D+00  9.41D-01
 E= -1650.24294435044     Delta-E=       -0.000001784664 Rises=F Damp=F
 DIIS: error= 1.41D-05 at cycle   9 NSaved=   9.
 NSaved= 9 IEnMin= 9 EnMin= -1650.24294435044     IErMin= 9 ErrMin= 1.41D-05
 ErrMax= 1.41D-05  0.00D+00 EMaxC= 1.00D-01 BMatC= 4.56D-08 BMatP= 2.48D-06
 IDIUse=1 WtCom= 1.00D+00 WtEn= 0.00D+00
 Coeff-Com:  0.148D-02-0.190D-02-0.193D-03 0.106D-02-0.344D-02-0.243D-01
 Coeff-Com:  0.319D-01 0.275D+00 0.721D+00
 Coeff:      0.148D-02-0.190D-02-0.193D-03 0.106D-02-0.344D-02-0.243D-01
 Coeff:      0.319D-01 0.275D+00 0.721D+00
 Gap=     0.217 Goal=   None    Shift=    0.000
 RMSDP=2.82D-06 MaxDP=1.74D-04 DE=-1.78D-06 OVMax= 7.33D-05

 Cycle  10  Pass 1  IDiag  1:
 RMSU=  1.16D-06    CP:  6.77D-01  1.23D+00  1.41D-01  8.49D-01  6.90D-01
                    CP:  8.40D-01  1.21D+00  1.02D+00  8.85D-01
 E= -1650.24294439469     Delta-E=       -0.000000044251 Rises=F Damp=F
 DIIS: error= 4.78D-06 at cycle  10 NSaved=  10.
 NSaved=10 IEnMin=10 EnMin= -1650.24294439469     IErMin=10 ErrMin= 4.78D-06
 ErrMax= 4.78D-06  0.00D+00 EMaxC= 1.00D-01 BMatC= 2.13D-09 BMatP= 4.56D-08
 IDIUse=1 WtCom= 1.00D+00 WtEn= 0.00D+00
 Coeff-Com:  0.752D-04-0.108D-03 0.461D-05 0.293D-04-0.525D-04-0.523D-03
 Coeff-Com: -0.273D-02-0.290D-01 0.442D-01 0.988D+00
 Coeff:      0.752D-04-0.108D-03 0.461D-05 0.293D-04-0.525D-04-0.523D-03
 Coeff:     -0.273D-02-0.290D-01 0.442D-01 0.988D+00
 Gap=     0.217 Goal=   None    Shift=    0.000
 RMSDP=5.86D-07 MaxDP=3.20D-05 DE=-4.43D-08 OVMax= 1.54D-05

 Cycle  11  Pass 1  IDiag  1:
 RMSU=  1.61D-07    CP:  6.77D-01  1.23D+00  1.41D-01  8.49D-01  6.90D-01
                    CP:  8.40D-01  1.21D+00  1.02D+00  9.31D-01  1.10D+00
 E= -1650.24294439641     Delta-E=       -0.000000001725 Rises=F Damp=F
 DIIS: error= 7.55D-07 at cycle  11 NSaved=  11.
 NSaved=11 IEnMin=11 EnMin= -1650.24294439641     IErMin=11 ErrMin= 7.55D-07
 ErrMax= 7.55D-07  0.00D+00 EMaxC= 1.00D-01 BMatC= 7.57D-11 BMatP= 2.13D-09
 IDIUse=1 WtCom= 1.00D+00 WtEn= 0.00D+00
 Coeff-Com:  0.244D-04-0.354D-04 0.121D-05 0.672D-05 0.536D-05 0.839D-04
 Coeff-Com: -0.742D-03-0.118D-01 0.541D-02 0.318D+00 0.689D+00
 Coeff:      0.244D-04-0.354D-04 0.121D-05 0.672D-05 0.536D-05 0.839D-04
 Coeff:     -0.742D-03-0.118D-01 0.541D-02 0.318D+00 0.689D+00
 Gap=     0.217 Goal=   None    Shift=    0.000
 RMSDP=1.54D-07 MaxDP=8.57D-06 DE=-1.73D-09 OVMax= 1.89D-06

 Cycle  12  Pass 1  IDiag  1:
 RMSU=  9.03D-08    CP:  6.77D-01  1.23D+00  1.41D-01  8.49D-01  6.90D-01
                    CP:  8.40D-01  1.21D+00  1.02D+00  9.31D-01  1.12D+00
                    CP:  2.75D-01
 E= -1650.24294439647     Delta-E=       -0.000000000056 Rises=F Damp=F
 DIIS: error= 2.29D-07 at cycle  12 NSaved=  12.
 NSaved=12 IEnMin=12 EnMin= -1650.24294439647     IErMin=12 ErrMin= 2.29D-07
 ErrMax= 2.29D-07  0.00D+00 EMaxC= 1.00D-01 BMatC= 1.78D-11 BMatP= 7.57D-11
 IDIUse=1 WtCom= 1.00D+00 WtEn= 0.00D+00
 Coeff-Com:  0.251D-05-0.338D-05-0.565D-06-0.101D-05 0.157D-04 0.205D-03
 Coeff-Com:  0.205D-03-0.168D-02-0.732D-02-0.493D-02 0.482D+00 0.532D+00
 Coeff:      0.251D-05-0.338D-05-0.565D-06-0.101D-05 0.157D-04 0.205D-03
 Coeff:      0.205D-03-0.168D-02-0.732D-02-0.493D-02 0.482D+00 0.532D+00
 Gap=     0.217 Goal=   None    Shift=    0.000
 RMSDP=7.37D-08 MaxDP=4.07D-06 DE=-5.59D-11 OVMax= 9.21D-07

 Cycle  13  Pass 1  IDiag  1:
 RMSU=  5.16D-09    CP:  6.77D-01  1.23D+00  1.41D-01  8.49D-01  6.90D-01
                    CP:  8.40D-01  1.21D+00  1.02D+00  9.31D-01  1.12D+00
                    CP:  6.40D-01  5.39D-01
 E= -1650.24294439645     Delta-E=        0.000000000016 Rises=F Damp=F
 DIIS: error= 2.08D-08 at cycle  13 NSaved=  13.
 NSaved=13 IEnMin=12 EnMin= -1650.24294439647     IErMin=13 ErrMin= 2.08D-08
 ErrMax= 2.08D-08  0.00D+00 EMaxC= 1.00D-01 BMatC= 3.82D-14 BMatP= 1.78D-11
 IDIUse=1 WtCom= 1.00D+00 WtEn= 0.00D+00
 Coeff-Com:  0.730D-06-0.963D-06-0.269D-07-0.282D-06 0.144D-05 0.314D-04
 Coeff-Com:  0.566D-04-0.667D-04-0.961D-03-0.426D-02 0.560D-01 0.720D-01
 Coeff-Com:  0.877D+00
 Coeff:      0.730D-06-0.963D-06-0.269D-07-0.282D-06 0.144D-05 0.314D-04
 Coeff:      0.566D-04-0.667D-04-0.961D-03-0.426D-02 0.560D-01 0.720D-01
 Coeff:      0.877D+00
 Gap=     0.217 Goal=   None    Shift=    0.000
 RMSDP=4.18D-09 MaxDP=2.39D-07 DE= 1.59D-11 OVMax= 8.23D-08

 Cycle  14  Pass 1  IDiag  1:
 RMSU=  1.25D-09    CP:  6.77D-01  1.23D+00  1.41D-01  8.49D-01  6.90D-01
                    CP:  8.40D-01  1.21D+00  1.02D+00  9.31D-01  1.12D+00
                    CP:  6.38D-01  5.50D-01  1.00D+00
 E= -1650.24294439648     Delta-E=       -0.000000000027 Rises=F Damp=F
 DIIS: error= 5.63D-09 at cycle  14 NSaved=  14.
 NSaved=14 IEnMin=14 EnMin= -1650.24294439648     IErMin=14 ErrMin= 5.63D-09
 ErrMax= 5.63D-09  0.00D+00 EMaxC= 1.00D-01 BMatC= 1.10D-14 BMatP= 3.82D-14
 IDIUse=1 WtCom= 1.00D+00 WtEn= 0.00D+00
 Coeff-Com:  0.325D-06-0.425D-06 0.100D-07-0.108D-06 0.103D-06 0.869D-05
 Coeff-Com:  0.213D-04 0.306D-04-0.204D-03-0.204D-02 0.892D-02 0.155D-01
 Coeff-Com:  0.499D+00 0.479D+00
 Coeff:      0.325D-06-0.425D-06 0.100D-07-0.108D-06 0.103D-06 0.869D-05
 Coeff:      0.213D-04 0.306D-04-0.204D-03-0.204D-02 0.892D-02 0.155D-01
 Coeff:      0.499D+00 0.479D+00
 Gap=     0.217 Goal=   None    Shift=    0.000
 RMSDP=7.43D-10 MaxDP=4.08D-08 DE=-2.73D-11 OVMax= 2.72D-08

 Cycle  15  Pass 1  IDiag  1:
 RMSU=  3.14D-10    CP:  6.77D-01  1.23D+00  1.41D-01  8.49D-01  6.90D-01
                    CP:  8.40D-01  1.21D+00  1.02D+00  9.31D-01  1.12D+00
                    CP:  6.39D-01  5.50D-01  1.04D+00  5.41D-01
 E= -1650.24294439645     Delta-E=        0.000000000028 Rises=F Damp=F
 DIIS: error= 3.87D-09 at cycle  15 NSaved=  15.
 NSaved=15 IEnMin=14 EnMin= -1650.24294439648     IErMin=15 ErrMin= 3.87D-09
 ErrMax= 3.87D-09  0.00D+00 EMaxC= 1.00D-01 BMatC= 1.85D-15 BMatP= 1.10D-14
 IDIUse=1 WtCom= 1.00D+00 WtEn= 0.00D+00
 Large coefficients: NSaved= 15 BigCof=    0.00 CofMax=   10.00 Det=-6.53D-16
 Inversion failed.  Reducing to 14 matrices.
 Coeff-Com: -0.411D-08 0.745D-08 0.122D-07-0.884D-07-0.102D-05-0.271D-05
 Coeff-Com:  0.734D-05 0.512D-04 0.404D-04-0.440D-02-0.453D-02 0.348D-01
 Coeff-Com:  0.115D+00 0.859D+00
 Coeff:     -0.411D-08 0.745D-08 0.122D-07-0.884D-07-0.102D-05-0.271D-05
 Coeff:      0.734D-05 0.512D-04 0.404D-04-0.440D-02-0.453D-02 0.348D-01
 Coeff:      0.115D+00 0.859D+00
 Gap=     0.217 Goal=   None    Shift=    0.000
 RMSDP=1.72D-10 MaxDP=8.78D-09 DE= 2.77D-11 OVMax= 8.68D-09

 Cycle  16  Pass 1  IDiag  1:
 RMSU=  8.07D-11    CP:  6.77D-01  1.23D+00  1.41D-01  8.49D-01  6.90D-01
                    CP:  8.40D-01  1.21D+00  1.02D+00  9.31D-01  1.12D+00
                    CP:  6.39D-01  5.50D-01  1.05D+00  6.07D-01  9.39D-01
 E= -1650.24294439643     Delta-E=        0.000000000018 Rises=F Damp=F
 DIIS: error= 2.05D-10 at cycle  16 NSaved=  15.
 NSaved=15 IEnMin=13 EnMin= -1650.24294439648     IErMin=15 ErrMin= 2.05D-10
 ErrMax= 2.05D-10  0.00D+00 EMaxC= 1.00D-01 BMatC= 2.04D-17 BMatP= 1.85D-15
 IDIUse=1 WtCom= 1.00D+00 WtEn= 0.00D+00
 Coeff-Com: -0.103D-07 0.144D-07 0.102D-07-0.545D-07-0.823D-06-0.210D-05
 Coeff-Com:  0.302D-05 0.336D-04 0.829D-04-0.261D-02-0.287D-02 0.280D-02
 Coeff-Com:  0.445D-01 0.449D+00 0.509D+00
 Coeff:     -0.103D-07 0.144D-07 0.102D-07-0.545D-07-0.823D-06-0.210D-05
 Coeff:      0.302D-05 0.336D-04 0.829D-04-0.261D-02-0.287D-02 0.280D-02
 Coeff:      0.445D-01 0.449D+00 0.509D+00
 Gap=     0.217 Goal=   None    Shift=    0.000
 RMSDP=3.92D-11 MaxDP=3.70D-09 DE= 1.77D-11 OVMax= 1.70D-09

 SCF Done:  E(RPBE1PBE) =  -1650.24294440     A.U. after   16 cycles
            NFock= 16  Conv=0.39D-10     -V/T= 2.0021
 KE= 1.646810493898D+03 PE=-5.744136744827D+03 EE= 1.527848724332D+03
 Leave Link  502 at Sun Apr 11 15:55:51 2021, MaxMem=  1048576000 cpu:      4693.7
 (Enter /usr/local/g09/l801.exe)
 DoSCS=F DFT=T ScalE2(SS,OS)=  1.000000  1.000000
 Range of M.O.s used for correlation:     1   375
 NBasis=   375 NAE=    48 NBE=    48 NFC=     0 NFV=     0
 NROrb=    375 NOA=    48 NOB=    48 NVA=   327 NVB=   327

 **** Warning!!: The largest alpha MO coefficient is  0.11410385D+03

 Leave Link  801 at Sun Apr 11 15:55:51 2021, MaxMem=  1048576000 cpu:         1.2
 (Enter /usr/local/g09/l1002.exe)
 Minotr:  Closed shell wavefunction.
          Direct CPHF calculation.
          Differentiating once with respect to electric field.
                with respect to dipole field.
          Electric field/nuclear overlap derivatives assumed to be zero.
          Requested convergence is 1.0D-10 RMS, and 1.0D-09 maximum.
          NewPWx=F KeepS1=T KeepF1=T KeepIn=T MapXYZ=F SortEE=F KeepMc=T.
          MDV=    1048575453 using IRadAn=       1.
 Generate precomputed XC quadrature information.
          Solving linear equations separately, MaxMat=       0.
          Doing perturbations at frequencies    0.000000    0.105471    0.210941
          There are     9 degrees of freedom in the 1st order CPHF.  IDoFFX=0 NUNeed=     9.
 LinEq1:  Iter=  0 NonCon=     9 RMS=2.92D-01 Max=2.65D+01 NDo=     9
 AX will form     9 AO Fock derivatives at one time.
 FoFJK:  IHMeth= 1 ICntrl=       0 DoSepK=F KAlg= 0 I1Cent=   0 FoldK=F
 IRaf= 980000000 NMat=  18 IRICut=      22 DoRegI=T DoRafI=T ISym2E=-1.
 FoFCou: FMM=F IPFlag=           0 FMFlag=      100000 FMFlg1=           0
         NFxFlg=           0 DoJE=F BraDBF=F KetDBF=F FulRan=T
         wScrn=  0.000000 ICntrl=       0 IOpCl=  0 I1Cent=           0 NGrid=           0
         NMat0=   18 NMatS0=      9 NMatT0=    0 NMatD0=   18 NMtDS0=    0 NMtDT0=    0
 Petite list used in FoFCou.
 LinEq1:  Iter=  1 NonCon=     9 RMS=1.67D-01 Max=6.72D+00 NDo=     9
 LinEq1:  Iter=  2 NonCon=     9 RMS=2.26D-01 Max=2.07D+01 NDo=     9
 LinEq1:  Iter=  3 NonCon=     9 RMS=1.65D+00 Max=9.59D+01 NDo=     9
 LinEq1:  Iter=  4 NonCon=     9 RMS=2.18D+00 Max=2.23D+02 NDo=     9
 LinEq1:  Iter=  5 NonCon=     9 RMS=2.14D+01 Max=1.53D+03 NDo=     9
 LinEq1:  Iter=  6 NonCon=     9 RMS=9.60D+01 Max=8.58D+03 NDo=     9
 LinEq1:  Iter=  7 NonCon=     9 RMS=6.29D+01 Max=5.37D+03 NDo=     9
 LinEq1:  Iter=  8 NonCon=     9 RMS=1.21D+02 Max=1.84D+04 NDo=     9
 LinEq1:  Iter=  9 NonCon=     9 RMS=1.48D+02 Max=1.29D+04 NDo=     9
 LinEq1:  Iter= 10 NonCon=     9 RMS=1.54D+03 Max=1.47D+05 NDo=     9
 LinEq1:  Iter= 11 NonCon=     9 RMS=1.94D+03 Max=2.05D+05 NDo=     9
 LinEq1:  Iter= 12 NonCon=     9 RMS=9.05D+03 Max=3.90D+05 NDo=     9
 LinEq1:  Iter= 13 NonCon=     9 RMS=7.29D+03 Max=5.56D+05 NDo=     9
 LinEq1:  Iter= 14 NonCon=     9 RMS=1.26D+04 Max=1.11D+06 NDo=     9
 LinEq1:  Iter= 15 NonCon=     9 RMS=1.67D+04 Max=1.62D+06 NDo=     9
 LinEq1:  Iter= 16 NonCon=     9 RMS=1.07D+04 Max=5.74D+05 NDo=     9
 LinEq1:  Iter= 17 NonCon=     9 RMS=1.02D+04 Max=5.62D+05 NDo=     9
 LinEq1:  Iter= 18 NonCon=     9 RMS=7.36D+03 Max=7.63D+05 NDo=     9
 LinEq1:  Iter= 19 NonCon=     9 RMS=5.31D+03 Max=2.80D+05 NDo=     9
 LinEq1:  Iter= 20 NonCon=     9 RMS=2.71D+03 Max=3.16D+05 NDo=     9
 LinEq1:  Iter= 21 NonCon=     9 RMS=4.93D+03 Max=5.60D+05 NDo=     9
 LinEq1:  Iter= 22 NonCon=     9 RMS=4.78D+03 Max=2.64D+05 NDo=     9
 LinEq1:  Iter= 23 NonCon=     9 RMS=5.88D+03 Max=5.92D+05 NDo=     9
 LinEq1:  Iter= 24 NonCon=     8 RMS=5.07D+03 Max=4.16D+05 NDo=     9
 LinEq1:  Iter= 25 NonCon=     8 RMS=3.34D+03 Max=1.89D+05 NDo=     8
 LinEq1:  Iter= 26 NonCon=     6 RMS=2.09D+03 Max=9.81D+04 NDo=     8
 LinEq1:  Iter= 27 NonCon=     6 RMS=1.40D+03 Max=7.19D+04 NDo=     6
 LinEq1:  Iter= 28 NonCon=     6 RMS=1.04D+03 Max=4.93D+04 NDo=     6
 LinEq1:  Iter= 29 NonCon=     6 RMS=5.30D+02 Max=2.11D+04 NDo=     6
 LinEq1:  Iter= 30 NonCon=     6 RMS=2.80D+02 Max=2.22D+04 NDo=     6
 LinEq1:  Iter= 31 NonCon=     6 RMS=1.68D+02 Max=8.33D+03 NDo=     6
 LinEq1:  Iter= 32 NonCon=     6 RMS=1.42D+02 Max=6.08D+03 NDo=     6
 LinEq1:  Iter= 33 NonCon=     4 RMS=5.15D+01 Max=3.59D+03 NDo=     6
 LinEq1:  Iter= 34 NonCon=     3 RMS=2.75D+01 Max=1.03D+03 NDo=     4
 LinEq1:  Iter= 35 NonCon=     3 RMS=1.43D+01 Max=8.06D+02 NDo=     3
 LinEq1:  Iter= 36 NonCon=     3 RMS=7.55D+00 Max=3.64D+02 NDo=     3
 LinEq1:  Iter= 37 NonCon=     3 RMS=8.86D+00 Max=4.44D+02 NDo=     3
 LinEq1:  Iter= 38 NonCon=     3 RMS=2.77D+00 Max=1.36D+02 NDo=     3
 LinEq1:  Iter= 39 NonCon=     3 RMS=7.60D-01 Max=4.21D+01 NDo=     3
 LinEq1:  Iter= 40 NonCon=     3 RMS=3.24D-01 Max=1.58D+01 NDo=     3
 LinEq1:  Iter= 41 NonCon=     3 RMS=1.79D-01 Max=7.38D+00 NDo=     3
 LinEq1:  Iter= 42 NonCon=     3 RMS=8.49D-02 Max=4.29D+00 NDo=     3
 LinEq1:  Iter= 43 NonCon=     3 RMS=6.52D-02 Max=2.72D+00 NDo=     3
 LinEq1:  Iter= 44 NonCon=     3 RMS=5.17D-02 Max=2.11D+00 NDo=     3
 LinEq1:  Iter= 45 NonCon=     3 RMS=2.44D-02 Max=1.61D+00 NDo=     3
 LinEq1:  Iter= 46 NonCon=     3 RMS=1.53D-02 Max=7.07D-01 NDo=     3
 LinEq1:  Iter= 47 NonCon=     3 RMS=4.56D-03 Max=1.76D-01 NDo=     3
 LinEq1:  Iter= 48 NonCon=     3 RMS=3.13D-03 Max=1.43D-01 NDo=     3
 LinEq1:  Iter= 49 NonCon=     3 RMS=1.70D-03 Max=1.28D-01 NDo=     3
 LinEq1:  Iter= 50 NonCon=     3 RMS=5.76D-04 Max=2.13D-02 NDo=     3
 LinEq1:  Iter= 51 NonCon=     3 RMS=2.01D-04 Max=1.20D-02 NDo=     3
 LinEq1:  Iter= 52 NonCon=     3 RMS=1.22D-04 Max=6.78D-03 NDo=     3
 LinEq1:  Iter= 53 NonCon=     3 RMS=3.76D-05 Max=1.49D-03 NDo=     3
 LinEq1:  Iter= 54 NonCon=     3 RMS=1.04D-05 Max=8.11D-04 NDo=     3
 LinEq1:  Iter= 55 NonCon=     3 RMS=3.27D-06 Max=1.50D-04 NDo=     3
 LinEq1:  Iter= 56 NonCon=     3 RMS=1.42D-06 Max=1.21D-04 NDo=     3
 LinEq1:  Iter= 57 NonCon=     3 RMS=5.36D-07 Max=4.02D-05 NDo=     3
 LinEq1:  Iter= 58 NonCon=     3 RMS=1.90D-07 Max=1.25D-05 NDo=     3
 LinEq1:  Iter= 59 NonCon=     3 RMS=9.92D-08 Max=6.03D-06 NDo=     3
 LinEq1:  Iter= 60 NonCon=     3 RMS=3.36D-08 Max=1.26D-06 NDo=     3
 LinEq1:  Iter= 61 NonCon=     3 RMS=1.07D-08 Max=4.31D-07 NDo=     3
 LinEq1:  Iter= 62 NonCon=     3 RMS=5.86D-09 Max=3.74D-07 NDo=     3
 LinEq1:  Iter= 63 NonCon=     3 RMS=1.83D-09 Max=1.33D-07 NDo=     3
 LinEq1:  Iter= 64 NonCon=     3 RMS=6.47D-10 Max=3.95D-08 NDo=     3
 LinEq1:  Iter= 65 NonCon=     3 RMS=1.64D-10 Max=5.80D-09 NDo=     3
 LinEq1:  Iter= 66 NonCon=     2 RMS=7.11D-11 Max=3.71D-09 NDo=     3
 LinEq1:  Iter= 67 NonCon=     2 RMS=2.37D-11 Max=1.39D-09 NDo=     2
 LinEq1:  Iter= 68 NonCon=     0 RMS=1.21D-11 Max=7.20D-10 NDo=     2
 Linear equations converged to 1.000D-10 1.000D-09 after    68 iterations.
 FullF1:  Do perturbations    1 to     9.
 SCF Polarizability for W=    0.000000:
                1             2             3 
      1  0.139263D+03
      2 -0.101333D-03  0.110795D+03
      3  0.273131D-03  0.698392D-03  0.110795D+03
 Isotropic polarizability for W=    0.000000      120.28 Bohr**3.
 SCF Polarizability for W=    0.105471:
                1             2             3 
      1  0.154456D+03
      2 -0.111601D-03  0.116486D+03
      3  0.376557D-03  0.984847D-03  0.116486D+03
 Isotropic polarizability for W=    0.105471      129.14 Bohr**3.
 SCF Polarizability for W=    0.210941:
                1             2             3 
      1  0.325539D+03
      2 -0.673453D-03  0.131353D+03
      3  0.242323D-02 -0.687129D-02  0.131388D+03
 Isotropic polarizability for W=    0.210941      196.09 Bohr**3.
 SCF Static Hyperpolarizability:
 K=  1 block:
                1 
      1  0.317041D-02
 K=  2 block:
                1             2 
      1  0.110728D+00
      2 -0.663150D-04 -0.245238D-01
 K=  3 block:
                1             2             3 
      1  0.267708D-01
      2 -0.146302D-02 -0.224976D-01
      3  0.849715D-03 -0.412730D-01  0.480017D-01
 SCF Beta(-W,W;0) for W=    0.105471:
 K=  1 block:
                1             2             3 
      1  0.461274D-02
      2  0.159738D+00 -0.722115D-03
      3  0.636620D-01 -0.239165D-02  0.124258D-02
 K=  2 block:
                1             2             3 
      1  0.177261D+00
      2 -0.353942D-03 -0.536393D-01
      3 -0.426668D-02 -0.337529D-01 -0.645446D-01
 K=  3 block:
                1             2             3 
      1  0.563983D-01
      2 -0.867080D-03 -0.316118D-01
      3  0.153285D-02 -0.648039D-01  0.480243D-01
 SCF Beta(W,W;-2W) for W=    0.105471:
 K=  1 block:
                1             2             3 
      1  0.394020D-01
      2  0.141033D+01  0.164917D-01
      3  0.553995D-01 -0.357874D-02  0.100771D-02
 K=  2 block:
                1             2             3 
      1  0.980039D+00
      2 -0.122229D-01  0.606438D-01
      3 -0.238665D+00 -0.645477D-01 -0.503854D-01
 K=  3 block:
                1             2             3 
      1 -0.324415D+00
      2  0.210142D+00  0.256400D+00
      3  0.107209D-01 -0.460547D+00 -0.110201D+00
 SCF Beta(-W,W;0) for W=    0.210941:
 K=  1 block:
                1             2             3 
      1  0.110337D+00
      2 -0.330337D+00  0.191585D+00
      3  0.430770D+00  0.227342D+00 -0.248849D+00
 K=  2 block:
                1             2             3 
      1  0.102725D+01
      2  0.152808D+00 -0.469241D+01
      3  0.318737D+00 -0.856922D+01  0.103139D+02
 K=  3 block:
                1             2             3 
      1  0.179233D+01
      2 -0.590322D-01 -0.601100D+01
      3 -0.161974D+00  0.337450D+00  0.428285D+01
 End of Minotr F.D. properties on file   721 Mask=      31 NFrqRd=     2 NDeriv=     1 ND12= 1 LenFil=      94:
 Frequencies=    0.000000    0.105471
 Property number 1 -- Alpha(-w,w) frequency  1    0.000000:
                 1             2             3 
      1   0.139263D+03 -0.101333D-03  0.273131D-03
      2  -0.101333D-03  0.110795D+03  0.698392D-03
      3   0.273131D-03  0.698392D-03  0.110795D+03
 Property number 1 -- Alpha(-w,w) frequency  2    0.105471:
                 1             2             3 
      1   0.154456D+03 -0.111601D-03  0.376557D-03
      2  -0.111601D-03  0.116486D+03  0.984847D-03
      3   0.376557D-03  0.984847D-03  0.116486D+03
 Property number 5 -- Beta(-w,w,0) frequency  1    0.000000:
                 1 
      1   0.317041D-02
      2   0.110728D+00
      3  -0.663150D-04
      4   0.267708D-01
      5  -0.146302D-02
      6   0.849715D-03
      7   0.110728D+00
      8  -0.663150D-04
      9  -0.245238D-01
     10  -0.146302D-02
     11  -0.224976D-01
     12  -0.412730D-01
     13   0.267708D-01
     14  -0.146302D-02
     15  -0.224976D-01
     16   0.849715D-03
     17  -0.412730D-01
     18   0.480017D-01
 Property number 5 -- Beta(-w,w,0) frequency  2    0.105471:
                 1 
      1   0.461274D-02
      2   0.159738D+00
      3  -0.722115D-03
      4   0.636620D-01
      5  -0.239165D-02
      6   0.124258D-02
      7   0.177261D+00
      8  -0.353942D-03
      9  -0.536393D-01
     10  -0.426668D-02
     11  -0.337529D-01
     12  -0.645446D-01
     13   0.563983D-01
     14  -0.867080D-03
     15  -0.316118D-01
     16   0.153285D-02
     17  -0.648039D-01
     18   0.480243D-01
 Property number 6 -- Beta(w,w,-2w) frequency  1    0.000000:
                 1 
      1   0.317041D-02
      2   0.110728D+00
      3  -0.663150D-04
      4   0.267708D-01
      5  -0.146302D-02
      6   0.849715D-03
      7   0.110728D+00
      8  -0.663150D-04
      9  -0.245238D-01
     10  -0.146302D-02
     11  -0.224976D-01
     12  -0.412730D-01
     13   0.267708D-01
     14  -0.146302D-02
     15  -0.224976D-01
     16   0.849715D-03
     17  -0.412730D-01
     18   0.480017D-01
 Property number 6 -- Beta(w,w,-2w) frequency  2    0.105471:
                 1 
      1   0.394020D-01
      2   0.141033D+01
      3   0.164917D-01
      4   0.553995D-01
      5  -0.357874D-02
      6   0.100771D-02
      7   0.980039D+00
      8  -0.122229D-01
      9   0.606438D-01
     10  -0.238665D+00
     11  -0.645477D-01
     12  -0.503854D-01
     13  -0.324415D+00
     14   0.210142D+00
     15   0.256400D+00
     16   0.107209D-01
     17  -0.460547D+00
     18  -0.110201D+00
 End of Minotr F.D. properties file   722 does not exist.
 End of Minotr F.D. properties file   788 does not exist.
 Leave Link 1002 at Sun Apr 11 16:23:18 2021, MaxMem=  1048576000 cpu:     41054.5
 (Enter /usr/local/g09/l601.exe)
 Copying SCF densities to generalized density rwf, IOpCl= 0 IROHF=0.

 **********************************************************************

            Population analysis using the SCF density.

 **********************************************************************

 Orbital symmetries:
       Occupied  (A) (A) (A) (A) (A) (A) (A) (A) (A) (A) (A) (A)
                 (A) (A) (A) (A) (A) (A) (A) (A) (A) (A) (A) (A)
                 (A) (A) (A) (A) (A) (A) (A) (A) (A) (A) (A) (A)
                 (A) (A) (A) (A) (A) (A) (A) (A) (A) (A) (A) (A)
       Virtual   (A) (A) (A) (A) (A) (A) (A) (A) (A) (A) (A) (A)
                 (A) (A) (A) (A) (A) (A) (A) (A) (A) (A) (A) (A)
                 (A) (A) (A) (A) (A) (A) (A) (A) (A) (A) (A) (A)
                 (A) (A) (A) (A) (A) (A) (A) (A) (A) (A) (A) (A)
                 (A) (A) (A) (A) (A) (A) (A) (A) (A) (A) (A) (A)
                 (A) (A) (A) (A) (A) (A) (A) (A) (A) (A) (A) (A)
                 (A) (A) (A) (A) (A) (A) (A) (A) (A) (A) (A) (A)
                 (A) (A) (A) (A) (A) (A) (A) (A) (A) (A) (A) (A)
                 (A) (A) (A) (A) (A) (A) (A) (A) (A) (A) (A) (A)
                 (A) (A) (A) (A) (A) (A) (A) (A) (A) (A) (A) (A)
                 (A) (A) (A) (A) (A) (A) (A) (A) (A) (A) (A) (A)
                 (A) (A) (A) (A) (A) (A) (A) (A) (A) (A) (A) (A)
                 (A) (A) (A) (A) (A) (A) (A) (A) (A) (A) (A) (A)
                 (A) (A) (A) (A) (A) (A) (A) (A) (A) (A) (A) (A)
                 (A) (A) (A) (A) (A) (A) (A) (A) (A) (A) (A) (A)
                 (A) (A) (A) (A) (A) (A) (A) (A) (A) (A) (A) (A)
                 (A) (A) (A) (A) (A) (A) (A) (A) (A) (A) (A) (A)
                 (A) (A) (A) (A) (A) (A) (A) (A) (A) (A) (A) (A)
                 (A) (A) (A) (A) (A) (A) (A) (A) (A) (A) (A) (A)
                 (A) (A) (A) (A) (A) (A) (A) (A) (A) (A) (A) (A)
                 (A) (A) (A) (A) (A) (A) (A) (A) (A) (A) (A) (A)
                 (A) (A) (A) (A) (A) (A) (A) (A) (A) (A) (A) (A)
                 (A) (A) (A) (A) (A) (A) (A) (A) (A) (A) (A) (A)
                 (A) (A) (A) (A) (A) (A) (A) (A) (A) (A) (A) (A)
                 (A) (A) (A) (A) (A) (A) (A) (A) (A) (A) (A) (A)
                 (A) (A) (A) (A) (A) (A) (A) (A) (A) (A) (A) (A)
                 (A) (A) (A) (A) (A) (A) (A) (A) (A) (A) (A) (A)
                 (A) (A) (A)
 The electronic state is 1-A.
 Alpha  occ. eigenvalues -- -256.33215 -30.10131 -25.93988 -25.92057 -25.92057
 Alpha  occ. eigenvalues --  -10.22790 -10.22788 -10.22758 -10.22758 -10.22757
 Alpha  occ. eigenvalues --  -10.22757 -10.22698 -10.22698 -10.22697 -10.22697
 Alpha  occ. eigenvalues --   -3.44961  -2.23693  -2.19175  -2.19175  -0.92203
 Alpha  occ. eigenvalues --   -0.90474  -0.73481  -0.73481  -0.73382  -0.73382
 Alpha  occ. eigenvalues --   -0.56410  -0.56409  -0.55506  -0.55506  -0.55477
 Alpha  occ. eigenvalues --   -0.54034  -0.43035  -0.42106  -0.42106  -0.41175
 Alpha  occ. eigenvalues --   -0.41175  -0.39323  -0.39322  -0.38817  -0.38817
 Alpha  occ. eigenvalues --   -0.37603  -0.28076  -0.28076  -0.26258  -0.26257
 Alpha  occ. eigenvalues --   -0.24481  -0.21459  -0.21458
 Alpha virt. eigenvalues --    0.00196   0.00197   0.01323   0.02719   0.02720
 Alpha virt. eigenvalues --    0.03498   0.04118   0.04120   0.04971   0.05744
 Alpha virt. eigenvalues --    0.05745   0.05798   0.05798   0.06222   0.06223
 Alpha virt. eigenvalues --    0.08955   0.09144   0.09144   0.09967   0.09968
 Alpha virt. eigenvalues --    0.11209   0.11214   0.13597   0.13598   0.13913
 Alpha virt. eigenvalues --    0.13914   0.14123   0.14561   0.14565   0.17342
 Alpha virt. eigenvalues --    0.17344   0.17959   0.17959   0.18240   0.18240
 Alpha virt. eigenvalues --    0.18348   0.19093   0.19097   0.19211   0.19213
 Alpha virt. eigenvalues --    0.19652   0.21033   0.21356   0.21850   0.21851
 Alpha virt. eigenvalues --    0.23274   0.23280   0.24053   0.24054   0.25320
 Alpha virt. eigenvalues --    0.26002   0.26738   0.26738   0.26760   0.26761
 Alpha virt. eigenvalues --    0.29123   0.29126   0.30697   0.31279   0.31281
 Alpha virt. eigenvalues --    0.34622   0.34623   0.35879   0.35886   0.38917
 Alpha virt. eigenvalues --    0.40198   0.40199   0.40676   0.40680   0.41912
 Alpha virt. eigenvalues --    0.41918   0.43762   0.44514   0.45679   0.48075
 Alpha virt. eigenvalues --    0.48344   0.52534   0.52536   0.55988   0.55991
 Alpha virt. eigenvalues --    0.56239   0.56240   0.58943   0.58947   0.61473
 Alpha virt. eigenvalues --    0.61476   0.61477   0.61479   0.61481   0.61918
 Alpha virt. eigenvalues --    0.64277   0.64281   0.64404   0.64405   0.65757
 Alpha virt. eigenvalues --    0.65757   0.67122   0.67123   0.69894   0.70259
 Alpha virt. eigenvalues --    0.70259   0.70341   0.70343   0.71982   0.71984
 Alpha virt. eigenvalues --    0.72250   0.72352   0.72356   0.73420   0.74520
 Alpha virt. eigenvalues --    0.74522   0.75757   0.78646   0.78648   0.82065
 Alpha virt. eigenvalues --    0.86804   0.86806   0.87162   0.87163   0.87546
 Alpha virt. eigenvalues --    0.88977   0.88989   0.97115   0.97530   0.98221
 Alpha virt. eigenvalues --    0.98239   1.01073   1.01073   1.02651   1.02655
 Alpha virt. eigenvalues --    1.09211   1.09217   1.09796   1.09797   1.12375
 Alpha virt. eigenvalues --    1.12375   1.16828   1.16831   1.19362   1.25626
 Alpha virt. eigenvalues --    1.25629   1.25683   1.27087   1.27092   1.27279
 Alpha virt. eigenvalues --    1.27279   1.28829   1.28832   1.30561   1.30566
 Alpha virt. eigenvalues --    1.33067   1.34068   1.34069   1.34466   1.39887
 Alpha virt. eigenvalues --    1.41881   1.41883   1.41957   1.41959   1.42242
 Alpha virt. eigenvalues --    1.42252   1.43443   1.43446   1.45704   1.46934
 Alpha virt. eigenvalues --    1.46936   1.49161   1.49163   1.49585   1.53891
 Alpha virt. eigenvalues --    1.55326   1.58598   1.58599   1.60054   1.60062
 Alpha virt. eigenvalues --    1.60396   1.60409   1.65082   1.65083   1.68967
 Alpha virt. eigenvalues --    1.78618   1.78618   1.81433   1.81433   1.95417
 Alpha virt. eigenvalues --    1.95417   2.01924   2.12548   2.12555   2.14019
 Alpha virt. eigenvalues --    2.14030   2.16276   2.16277   2.16733   2.16735
 Alpha virt. eigenvalues --    2.28291   2.28292   2.30841   2.32426   2.46385
 Alpha virt. eigenvalues --    2.46388   2.49325   2.51846   2.54559   2.54560
 Alpha virt. eigenvalues --    2.65351   2.65352   2.65604   2.65605   2.67425
 Alpha virt. eigenvalues --    2.72849   2.72853   2.73340   2.79907   2.82266
 Alpha virt. eigenvalues --    2.82267   2.84209   2.86042   2.86046   2.89165
 Alpha virt. eigenvalues --    2.89166   2.94284   2.94289   3.00975   3.00978
 Alpha virt. eigenvalues --    3.01397   3.01398   3.09394   3.09396   3.10193
 Alpha virt. eigenvalues --    3.10195   3.10709   3.10714   3.15560   3.20907
 Alpha virt. eigenvalues --    3.20915   3.22882   3.22883   3.23185   3.23186
 Alpha virt. eigenvalues --    3.25093   3.25094   3.35590   3.36913   3.36924
 Alpha virt. eigenvalues --    3.37007   3.43052   3.43052   3.44818   3.44822
 Alpha virt. eigenvalues --    3.48094   3.54281   3.54284   3.55531   3.55531
 Alpha virt. eigenvalues --    3.57486   3.57487   3.59898   3.59902   3.62599
 Alpha virt. eigenvalues --    3.62600   3.63419   3.64467   3.64486   3.64487
 Alpha virt. eigenvalues --    3.68047   3.68234   3.68740   3.68740   3.69249
 Alpha virt. eigenvalues --    3.69250   3.76837   3.76838   3.78028   3.78031
 Alpha virt. eigenvalues --    3.79144   3.79144   3.80432   3.80435   3.80447
 Alpha virt. eigenvalues --    3.81373   3.81885   3.81889   3.84041   3.85344
 Alpha virt. eigenvalues --    3.85344   3.86476   3.96180   3.96198   4.00125
 Alpha virt. eigenvalues --    4.00139   4.01058   4.06856   4.06858   4.10467
 Alpha virt. eigenvalues --    4.12955   4.12956   4.27593   4.27596   4.29613
 Alpha virt. eigenvalues --    4.29617   4.36550   4.56878   4.56878   4.61199
 Alpha virt. eigenvalues --    4.61206   4.74554   4.74557   4.75823   4.75826
 Alpha virt. eigenvalues --    4.85945   4.85946   4.87570   4.87571   5.07373
 Alpha virt. eigenvalues --    5.15164   5.15397  23.90686  24.01227  24.09377
 Alpha virt. eigenvalues --   24.09378  24.14519  24.14525  24.25967  24.25968
 Alpha virt. eigenvalues --   24.37779  24.37780
 Electronic spatial extent (au):  <R**2>=           1342.4551
 Charge=              0.0000 electrons
 Dipole moment (field-independent basis, Debye):
    X=              0.0000    Y=             -0.0003    Z=              0.0004  Tot=              0.0005
 Quadrupole moment (field-independent basis, Debye-Ang):
   XX=            -81.1151   YY=            -67.0485   ZZ=            -67.0497
   XY=             -0.0001   XZ=             -0.0002   YZ=              0.0003
 Traceless Quadrupole moment (field-independent basis, Debye-Ang):
   XX=             -9.3773   YY=              4.6893   ZZ=              4.6881
   XY=             -0.0001   XZ=             -0.0002   YZ=              0.0003
 Octapole moment (field-independent basis, Debye-Ang**2):
  XXX=             -0.0002  YYY=              0.0004  ZZZ=              0.0002  XYY=             -0.0008
  XXY=              0.0109  XXZ=             -0.0057  XZZ=              0.0006  YZZ=              0.0010
  YYZ=             -0.0006  XYZ=             -0.0007
 Hexadecapole moment (field-independent basis, Debye-Ang**3):
 XXXX=          -1183.1239 YYYY=           -378.6576 ZZZZ=           -378.6642 XXXY=             -0.0010
 XXXZ=             -0.0024 YYYX=             -0.0002 YYYZ=             -0.0004 ZZZX=             -0.0011
 ZZZY=              0.0001 XXYY=           -239.1683 XXZZ=           -239.1695 YYZZ=           -126.2203
 XXYZ=             -0.0027 YYXZ=             -0.0003 ZZXY=             -0.0009
 N-N= 9.192345822002D+02 E-N=-5.744136744866D+03  KE= 1.646810493898D+03
  Exact polarizability: 139.263   0.000 110.795   0.000   0.001 110.795
 Approx polarizability: 216.991   0.000 182.957   0.000   0.000 182.958
 No NMR shielding tensors so no spin-rotation constants.
 Leave Link  601 at Sun Apr 11 16:23:18 2021, MaxMem=  1048576000 cpu:         6.2
 (Enter /usr/local/g09/l106.exe)
 NDeriv=   3 NFrqRd=  2 NDerD0=   0 MskFDP=      31 MskDFD=      31 MskDF0=       0
 At 1st pt F.D. properties on file   721 Mask=      31 NFrqRd=     2 NDeriv=     1 ND12= 1 LenFil=      94:
 Frequencies=    0.000000    0.105471
 Property number 1 -- Alpha(-w,w) frequency  1    0.000000:
                 1             2             3 
      1   0.139263D+03 -0.101333D-03  0.273131D-03
      2  -0.101333D-03  0.110795D+03  0.698392D-03
      3   0.273131D-03  0.698392D-03  0.110795D+03
 Property number 1 -- Alpha(-w,w) frequency  2    0.105471:
                 1             2             3 
      1   0.154456D+03 -0.111601D-03  0.376557D-03
      2  -0.111601D-03  0.116486D+03  0.984847D-03
      3   0.376557D-03  0.984847D-03  0.116486D+03
 Property number 5 -- Beta(-w,w,0) frequency  1    0.000000:
                 1 
      1   0.317041D-02
      2   0.110728D+00
      3  -0.663150D-04
      4   0.267708D-01
      5  -0.146302D-02
      6   0.849715D-03
      7   0.110728D+00
      8  -0.663150D-04
      9  -0.245238D-01
     10  -0.146302D-02
     11  -0.224976D-01
     12  -0.412730D-01
     13   0.267708D-01
     14  -0.146302D-02
     15  -0.224976D-01
     16   0.849715D-03
     17  -0.412730D-01
     18   0.480017D-01
 Property number 5 -- Beta(-w,w,0) frequency  2    0.105471:
                 1 
      1   0.461274D-02
      2   0.159738D+00
      3  -0.722115D-03
      4   0.636620D-01
      5  -0.239165D-02
      6   0.124258D-02
      7   0.177261D+00
      8  -0.353942D-03
      9  -0.536393D-01
     10  -0.426668D-02
     11  -0.337529D-01
     12  -0.645446D-01
     13   0.563983D-01
     14  -0.867080D-03
     15  -0.316118D-01
     16   0.153285D-02
     17  -0.648039D-01
     18   0.480243D-01
 Property number 6 -- Beta(w,w,-2w) frequency  1    0.000000:
                 1 
      1   0.317041D-02
      2   0.110728D+00
      3  -0.663150D-04
      4   0.267708D-01
      5  -0.146302D-02
      6   0.849715D-03
      7   0.110728D+00
      8  -0.663150D-04
      9  -0.245238D-01
     10  -0.146302D-02
     11  -0.224976D-01
     12  -0.412730D-01
     13   0.267708D-01
     14  -0.146302D-02
     15  -0.224976D-01
     16   0.849715D-03
     17  -0.412730D-01
     18   0.480017D-01
 Property number 6 -- Beta(w,w,-2w) frequency  2    0.105471:
                 1 
      1   0.394020D-01
      2   0.141033D+01
      3   0.164917D-01
      4   0.553995D-01
      5  -0.357874D-02
      6   0.100771D-02
      7   0.980039D+00
      8  -0.122229D-01
      9   0.606438D-01
     10  -0.238665D+00
     11  -0.645477D-01
     12  -0.503854D-01
     13  -0.324415D+00
     14   0.210142D+00
     15   0.256400D+00
     16   0.107209D-01
     17  -0.460547D+00
     18  -0.110201D+00
 At 1st pt F.D. properties file   722 does not exist.
 D2Numr ... symmetry will be used.
 Leave Link  106 at Sun Apr 11 16:23:19 2021, MaxMem=  1048576000 cpu:         2.7
 (Enter /usr/local/g09/l301.exe)
 Basis read from rwf:  (5D, 7F)
 Pseudo-potential data read from rwf file.
 The following finite field(s) will be applied:
 An electric field of              0.0003  0.0000  0.0000
   375 basis functions,   602 primitive gaussians,   402 cartesian basis functions
    48 alpha electrons       48 beta electrons
       nuclear repulsion energy       919.2345822002 Hartrees.
 IExCor= 1009 DFT=T Ex+Corr=PBE1PBE ExCW=0 ScaHFX=  0.250000
 ScaDFX=  0.750000  0.750000  1.000000  1.000000 ScalE2=  1.000000  1.000000
 IRadAn=      0 IRanWt=     -1 IRanGd=            0 ICorTp=0 IEmpDi=  4
 NAtoms=   21 NActive=   21 NUniq=   21 SFac= 1.00D+00 NAtFMM=   60 NAOKFM=F Big=F
 Integral buffers will be    131072 words long.
 Raffenetti 2 integral format.
 Two-electron integral symmetry is turned off.
 No density basis found on file   724.
 Leave Link  301 at Sun Apr 11 16:23:19 2021, MaxMem=  1048576000 cpu:         1.4
 (Enter /usr/local/g09/l302.exe)
 NPDir=0 NMtPBC=     1 NCelOv=     1 NCel=       1 NClECP=     1 NCelD=      1
         NCelK=      1 NCelE2=     1 NClLst=     1 CellRange=     0.0.
 One-electron integrals computed using PRISM.
   1 Symmetry operations used in ECPInt.
 ECPInt:  NShTT=    7875 NPrTT=   28235 LenC2=    7866 LenP2D=   21150.
 LDataN:  DoStor=T MaxTD1= 6 Len=  172
 NBasis=   375 RedAO= T EigKep=  3.67D-06  NBF=   375
 NBsUse=   375 1.00D-06 EigRej= -1.00D+00 NBFU=   375
 Precomputing XC quadrature grid using
 IXCGrd= 4 IRadAn=           0 IRanWt=          -1 IRanGd=           0 AccXCQ= 0.00D+00.
 Generated NRdTot=       0 NPtTot=           0 NUsed=           0 NTot=          32
 NSgBfM=   402   402   402   402   402 MxSgAt=    21 MxSgA2=    21.
 Leave Link  302 at Sun Apr 11 16:23:19 2021, MaxMem=  1048576000 cpu:         8.9
 (Enter /usr/local/g09/l303.exe)
 DipDrv:  MaxL=1.
 The nuclear repulsion energy is now       919.2345822002 hartrees.
 Leave Link  303 at Sun Apr 11 16:23:19 2021, MaxMem=  1048576000 cpu:         1.5
 (Enter /usr/local/g09/l401.exe)
 Initial guess from the checkpoint file:  "ferr_pbe0.chk"
 B after Tr=     0.000000    0.000000    0.000000
         Rot=    1.000000    0.000000    0.000000    0.000000 Ang=   0.00 deg.
 Guess basis will be translated and rotated to current coordinates.
 JPrj=2 DoOrth=T DoCkMO=T.
 Leave Link  401 at Sun Apr 11 16:23:19 2021, MaxMem=  1048576000 cpu:         6.6
 (Enter /usr/local/g09/l502.exe)
 Closed shell SCF:
 Using DIIS extrapolation, IDIIS=  1040.
 Two-electron integral symmetry not used.
 IVT=      515866 IEndB=      515866 NGot=  1048576000 MDV=  1048238781
 LenX=  1048238781 LenY=  1048076736
 Requested convergence on RMS density matrix=1.00D-10 within 128 cycles.
 Requested convergence on MAX density matrix=1.00D-08.
 Requested convergence on             energy=1.00D-08.
 No special actions if energy rises.
 Fock matrices will be formed incrementally for  20 cycles.

 Cycle   1  Pass 1  IDiag  1:
 FoFJK:  IHMeth= 1 ICntrl=       0 DoSepK=F KAlg= 0 I1Cent=   0 FoldK=F
 IRaf= 980000000 NMat=   1 IRICut=       1 DoRegI=T DoRafI=F ISym2E= 0.
 FoFCou: FMM=F IPFlag=           0 FMFlag=      100000 FMFlg1=           0
         NFxFlg=           0 DoJE=F BraDBF=F KetDBF=F FulRan=T
         wScrn=  0.000000 ICntrl=       0 IOpCl=  0 I1Cent=           0 NGrid=           0
         NMat0=    1 NMatS0=      1 NMatT0=    0 NMatD0=    1 NMtDS0=    0 NMtDT0=    0
 Symmetry not used in FoFCou.
 E= -1650.24294439940    
 DIIS: error= 1.54D-04 at cycle   1 NSaved=   1.
 NSaved= 1 IEnMin= 1 EnMin= -1650.24294439940     IErMin= 1 ErrMin= 1.54D-04
 ErrMax= 1.54D-04  0.00D+00 EMaxC= 1.00D-01 BMatC= 2.82D-06 BMatP= 2.82D-06
 IDIUse=3 WtCom= 9.98D-01 WtEn= 1.54D-03
 Coeff-Com:  0.100D+01
 Coeff-En:   0.100D+01
 Coeff:      0.100D+01
 Gap=     0.451 Goal=   None    Shift=    0.000
 RMSDP=8.53D-05 MaxDP=4.52D-03              OVMax= 2.15D-03

 Cycle   2  Pass 1  IDiag  1:
 RMSU=  8.53D-05    CP:  1.00D+00
 E= -1650.24294675961     Delta-E=       -0.000002360218 Rises=F Damp=F
 DIIS: error= 1.42D-04 at cycle   2 NSaved=   2.
 NSaved= 2 IEnMin= 2 EnMin= -1650.24294675961     IErMin= 2 ErrMin= 1.42D-04
 ErrMax= 1.42D-04  0.00D+00 EMaxC= 1.00D-01 BMatC= 4.29D-06 BMatP= 2.82D-06
 IDIUse=3 WtCom= 4.56D-01 WtEn= 5.44D-01
 Coeff-Com:  0.561D+00 0.439D+00
 Coeff-En:   0.378D+00 0.622D+00
 Coeff:      0.462D+00 0.538D+00
 Gap=     0.217 Goal=   None    Shift=    0.000
 RMSDP=2.14D-05 MaxDP=4.62D-04 DE=-2.36D-06 OVMax= 9.82D-04

 Cycle   3  Pass 1  IDiag  1:
 RMSU=  2.04D-05    CP:  1.00D+00  9.25D-01
 E= -1650.24295119481     Delta-E=       -0.000004435194 Rises=F Damp=F
 DIIS: error= 6.65D-05 at cycle   3 NSaved=   3.
 NSaved= 3 IEnMin= 3 EnMin= -1650.24295119481     IErMin= 3 ErrMin= 6.65D-05
 ErrMax= 6.65D-05  0.00D+00 EMaxC= 1.00D-01 BMatC= 1.00D-06 BMatP= 2.82D-06
 IDIUse=1 WtCom= 1.00D+00 WtEn= 0.00D+00
 Coeff-Com:  0.204D+00 0.318D+00 0.479D+00
 Coeff:      0.204D+00 0.318D+00 0.479D+00
 Gap=     0.217 Goal=   None    Shift=    0.000
 RMSDP=1.22D-05 MaxDP=6.93D-04 DE=-4.44D-06 OVMax= 2.54D-04

 Cycle   4  Pass 1  IDiag  1:
 RMSU=  4.23D-06    CP:  1.00D+00  8.77D-01  4.77D-01
 E= -1650.24295212098     Delta-E=       -0.000000926175 Rises=F Damp=F
 DIIS: error= 1.24D-05 at cycle   4 NSaved=   4.
 NSaved= 4 IEnMin= 4 EnMin= -1650.24295212098     IErMin= 4 ErrMin= 1.24D-05
 ErrMax= 1.24D-05  0.00D+00 EMaxC= 1.00D-01 BMatC= 2.03D-08 BMatP= 1.00D-06
 IDIUse=1 WtCom= 1.00D+00 WtEn= 0.00D+00
 Coeff-Com:  0.254D-01 0.558D-01 0.163D+00 0.756D+00
 Coeff:      0.254D-01 0.558D-01 0.163D+00 0.756D+00
 Gap=     0.217 Goal=   None    Shift=    0.000
 RMSDP=1.60D-06 MaxDP=4.62D-05 DE=-9.26D-07 OVMax= 4.54D-05

 Cycle   5  Pass 1  IDiag  1:
 RMSU=  1.18D-06    CP:  1.00D+00  8.76D-01  5.29D-01  9.98D-01
 E= -1650.24295211202     Delta-E=        0.000000008966 Rises=F Damp=F
 DIIS: error= 1.97D-05 at cycle   5 NSaved=   5.
 NSaved= 5 IEnMin= 4 EnMin= -1650.24295212098     IErMin= 4 ErrMin= 1.24D-05
 ErrMax= 1.97D-05  0.00D+00 EMaxC= 1.00D-01 BMatC= 5.25D-08 BMatP= 2.03D-08
 IDIUse=1 WtCom= 1.00D+00 WtEn= 0.00D+00
 Coeff-Com:  0.139D-01 0.349D-01 0.119D+00 0.642D+00 0.191D+00
 Coeff:      0.139D-01 0.349D-01 0.119D+00 0.642D+00 0.191D+00
 Gap=     0.217 Goal=   None    Shift=    0.000
 RMSDP=9.38D-07 MaxDP=4.63D-05 DE= 8.97D-09 OVMax= 4.29D-05

 Cycle   6  Pass 1  IDiag  1:
 RMSU=  6.48D-07    CP:  1.00D+00  8.75D-01  5.30D-01  1.02D+00  4.77D-01
 E= -1650.24295213383     Delta-E=       -0.000000021810 Rises=F Damp=F
 DIIS: error= 6.34D-06 at cycle   6 NSaved=   6.
 NSaved= 6 IEnMin= 6 EnMin= -1650.24295213383     IErMin= 6 ErrMin= 6.34D-06
 ErrMax= 6.34D-06  0.00D+00 EMaxC= 1.00D-01 BMatC= 5.65D-09 BMatP= 2.03D-08
 IDIUse=1 WtCom= 1.00D+00 WtEn= 0.00D+00
 Coeff-Com: -0.929D-03 0.586D-03 0.118D-01 0.130D+00 0.230D+00 0.628D+00
 Coeff:     -0.929D-03 0.586D-03 0.118D-01 0.130D+00 0.230D+00 0.628D+00
 Gap=     0.217 Goal=   None    Shift=    0.000
 RMSDP=4.45D-07 MaxDP=2.90D-05 DE=-2.18D-08 OVMax= 1.07D-05

 Cycle   7  Pass 1  IDiag  1:
 RMSU=  1.24D-07    CP:  1.00D+00  8.74D-01  5.19D-01  1.08D+00  5.99D-01
                    CP:  7.25D-01
 E= -1650.24295213647     Delta-E=       -0.000000002644 Rises=F Damp=F
 DIIS: error= 2.95D-07 at cycle   7 NSaved=   7.
 NSaved= 7 IEnMin= 7 EnMin= -1650.24295213647     IErMin= 7 ErrMin= 2.95D-07
 ErrMax= 2.95D-07  0.00D+00 EMaxC= 1.00D-01 BMatC= 1.84D-11 BMatP= 5.65D-09
 IDIUse=1 WtCom= 1.00D+00 WtEn= 0.00D+00
 Coeff-Com: -0.833D-03-0.101D-02-0.371D-02-0.730D-03 0.408D-01 0.134D+00
 Coeff-Com:  0.832D+00
 Coeff:     -0.833D-03-0.101D-02-0.371D-02-0.730D-03 0.408D-01 0.134D+00
 Coeff:      0.832D+00
 Gap=     0.217 Goal=   None    Shift=    0.000
 RMSDP=7.98D-08 MaxDP=5.31D-06 DE=-2.64D-09 OVMax= 1.84D-06

 Cycle   8  Pass 1  IDiag  1:
 RMSU=  1.44D-08    CP:  1.00D+00  8.74D-01  5.16D-01  1.09D+00  6.12D-01
                    CP:  7.45D-01  1.03D+00
 E= -1650.24295213648     Delta-E=       -0.000000000008 Rises=F Damp=F
 DIIS: error= 3.61D-08 at cycle   8 NSaved=   8.
 NSaved= 8 IEnMin= 8 EnMin= -1650.24295213648     IErMin= 8 ErrMin= 3.61D-08
 ErrMax= 3.61D-08  0.00D+00 EMaxC= 1.00D-01 BMatC= 3.03D-13 BMatP= 1.84D-11
 IDIUse=1 WtCom= 1.00D+00 WtEn= 0.00D+00
 Coeff-Com: -0.327D-04-0.954D-04-0.116D-03-0.255D-02-0.383D-03 0.211D-02
 Coeff-Com:  0.627D-01 0.938D+00
 Coeff:     -0.327D-04-0.954D-04-0.116D-03-0.255D-02-0.383D-03 0.211D-02
 Coeff:      0.627D-01 0.938D+00
 Gap=     0.217 Goal=   None    Shift=    0.000
 RMSDP=8.62D-09 MaxDP=5.35D-07 DE=-7.73D-12 OVMax= 2.16D-07

 Cycle   9  Pass 1  IDiag  1:
 RMSU=  3.85D-09    CP:  1.00D+00  8.74D-01  5.16D-01  1.09D+00  6.13D-01
                    CP:  7.51D-01  1.04D+00  1.02D+00
 E= -1650.24295213645     Delta-E=        0.000000000032 Rises=F Damp=F
 DIIS: error= 9.89D-09 at cycle   9 NSaved=   9.
 NSaved= 9 IEnMin= 8 EnMin= -1650.24295213648     IErMin= 9 ErrMin= 9.89D-09
 ErrMax= 9.89D-09  0.00D+00 EMaxC= 1.00D-01 BMatC= 2.63D-14 BMatP= 3.03D-13
 IDIUse=1 WtCom= 1.00D+00 WtEn= 0.00D+00
 Coeff-Com: -0.169D-05-0.332D-04 0.119D-04-0.847D-03-0.632D-03-0.172D-02
 Coeff-Com:  0.923D-02 0.326D+00 0.668D+00
 Coeff:     -0.169D-05-0.332D-04 0.119D-04-0.847D-03-0.632D-03-0.172D-02
 Coeff:      0.923D-02 0.326D+00 0.668D+00
 Gap=     0.217 Goal=   None    Shift=    0.000
 RMSDP=3.20D-09 MaxDP=1.74D-07 DE= 3.23D-11 OVMax= 3.61D-08

 Cycle  10  Pass 1  IDiag  1:
 RMSU=  1.05D-09    CP:  1.00D+00  8.74D-01  5.16D-01  1.09D+00  6.14D-01
                    CP:  7.49D-01  1.04D+00  1.08D+00  4.43D-01
 E= -1650.24295213647     Delta-E=       -0.000000000022 Rises=F Damp=F
 DIIS: error= 4.47D-09 at cycle  10 NSaved=  10.
 NSaved=10 IEnMin= 8 EnMin= -1650.24295213648     IErMin=10 ErrMin= 4.47D-09
 ErrMax= 4.47D-09  0.00D+00 EMaxC= 1.00D-01 BMatC= 4.91D-15 BMatP= 2.63D-14
 IDIUse=1 WtCom= 1.00D+00 WtEn= 0.00D+00
 Coeff-Com:  0.493D-05-0.266D-05 0.260D-04 0.142D-03-0.358D-03-0.133D-02
 Coeff-Com: -0.890D-02-0.361D-01 0.305D+00 0.741D+00
 Coeff:      0.493D-05-0.266D-05 0.260D-04 0.142D-03-0.358D-03-0.133D-02
 Coeff:     -0.890D-02-0.361D-01 0.305D+00 0.741D+00
 Gap=     0.217 Goal=   None    Shift=    0.000
 RMSDP=1.08D-09 MaxDP=6.25D-08 DE=-2.18D-11 OVMax= 1.89D-08

 Cycle  11  Pass 1  IDiag  1:
 RMSU=  1.78D-10    CP:  1.00D+00  8.74D-01  5.16D-01  1.09D+00  6.13D-01
                    CP:  7.50D-01  1.04D+00  1.07D+00  6.43D-01  7.98D-01
 E= -1650.24295213646     Delta-E=        0.000000000007 Rises=F Damp=F
 DIIS: error= 2.25D-10 at cycle  11 NSaved=  11.
 NSaved=11 IEnMin= 8 EnMin= -1650.24295213648     IErMin=11 ErrMin= 2.25D-10
 ErrMax= 2.25D-10  0.00D+00 EMaxC= 1.00D-01 BMatC= 1.19D-17 BMatP= 4.91D-15
 IDIUse=1 WtCom= 1.00D+00 WtEn= 0.00D+00
 Coeff-Com:  0.843D-08-0.136D-07-0.394D-06 0.146D-04 0.840D-05 0.415D-04
 Coeff-Com: -0.964D-04-0.238D-02-0.159D-01-0.181D-01 0.104D+01
 Coeff:      0.843D-08-0.136D-07-0.394D-06 0.146D-04 0.840D-05 0.415D-04
 Coeff:     -0.964D-04-0.238D-02-0.159D-01-0.181D-01 0.104D+01
 Gap=     0.217 Goal=   None    Shift=    0.000
 RMSDP=1.89D-10 MaxDP=1.42D-08 DE= 7.28D-12 OVMax= 3.30D-09

 Cycle  12  Pass 1  IDiag  1:
 RMSU=  1.04D-10    CP:  1.00D+00  8.74D-01  5.16D-01  1.09D+00  6.13D-01
                    CP:  7.50D-01  1.04D+00  1.07D+00  6.41D-01  8.14D-01
                    CP:  9.34D-01
 E= -1650.24295213650     Delta-E=       -0.000000000038 Rises=F Damp=F
 DIIS: error= 2.10D-10 at cycle  12 NSaved=  12.
 NSaved=12 IEnMin=12 EnMin= -1650.24295213650     IErMin=12 ErrMin= 2.10D-10
 ErrMax= 2.10D-10  0.00D+00 EMaxC= 1.00D-01 BMatC= 1.59D-17 BMatP= 1.19D-17
 IDIUse=1 WtCom= 1.00D+00 WtEn= 0.00D+00
 Coeff-Com: -0.267D-06 0.135D-06-0.149D-05 0.985D-06 0.275D-04 0.950D-04
 Coeff-Com:  0.433D-03 0.693D-03-0.270D-01-0.536D-01 0.624D+00 0.455D+00
 Coeff:     -0.267D-06 0.135D-06-0.149D-05 0.985D-06 0.275D-04 0.950D-04
 Coeff:      0.433D-03 0.693D-03-0.270D-01-0.536D-01 0.624D+00 0.455D+00
 Gap=     0.217 Goal=   None    Shift=    0.000
 RMSDP=8.00D-11 MaxDP=4.67D-09 DE=-3.82D-11 OVMax= 9.93D-10

 SCF Done:  E(RPBE1PBE) =  -1650.24295214     A.U. after   12 cycles
            NFock= 12  Conv=0.80D-10     -V/T= 2.0021
 KE= 1.646810488170D+03 PE=-5.744136683242D+03 EE= 1.527848660736D+03
 Leave Link  502 at Sun Apr 11 16:24:09 2021, MaxMem=  1048576000 cpu:      1230.1
 (Enter /usr/local/g09/l801.exe)
 DoSCS=F DFT=T ScalE2(SS,OS)=  1.000000  1.000000
 Range of M.O.s used for correlation:     1   375
 NBasis=   375 NAE=    48 NBE=    48 NFC=     0 NFV=     0
 NROrb=    375 NOA=    48 NOB=    48 NVA=   327 NVB=   327

 **** Warning!!: The largest alpha MO coefficient is  0.11448673D+03

 Leave Link  801 at Sun Apr 11 16:24:09 2021, MaxMem=  1048576000 cpu:         0.9
 (Enter /usr/local/g09/l1002.exe)
 Minotr:  Closed shell wavefunction.
          Direct CPHF calculation.
          Differentiating once with respect to electric field.
                with respect to dipole field.
          Electric field/nuclear overlap derivatives assumed to be zero.
          Requested convergence is 1.0D-10 RMS, and 1.0D-09 maximum.
          NewPWx=F KeepS1=T KeepF1=T KeepIn=T MapXYZ=F SortEE=F KeepMc=T.
          MDV=    1048575453 using IRadAn=       1.
 Generate precomputed XC quadrature information.
          Solving linear equations separately, MaxMat=       0.
          Doing perturbations at frequencies    0.000000    0.105471    0.210941
          There are     9 degrees of freedom in the 1st order CPHF.  IDoFFX=0 NUNeed=     9.
 LinEq1:  Iter=  0 NonCon=     9 RMS=2.93D-01 Max=2.65D+01 NDo=     9
 AX will form     9 AO Fock derivatives at one time.
 FoFJK:  IHMeth= 1 ICntrl=       0 DoSepK=F KAlg= 0 I1Cent=   0 FoldK=F
 IRaf= 980000000 NMat=  18 IRICut=      22 DoRegI=T DoRafI=T ISym2E= 0.
 FoFCou: FMM=F IPFlag=           0 FMFlag=      100000 FMFlg1=           0
         NFxFlg=           0 DoJE=F BraDBF=F KetDBF=F FulRan=T
         wScrn=  0.000000 ICntrl=       0 IOpCl=  0 I1Cent=           0 NGrid=           0
         NMat0=   18 NMatS0=      9 NMatT0=    0 NMatD0=   18 NMtDS0=    0 NMtDT0=    0
 Symmetry not used in FoFCou.
 LinEq1:  Iter=  1 NonCon=     9 RMS=1.67D-01 Max=6.70D+00 NDo=     9
 LinEq1:  Iter=  2 NonCon=     9 RMS=2.86D-01 Max=3.18D+01 NDo=     9
 LinEq1:  Iter=  3 NonCon=     9 RMS=1.79D+00 Max=1.04D+02 NDo=     9
 LinEq1:  Iter=  4 NonCon=     9 RMS=8.75D+00 Max=6.12D+02 NDo=     9
 LinEq1:  Iter=  5 NonCon=     9 RMS=5.88D+01 Max=7.05D+03 NDo=     9
 LinEq1:  Iter=  6 NonCon=     9 RMS=2.92D+02 Max=2.25D+04 NDo=     9
 LinEq1:  Iter=  7 NonCon=     9 RMS=1.12D+02 Max=8.18D+03 NDo=     9
 LinEq1:  Iter=  8 NonCon=     9 RMS=1.44D+02 Max=1.89D+04 NDo=     9
 LinEq1:  Iter=  9 NonCon=     9 RMS=1.50D+02 Max=1.31D+04 NDo=     9
 LinEq1:  Iter= 10 NonCon=     9 RMS=1.56D+03 Max=1.49D+05 NDo=     9
 LinEq1:  Iter= 11 NonCon=     9 RMS=2.09D+03 Max=2.15D+05 NDo=     9
 LinEq1:  Iter= 12 NonCon=     9 RMS=1.55D+04 Max=1.21D+06 NDo=     9
 LinEq1:  Iter= 13 NonCon=     9 RMS=2.18D+04 Max=1.37D+06 NDo=     9
 LinEq1:  Iter= 14 NonCon=     9 RMS=2.20D+04 Max=2.40D+06 NDo=     9
 LinEq1:  Iter= 15 NonCon=     9 RMS=1.74D+04 Max=1.55D+06 NDo=     9
 LinEq1:  Iter= 16 NonCon=     9 RMS=2.82D+04 Max=1.70D+06 NDo=     9
 LinEq1:  Iter= 17 NonCon=     9 RMS=2.04D+04 Max=1.03D+06 NDo=     9
 LinEq1:  Iter= 18 NonCon=     9 RMS=1.76D+04 Max=2.51D+06 NDo=     9
 LinEq1:  Iter= 19 NonCon=     9 RMS=2.86D+04 Max=1.60D+06 NDo=     9
 LinEq1:  Iter= 20 NonCon=     9 RMS=3.10D+04 Max=1.07D+06 NDo=     9
 LinEq1:  Iter= 21 NonCon=     9 RMS=7.82D+03 Max=4.25D+05 NDo=     9
 LinEq1:  Iter= 22 NonCon=     9 RMS=5.43D+03 Max=3.07D+05 NDo=     9
 LinEq1:  Iter= 23 NonCon=     9 RMS=6.24D+03 Max=6.19D+05 NDo=     9
 LinEq1:  Iter= 24 NonCon=     8 RMS=5.63D+03 Max=4.33D+05 NDo=     9
 LinEq1:  Iter= 25 NonCon=     8 RMS=4.03D+03 Max=1.99D+05 NDo=     8
 LinEq1:  Iter= 26 NonCon=     6 RMS=2.56D+03 Max=1.75D+05 NDo=     8
 LinEq1:  Iter= 27 NonCon=     6 RMS=1.43D+03 Max=7.34D+04 NDo=     6
 LinEq1:  Iter= 28 NonCon=     6 RMS=1.08D+03 Max=5.30D+04 NDo=     6
 LinEq1:  Iter= 29 NonCon=     6 RMS=8.00D+02 Max=4.00D+04 NDo=     6
 LinEq1:  Iter= 30 NonCon=     6 RMS=3.82D+02 Max=2.57D+04 NDo=     6
 LinEq1:  Iter= 31 NonCon=     6 RMS=1.77D+02 Max=9.99D+03 NDo=     6
 LinEq1:  Iter= 32 NonCon=     6 RMS=1.82D+02 Max=1.32D+04 NDo=     6
 LinEq1:  Iter= 33 NonCon=     5 RMS=1.18D+02 Max=7.46D+03 NDo=     6
 LinEq1:  Iter= 34 NonCon=     3 RMS=8.77D+01 Max=4.69D+03 NDo=     5
 LinEq1:  Iter= 35 NonCon=     3 RMS=4.41D+01 Max=2.40D+03 NDo=     3
 LinEq1:  Iter= 36 NonCon=     3 RMS=2.37D+01 Max=1.08D+03 NDo=     3
 LinEq1:  Iter= 37 NonCon=     3 RMS=1.18D+01 Max=8.71D+02 NDo=     3
 LinEq1:  Iter= 38 NonCon=     3 RMS=3.52D+00 Max=1.59D+02 NDo=     3
 LinEq1:  Iter= 39 NonCon=     3 RMS=1.31D+00 Max=6.87D+01 NDo=     3
 LinEq1:  Iter= 40 NonCon=     3 RMS=5.85D-01 Max=3.71D+01 NDo=     3
 LinEq1:  Iter= 41 NonCon=     3 RMS=2.13D-01 Max=1.02D+01 NDo=     3
 LinEq1:  Iter= 42 NonCon=     3 RMS=1.15D-01 Max=6.25D+00 NDo=     3
 LinEq1:  Iter= 43 NonCon=     3 RMS=8.92D-02 Max=5.68D+00 NDo=     3
 LinEq1:  Iter= 44 NonCon=     3 RMS=6.25D-02 Max=3.37D+00 NDo=     3
 LinEq1:  Iter= 45 NonCon=     3 RMS=4.06D-02 Max=1.94D+00 NDo=     3
 LinEq1:  Iter= 46 NonCon=     3 RMS=2.03D-02 Max=1.19D+00 NDo=     3
 LinEq1:  Iter= 47 NonCon=     3 RMS=5.55D-03 Max=2.56D-01 NDo=     3
 LinEq1:  Iter= 48 NonCon=     3 RMS=3.69D-03 Max=1.92D-01 NDo=     3
 LinEq1:  Iter= 49 NonCon=     3 RMS=2.17D-03 Max=1.22D-01 NDo=     3
 LinEq1:  Iter= 50 NonCon=     3 RMS=9.66D-04 Max=4.69D-02 NDo=     3
 LinEq1:  Iter= 51 NonCon=     3 RMS=4.81D-04 Max=1.82D-02 NDo=     3
 LinEq1:  Iter= 52 NonCon=     3 RMS=2.14D-04 Max=1.54D-02 NDo=     3
 LinEq1:  Iter= 53 NonCon=     3 RMS=6.67D-05 Max=2.81D-03 NDo=     3
 LinEq1:  Iter= 54 NonCon=     3 RMS=2.09D-05 Max=7.53D-04 NDo=     3
 LinEq1:  Iter= 55 NonCon=     3 RMS=9.36D-06 Max=4.25D-04 NDo=     3
 LinEq1:  Iter= 56 NonCon=     3 RMS=3.54D-06 Max=1.77D-04 NDo=     3
 LinEq1:  Iter= 57 NonCon=     3 RMS=1.01D-06 Max=4.72D-05 NDo=     3
 LinEq1:  Iter= 58 NonCon=     3 RMS=5.14D-07 Max=2.20D-05 NDo=     3
 LinEq1:  Iter= 59 NonCon=     3 RMS=2.35D-07 Max=1.10D-05 NDo=     3
 LinEq1:  Iter= 60 NonCon=     3 RMS=6.54D-08 Max=4.22D-06 NDo=     3
 LinEq1:  Iter= 61 NonCon=     3 RMS=1.89D-08 Max=9.84D-07 NDo=     3
 LinEq1:  Iter= 62 NonCon=     3 RMS=9.38D-09 Max=5.26D-07 NDo=     3
 LinEq1:  Iter= 63 NonCon=     3 RMS=3.95D-09 Max=2.63D-07 NDo=     3
 LinEq1:  Iter= 64 NonCon=     3 RMS=1.74D-09 Max=8.75D-08 NDo=     3
 LinEq1:  Iter= 65 NonCon=     3 RMS=6.32D-10 Max=5.00D-08 NDo=     3
 LinEq1:  Iter= 66 NonCon=     3 RMS=1.84D-10 Max=1.56D-08 NDo=     3
 LinEq1:  Iter= 67 NonCon=     2 RMS=7.05D-11 Max=4.65D-09 NDo=     3
 LinEq1:  Iter= 68 NonCon=     1 RMS=2.40D-11 Max=1.07D-09 NDo=     2
 LinEq1:  Iter= 69 NonCon=     0 RMS=9.16D-12 Max=4.28D-10 NDo=     1
 Linear equations converged to 1.000D-10 1.000D-09 after    69 iterations.
 FullF1:  Do perturbations    1 to     9.
 SCF Polarizability for W=    0.000000:
                1             2             3 
      1  0.139265D+03
      2 -0.720195D-04  0.110795D+03
      3  0.279710D-03  0.698001D-03  0.110795D+03
 Isotropic polarizability for W=    0.000000      120.29 Bohr**3.
 SCF Polarizability for W=    0.105471:
                1             2             3 
      1  0.154460D+03
      2 -0.755999D-04  0.116487D+03
      3  0.390351D-03  0.984251D-03  0.116487D+03
 Isotropic polarizability for W=    0.105471      129.14 Bohr**3.
 SCF Polarizability for W=    0.210941:
                1             2             3 
      1  0.325665D+03
      2 -0.884575D-03  0.131418D+03
      3  0.249305D-02 -0.670416D-02  0.131452D+03
 Isotropic polarizability for W=    0.210941      196.18 Bohr**3.
 SCF Static Hyperpolarizability:
 K=  1 block:
                1 
      1  0.157354D+02
 K=  2 block:
                1             2 
      1  0.110789D+00
      2  0.413175D+01 -0.244650D-01
 K=  3 block:
                1             2             3 
      1  0.269071D-01
      2 -0.112752D-02 -0.224757D-01
      3  0.413264D+01 -0.412777D-01  0.480645D-01
 SCF Beta(-W,W;0) for W=    0.105471:
 K=  1 block:
                1             2             3 
      1  0.256807D+02
      2  0.159845D+00  0.646799D+01
      3  0.639370D-01 -0.179982D-02  0.646996D+01
 K=  2 block:
                1             2             3 
      1  0.177336D+00
      2  0.661059D+01 -0.535482D-01
      3 -0.371774D-02 -0.337099D-01 -0.645371D-01
 K=  3 block:
                1             2             3 
      1  0.566749D-01
      2 -0.321630D-03 -0.315740D-01
      3  0.661239D+01 -0.647962D-01  0.481299D-01
 SCF Beta(W,W;-2W) for W=    0.105471:
 K=  1 block:
                1             2             3 
      1  0.205596D+03
      2  0.140353D+01  0.332557D+02
      3  0.614174D-01 -0.215183D-01  0.332460D+02
 K=  2 block:
                1             2             3 
      1  0.984263D+00
      2 -0.163107D+02  0.536661D-01
      3 -0.264919D+00 -0.681775D-01 -0.557142D-01
 K=  3 block:
                1             2             3 
      1 -0.330457D+00
      2  0.183537D+00  0.251204D+00
      3 -0.161646D+02 -0.455934D+00 -0.101253D+00
 SCF Beta(-W,W;0) for W=    0.210941:
 K=  1 block:
                1             2             3 
      1  0.767170D+03
      2 -0.210262D+00  0.384036D+03
      3  0.382400D+00  0.772466D+00  0.381228D+03
 K=  2 block:
                1             2             3 
      1  0.107875D+01
      2  0.144992D+03 -0.463804D+01
      3  0.181224D+00 -0.828325D+01  0.100275D+02
 K=  3 block:
                1             2             3 
      1  0.179031D+01
      2 -0.166152D+00 -0.584032D+01
      3  0.144221D+03  0.242946D+00  0.412240D+01
 End of Minotr F.D. properties on file   721 Mask=      31 NFrqRd=     2 NDeriv=     1 ND12= 1 LenFil=      94:
 Frequencies=    0.000000    0.105471
 Property number 1 -- Alpha(-w,w) frequency  1    0.000000:
                 1             2             3 
      1   0.139265D+03 -0.720195D-04  0.279710D-03
      2  -0.720195D-04  0.110795D+03  0.698001D-03
      3   0.279710D-03  0.698001D-03  0.110795D+03
 Property number 1 -- Alpha(-w,w) frequency  2    0.105471:
                 1             2             3 
      1   0.154460D+03 -0.755999D-04  0.390351D-03
      2  -0.755999D-04  0.116487D+03  0.984251D-03
      3   0.390351D-03  0.984251D-03  0.116487D+03
 Property number 5 -- Beta(-w,w,0) frequency  1    0.000000:
                 1 
      1   0.157354D+02
      2   0.110789D+00
      3   0.413175D+01
      4   0.269071D-01
      5  -0.112752D-02
      6   0.413264D+01
      7   0.110789D+00
      8   0.413175D+01
      9  -0.244650D-01
     10  -0.112752D-02
     11  -0.224757D-01
     12  -0.412777D-01
     13   0.269071D-01
     14  -0.112752D-02
     15  -0.224757D-01
     16   0.413264D+01
     17  -0.412777D-01
     18   0.480645D-01
 Property number 5 -- Beta(-w,w,0) frequency  2    0.105471:
                 1 
      1   0.256807D+02
      2   0.159845D+00
      3   0.646799D+01
      4   0.639370D-01
      5  -0.179982D-02
      6   0.646996D+01
      7   0.177336D+00
      8   0.661059D+01
      9  -0.535482D-01
     10  -0.371774D-02
     11  -0.337099D-01
     12  -0.645371D-01
     13   0.566749D-01
     14  -0.321630D-03
     15  -0.315740D-01
     16   0.661239D+01
     17  -0.647962D-01
     18   0.481299D-01
 Property number 6 -- Beta(w,w,-2w) frequency  1    0.000000:
                 1 
      1   0.157354D+02
      2   0.110789D+00
      3   0.413175D+01
      4   0.269071D-01
      5  -0.112752D-02
      6   0.413264D+01
      7   0.110789D+00
      8   0.413175D+01
      9  -0.244650D-01
     10  -0.112752D-02
     11  -0.224757D-01
     12  -0.412777D-01
     13   0.269071D-01
     14  -0.112752D-02
     15  -0.224757D-01
     16   0.413264D+01
     17  -0.412777D-01
     18   0.480645D-01
 Property number 6 -- Beta(w,w,-2w) frequency  2    0.105471:
                 1 
      1   0.205596D+03
      2   0.140353D+01
      3   0.332557D+02
      4   0.614174D-01
      5  -0.215183D-01
      6   0.332460D+02
      7   0.984263D+00
      8  -0.163107D+02
      9   0.536661D-01
     10  -0.264919D+00
     11  -0.681775D-01
     12  -0.557142D-01
     13  -0.330457D+00
     14   0.183537D+00
     15   0.251204D+00
     16  -0.161646D+02
     17  -0.455934D+00
     18  -0.101253D+00
 End of Minotr F.D. properties file   722 does not exist.
 End of Minotr F.D. properties file   788 does not exist.
 Leave Link 1002 at Sun Apr 11 16:42:54 2021, MaxMem=  1048576000 cpu:     28144.9
 (Enter /usr/local/g09/l601.exe)
 Copying SCF densities to generalized density rwf, IOpCl= 0 IROHF=0.

 **********************************************************************

            Population analysis using the SCF density.

 **********************************************************************

 Alpha  occ. eigenvalues -- -256.33215 -30.10131 -25.93988 -25.92057 -25.92057
 Alpha  occ. eigenvalues --  -10.22830 -10.22799 -10.22798 -10.22748 -10.22738
 Alpha  occ. eigenvalues --  -10.22738 -10.22717 -10.22717 -10.22657 -10.22657
 Alpha  occ. eigenvalues --   -3.44961  -2.23693  -2.19175  -2.19175  -0.92204
 Alpha  occ. eigenvalues --   -0.90473  -0.73497  -0.73497  -0.73366  -0.73366
 Alpha  occ. eigenvalues --   -0.56413  -0.56412  -0.55504  -0.55503  -0.55478
 Alpha  occ. eigenvalues --   -0.54032  -0.43035  -0.42109  -0.42109  -0.41173
 Alpha  occ. eigenvalues --   -0.41173  -0.39327  -0.39327  -0.38813  -0.38813
 Alpha  occ. eigenvalues --   -0.37603  -0.28077  -0.28077  -0.26257  -0.26256
 Alpha  occ. eigenvalues --   -0.24481  -0.21459  -0.21458
 Alpha virt. eigenvalues --    0.00196   0.00196   0.01316   0.02716   0.02717
 Alpha virt. eigenvalues --    0.03492   0.04115   0.04117   0.04978   0.05746
 Alpha virt. eigenvalues --    0.05746   0.05784   0.05785   0.06237   0.06238
 Alpha virt. eigenvalues --    0.08959   0.09144   0.09144   0.09964   0.09965
 Alpha virt. eigenvalues --    0.11206   0.11212   0.13599   0.13601   0.13910
 Alpha virt. eigenvalues --    0.13911   0.14122   0.14566   0.14570   0.17329
 Alpha virt. eigenvalues --    0.17332   0.17961   0.17961   0.18253   0.18253
 Alpha virt. eigenvalues --    0.18346   0.19091   0.19095   0.19208   0.19209
 Alpha virt. eigenvalues --    0.19652   0.21033   0.21353   0.21852   0.21854
 Alpha virt. eigenvalues --    0.23277   0.23283   0.24053   0.24054   0.25322
 Alpha virt. eigenvalues --    0.26005   0.26711   0.26712   0.26787   0.26788
 Alpha virt. eigenvalues --    0.29122   0.29124   0.30698   0.31281   0.31283
 Alpha virt. eigenvalues --    0.34622   0.34623   0.35878   0.35885   0.38916
 Alpha virt. eigenvalues --    0.40198   0.40199   0.40676   0.40680   0.41913
 Alpha virt. eigenvalues --    0.41918   0.43762   0.44511   0.45682   0.48076
 Alpha virt. eigenvalues --    0.48344   0.52534   0.52536   0.55988   0.55990
 Alpha virt. eigenvalues --    0.56239   0.56240   0.58943   0.58946   0.61449
 Alpha virt. eigenvalues --    0.61450   0.61470   0.61503   0.61505   0.61924
 Alpha virt. eigenvalues --    0.64277   0.64281   0.64406   0.64406   0.65754
 Alpha virt. eigenvalues --    0.65755   0.67124   0.67125   0.69893   0.70254
 Alpha virt. eigenvalues --    0.70254   0.70344   0.70345   0.71984   0.71986
 Alpha virt. eigenvalues --    0.72252   0.72351   0.72355   0.73418   0.74522
 Alpha virt. eigenvalues --    0.74523   0.75759   0.78646   0.78648   0.82065
 Alpha virt. eigenvalues --    0.86800   0.86802   0.87166   0.87167   0.87546
 Alpha virt. eigenvalues --    0.88977   0.88989   0.97110   0.97535   0.98221
 Alpha virt. eigenvalues --    0.98239   1.01073   1.01073   1.02650   1.02655
 Alpha virt. eigenvalues --    1.09211   1.09217   1.09795   1.09796   1.12375
 Alpha virt. eigenvalues --    1.12375   1.16828   1.16831   1.19361   1.25626
 Alpha virt. eigenvalues --    1.25628   1.25683   1.27087   1.27091   1.27279
 Alpha virt. eigenvalues --    1.27279   1.28829   1.28832   1.30561   1.30566
 Alpha virt. eigenvalues --    1.33067   1.34068   1.34069   1.34466   1.39887
 Alpha virt. eigenvalues --    1.41869   1.41870   1.41969   1.41971   1.42242
 Alpha virt. eigenvalues --    1.42251   1.43442   1.43445   1.45704   1.46934
 Alpha virt. eigenvalues --    1.46936   1.49162   1.49164   1.49584   1.53892
 Alpha virt. eigenvalues --    1.55326   1.58598   1.58599   1.60054   1.60062
 Alpha virt. eigenvalues --    1.60397   1.60409   1.65082   1.65083   1.68967
 Alpha virt. eigenvalues --    1.78618   1.78618   1.81433   1.81433   1.95417
 Alpha virt. eigenvalues --    1.95417   2.01924   2.12546   2.12553   2.14021
 Alpha virt. eigenvalues --    2.14032   2.16269   2.16271   2.16740   2.16742
 Alpha virt. eigenvalues --    2.28291   2.28292   2.30840   2.32427   2.46385
 Alpha virt. eigenvalues --    2.46388   2.49324   2.51847   2.54559   2.54560
 Alpha virt. eigenvalues --    2.65344   2.65346   2.65610   2.65611   2.67425
 Alpha virt. eigenvalues --    2.72849   2.72853   2.73340   2.79908   2.82266
 Alpha virt. eigenvalues --    2.82267   2.84210   2.86042   2.86046   2.89165
 Alpha virt. eigenvalues --    2.89166   2.94284   2.94289   3.00975   3.00978
 Alpha virt. eigenvalues --    3.01398   3.01398   3.09394   3.09396   3.10193
 Alpha virt. eigenvalues --    3.10195   3.10709   3.10714   3.15560   3.20907
 Alpha virt. eigenvalues --    3.20915   3.22882   3.22884   3.23184   3.23186
 Alpha virt. eigenvalues --    3.25093   3.25095   3.35590   3.36913   3.36924
 Alpha virt. eigenvalues --    3.37007   3.43052   3.43052   3.44818   3.44822
 Alpha virt. eigenvalues --    3.48094   3.54281   3.54283   3.55530   3.55531
 Alpha virt. eigenvalues --    3.57487   3.57487   3.59898   3.59902   3.62598
 Alpha virt. eigenvalues --    3.62599   3.63419   3.64467   3.64487   3.64488
 Alpha virt. eigenvalues --    3.68047   3.68234   3.68739   3.68740   3.69250
 Alpha virt. eigenvalues --    3.69251   3.76837   3.76838   3.78027   3.78030
 Alpha virt. eigenvalues --    3.79144   3.79145   3.80433   3.80435   3.80445
 Alpha virt. eigenvalues --    3.81376   3.81885   3.81889   3.84040   3.85344
 Alpha virt. eigenvalues --    3.85344   3.86476   3.96179   3.96197   4.00126
 Alpha virt. eigenvalues --    4.00139   4.01058   4.06856   4.06857   4.10467
 Alpha virt. eigenvalues --    4.12955   4.12957   4.27593   4.27596   4.29613
 Alpha virt. eigenvalues --    4.29617   4.36550   4.56877   4.56878   4.61199
 Alpha virt. eigenvalues --    4.61206   4.74554   4.74557   4.75823   4.75826
 Alpha virt. eigenvalues --    4.85945   4.85946   4.87571   4.87572   5.07373
 Alpha virt. eigenvalues --    5.15156   5.15405  23.90685  24.01227  24.09377
 Alpha virt. eigenvalues --   24.09378  24.14519  24.14525  24.25967  24.25968
 Alpha virt. eigenvalues --   24.37779  24.37780
 Electronic spatial extent (au):  <R**2>=           1342.4555
 Charge=              0.0000 electrons
 Dipole moment (field-independent basis, Debye):
    X=             -0.1180    Y=             -0.0003    Z=              0.0004  Tot=              0.1180
 Quadrupole moment (field-independent basis, Debye-Ang):
   XX=            -81.1155   YY=            -67.0486   ZZ=            -67.0498
   XY=             -0.0002   XZ=             -0.0002   YZ=              0.0003
 Traceless Quadrupole moment (field-independent basis, Debye-Ang):
   XX=             -9.3775   YY=              4.6894   ZZ=              4.6882
   XY=             -0.0002   XZ=             -0.0002   YZ=              0.0003
 Octapole moment (field-independent basis, Debye-Ang**2):
  XXX=             -0.9477  YYY=              0.0004  ZZZ=              0.0002  XYY=             -0.2472
  XXY=              0.0109  XXZ=             -0.0057  XZZ=             -0.2458  YZZ=              0.0010
  YYZ=             -0.0006  XYZ=             -0.0007
 Hexadecapole moment (field-independent basis, Debye-Ang**3):
 XXXX=          -1183.1316 YYYY=           -378.6585 ZZZZ=           -378.6651 XXXY=             -0.0013
 XXXZ=             -0.0023 YYYX=             -0.0003 YYYZ=             -0.0004 ZZZX=             -0.0011
 ZZZY=              0.0001 XXYY=           -239.1698 XXZZ=           -239.1709 YYZZ=           -126.2205
 XXYZ=             -0.0027 YYXZ=             -0.0003 ZZXY=             -0.0009
 N-N= 9.192345822002D+02 E-N=-5.744136683198D+03  KE= 1.646810488170D+03
  Exact polarizability: 139.265   0.000 110.795   0.000   0.001 110.795
 Approx polarizability: 216.995   0.000 182.958   0.000   0.000 182.959
 No NMR shielding tensors so no spin-rotation constants.
 Leave Link  601 at Sun Apr 11 16:42:55 2021, MaxMem=  1048576000 cpu:         5.5
 (Enter /usr/local/g09/l106.exe)
 NDeriv=   3 NFrqRd=  2 NDerD0=   0 MskFDP=      31 MskDFD=      31 MskDF0=       0
 Re-enter D2Numr: IAtom=  0 IXYZ=1 IStep= 1.
 Leave Link  106 at Sun Apr 11 16:42:55 2021, MaxMem=  1048576000 cpu:         4.1
 (Enter /usr/local/g09/l301.exe)
 Basis read from rwf:  (5D, 7F)
 Pseudo-potential data read from rwf file.
 The following finite field(s) will be applied:
 An electric field of              0.0007  0.0000  0.0000
   375 basis functions,   602 primitive gaussians,   402 cartesian basis functions
    48 alpha electrons       48 beta electrons
       nuclear repulsion energy       919.2345822002 Hartrees.
 IExCor= 1009 DFT=T Ex+Corr=PBE1PBE ExCW=0 ScaHFX=  0.250000
 ScaDFX=  0.750000  0.750000  1.000000  1.000000 ScalE2=  1.000000  1.000000
 IRadAn=      0 IRanWt=     -1 IRanGd=            0 ICorTp=0 IEmpDi=  4
 NAtoms=   21 NActive=   21 NUniq=   21 SFac= 1.00D+00 NAtFMM=   60 NAOKFM=F Big=F
 Integral buffers will be    131072 words long.
 Raffenetti 2 integral format.
 Two-electron integral symmetry is turned off.
 No density basis found on file   724.
 Leave Link  301 at Sun Apr 11 16:42:55 2021, MaxMem=  1048576000 cpu:         1.3
 (Enter /usr/local/g09/l302.exe)
 NPDir=0 NMtPBC=     1 NCelOv=     1 NCel=       1 NClECP=     1 NCelD=      1
         NCelK=      1 NCelE2=     1 NClLst=     1 CellRange=     0.0.
 One-electron integrals computed using PRISM.
   1 Symmetry operations used in ECPInt.
 ECPInt:  NShTT=    7875 NPrTT=   28235 LenC2=    7866 LenP2D=   21150.
 LDataN:  DoStor=T MaxTD1= 6 Len=  172
 NBasis=   375 RedAO= T EigKep=  3.67D-06  NBF=   375
 NBsUse=   375 1.00D-06 EigRej= -1.00D+00 NBFU=   375
 Precomputing XC quadrature grid using
 IXCGrd= 4 IRadAn=           0 IRanWt=          -1 IRanGd=           0 AccXCQ= 0.00D+00.
 Generated NRdTot=       0 NPtTot=           0 NUsed=           0 NTot=          32
 NSgBfM=   402   402   402   402   402 MxSgAt=    21 MxSgA2=    21.
 Leave Link  302 at Sun Apr 11 16:42:55 2021, MaxMem=  1048576000 cpu:         8.9
 (Enter /usr/local/g09/l303.exe)
 DipDrv:  MaxL=1.
 The nuclear repulsion energy is now       919.2345822002 hartrees.
 Leave Link  303 at Sun Apr 11 16:42:55 2021, MaxMem=  1048576000 cpu:         1.9
 (Enter /usr/local/g09/l401.exe)
 Initial guess from the checkpoint file:  "ferr_pbe0.chk"
 B after Tr=     0.000000    0.000000    0.000000
         Rot=    1.000000    0.000000    0.000000    0.000000 Ang=   0.00 deg.
 Guess basis will be translated and rotated to current coordinates.
 JPrj=2 DoOrth=T DoCkMO=T.
 Leave Link  401 at Sun Apr 11 16:42:56 2021, MaxMem=  1048576000 cpu:        10.2
 (Enter /usr/local/g09/l502.exe)
 Closed shell SCF:
 Using DIIS extrapolation, IDIIS=  1040.
 Two-electron integral symmetry not used.
 IVT=      515866 IEndB=      515866 NGot=  1048576000 MDV=  1048238781
 LenX=  1048238781 LenY=  1048076736
 Requested convergence on RMS density matrix=1.00D-10 within 128 cycles.
 Requested convergence on MAX density matrix=1.00D-08.
 Requested convergence on             energy=1.00D-08.
 No special actions if energy rises.
 Fock matrices will be formed incrementally for  20 cycles.

 Cycle   1  Pass 1  IDiag  1:
 FoFJK:  IHMeth= 1 ICntrl=       0 DoSepK=F KAlg= 0 I1Cent=   0 FoldK=F
 IRaf= 980000000 NMat=   1 IRICut=       1 DoRegI=T DoRafI=F ISym2E= 0.
 FoFCou: FMM=F IPFlag=           0 FMFlag=      100000 FMFlg1=           0
         NFxFlg=           0 DoJE=F BraDBF=F KetDBF=F FulRan=T
         wScrn=  0.000000 ICntrl=       0 IOpCl=  0 I1Cent=           0 NGrid=           0
         NMat0=    1 NMatS0=      1 NMatT0=    0 NMatD0=    1 NMtDS0=    0 NMtDT0=    0
 Symmetry not used in FoFCou.
 E= -1650.24294440238    
 DIIS: error= 3.09D-04 at cycle   1 NSaved=   1.
 NSaved= 1 IEnMin= 1 EnMin= -1650.24294440238     IErMin= 1 ErrMin= 3.09D-04
 ErrMax= 3.09D-04  0.00D+00 EMaxC= 1.00D-01 BMatC= 1.13D-05 BMatP= 1.13D-05
 IDIUse=3 WtCom= 9.97D-01 WtEn= 3.09D-03
 Coeff-Com:  0.100D+01
 Coeff-En:   0.100D+01
 Coeff:      0.100D+01
 Gap=     0.451 Goal=   None    Shift=    0.000
 RMSDP=1.71D-04 MaxDP=9.12D-03              OVMax= 4.29D-03

 Cycle   2  Pass 1  IDiag  1:
 RMSU=  1.71D-04    CP:  1.00D+00
 E= -1650.24295384167     Delta-E=       -0.000009439290 Rises=F Damp=F
 DIIS: error= 2.84D-04 at cycle   2 NSaved=   2.
 NSaved= 2 IEnMin= 2 EnMin= -1650.24295384167     IErMin= 2 ErrMin= 2.84D-04
 ErrMax= 2.84D-04  0.00D+00 EMaxC= 1.00D-01 BMatC= 1.72D-05 BMatP= 1.13D-05
 IDIUse=3 WtCom= 3.72D-01 WtEn= 6.28D-01
 Coeff-Com:  0.561D+00 0.439D+00
 Coeff-En:   0.378D+00 0.622D+00
 Coeff:      0.446D+00 0.554D+00
 Gap=     0.217 Goal=   None    Shift=    0.000
 RMSDP=4.40D-05 MaxDP=9.57D-04 DE=-9.44D-06 OVMax= 2.02D-03

 Cycle   3  Pass 1  IDiag  1:
 RMSU=  4.19D-05    CP:  1.00D+00  9.22D-01
 E= -1650.24297092626     Delta-E=       -0.000017084591 Rises=F Damp=F
 DIIS: error= 1.45D-04 at cycle   3 NSaved=   3.
 NSaved= 3 IEnMin= 3 EnMin= -1650.24297092626     IErMin= 3 ErrMin= 1.45D-04
 ErrMax= 1.45D-04  0.00D+00 EMaxC= 1.00D-01 BMatC= 4.67D-06 BMatP= 1.13D-05
 IDIUse=3 WtCom= 9.99D-01 WtEn= 1.45D-03
 Coeff-Com:  0.204D+00 0.331D+00 0.465D+00
 Coeff-En:   0.000D+00 0.166D+00 0.834D+00
 Coeff:      0.203D+00 0.331D+00 0.466D+00
 Gap=     0.217 Goal=   None    Shift=    0.000
 RMSDP=2.53D-05 MaxDP=1.42D-03 DE=-1.71D-05 OVMax= 5.65D-04

 Cycle   4  Pass 1  IDiag  1:
 RMSU=  8.48D-06    CP:  1.00D+00  8.77D-01  4.64D-01
 E= -1650.24297527283     Delta-E=       -0.000004346574 Rises=F Damp=F
 DIIS: error= 2.49D-05 at cycle   4 NSaved=   4.
 NSaved= 4 IEnMin= 4 EnMin= -1650.24297527283     IErMin= 4 ErrMin= 2.49D-05
 ErrMax= 2.49D-05  0.00D+00 EMaxC= 1.00D-01 BMatC= 1.16D-07 BMatP= 4.67D-06
 IDIUse=1 WtCom= 1.00D+00 WtEn= 0.00D+00
 Coeff-Com:  0.388D-01 0.815D-01 0.185D+00 0.695D+00
 Coeff:      0.388D-01 0.815D-01 0.185D+00 0.695D+00
 Gap=     0.216 Goal=   None    Shift=    0.000
 RMSDP=4.02D-06 MaxDP=1.56D-04 DE=-4.35D-06 OVMax= 1.51D-04

 Cycle   5  Pass 1  IDiag  1:
 RMSU=  3.43D-06    CP:  1.00D+00  8.76D-01  5.09D-01  9.82D-01
 E= -1650.24297503579     Delta-E=        0.000000237037 Rises=F Damp=F
 DIIS: error= 7.09D-05 at cycle   5 NSaved=   5.
 NSaved= 5 IEnMin= 4 EnMin= -1650.24297527283     IErMin= 4 ErrMin= 2.49D-05
 ErrMax= 7.09D-05  0.00D+00 EMaxC= 1.00D-01 BMatC= 6.77D-07 BMatP= 1.16D-07
 IDIUse=1 WtCom= 1.00D+00 WtEn= 0.00D+00
 Coeff-Com:  0.146D-01 0.401D-01 0.121D+00 0.653D+00 0.171D+00
 Coeff:      0.146D-01 0.401D-01 0.121D+00 0.653D+00 0.171D+00
 Gap=     0.217 Goal=   None    Shift=    0.000
 RMSDP=2.81D-06 MaxDP=1.38D-04 DE= 2.37D-07 OVMax= 1.28D-04

 Cycle   6  Pass 1  IDiag  1:
 RMSU=  1.35D-06    CP:  1.00D+00  8.75D-01  5.16D-01  1.01D+00  3.30D-01
 E= -1650.24297534736     Delta-E=       -0.000000311562 Rises=F Damp=F
 DIIS: error= 6.64D-06 at cycle   6 NSaved=   6.
 NSaved= 6 IEnMin= 6 EnMin= -1650.24297534736     IErMin= 6 ErrMin= 6.64D-06
 ErrMax= 6.64D-06  0.00D+00 EMaxC= 1.00D-01 BMatC= 7.10D-09 BMatP= 1.16D-07
 IDIUse=1 WtCom= 1.00D+00 WtEn= 0.00D+00
 Coeff-Com: -0.929D-03 0.919D-03 0.117D-01 0.127D+00 0.102D+00 0.759D+00
 Coeff:     -0.929D-03 0.919D-03 0.117D-01 0.127D+00 0.102D+00 0.759D+00
 Gap=     0.217 Goal=   None    Shift=    0.000
 RMSDP=8.34D-07 MaxDP=5.53D-05 DE=-3.12D-07 OVMax= 1.19D-05

 Cycle   7  Pass 1  IDiag  1:
 RMSU=  2.49D-07    CP:  1.00D+00  8.74D-01  5.04D-01  1.08D+00  3.94D-01
                    CP:  8.74D-01
 E= -1650.24297535085     Delta-E=       -0.000000003492 Rises=F Damp=F
 DIIS: error= 5.89D-07 at cycle   7 NSaved=   7.
 NSaved= 7 IEnMin= 7 EnMin= -1650.24297535085     IErMin= 7 ErrMin= 5.89D-07
 ErrMax= 5.89D-07  0.00D+00 EMaxC= 1.00D-01 BMatC= 7.25D-11 BMatP= 7.10D-09
 IDIUse=1 WtCom= 1.00D+00 WtEn= 0.00D+00
 Coeff-Com: -0.833D-03-0.111D-02-0.360D-02-0.714D-03 0.148D-01 0.160D+00
 Coeff-Com:  0.832D+00
 Coeff:     -0.833D-03-0.111D-02-0.360D-02-0.714D-03 0.148D-01 0.160D+00
 Coeff:      0.832D+00
 Gap=     0.217 Goal=   None    Shift=    0.000
 RMSDP=1.61D-07 MaxDP=1.09D-05 DE=-3.49D-09 OVMax= 3.68D-06

 Cycle   8  Pass 1  IDiag  1:
 RMSU=  3.17D-08    CP:  1.00D+00  8.74D-01  5.02D-01  1.09D+00  4.04D-01
                    CP:  8.96D-01  1.03D+00
 E= -1650.24297535087     Delta-E=       -0.000000000025 Rises=F Damp=F
 DIIS: error= 7.18D-08 at cycle   8 NSaved=   8.
 NSaved= 8 IEnMin= 8 EnMin= -1650.24297535087     IErMin= 8 ErrMin= 7.18D-08
 ErrMax= 7.18D-08  0.00D+00 EMaxC= 1.00D-01 BMatC= 1.46D-12 BMatP= 7.25D-11
 IDIUse=1 WtCom= 1.00D+00 WtEn= 0.00D+00
 Coeff-Com: -0.518D-04-0.124D-03-0.207D-03-0.250D-02-0.446D-03 0.580D-02
 Coeff-Com:  0.813D-01 0.916D+00
 Coeff:     -0.518D-04-0.124D-03-0.207D-03-0.250D-02-0.446D-03 0.580D-02
 Coeff:      0.813D-01 0.916D+00
 Gap=     0.217 Goal=   None    Shift=    0.000
 RMSDP=2.20D-08 MaxDP=1.30D-06 DE=-2.46D-11 OVMax= 4.34D-07

 Cycle   9  Pass 1  IDiag  1:
 RMSU=  1.30D-08    CP:  1.00D+00  8.74D-01  5.02D-01  1.09D+00  4.02D-01
                    CP:  9.02D-01  1.04D+00  8.64D-01
 E= -1650.24297535088     Delta-E=       -0.000000000010 Rises=F Damp=F
 DIIS: error= 3.80D-08 at cycle   9 NSaved=   9.
 NSaved= 9 IEnMin= 9 EnMin= -1650.24297535088     IErMin= 9 ErrMin= 3.80D-08
 ErrMax= 3.80D-08  0.00D+00 EMaxC= 1.00D-01 BMatC= 3.65D-13 BMatP= 1.46D-12
 IDIUse=1 WtCom= 1.00D+00 WtEn= 0.00D+00
 Coeff-Com: -0.505D-05-0.424D-04-0.830D-06-0.117D-02-0.414D-03-0.172D-02
 Coeff-Com:  0.173D-01 0.441D+00 0.545D+00
 Coeff:     -0.505D-05-0.424D-04-0.830D-06-0.117D-02-0.414D-03-0.172D-02
 Coeff:      0.173D-01 0.441D+00 0.545D+00
 Gap=     0.217 Goal=   None    Shift=    0.000
 RMSDP=9.50D-09 MaxDP=4.90D-07 DE=-1.00D-11 OVMax= 1.02D-07

 Cycle  10  Pass 1  IDiag  1:
 RMSU=  1.76D-09    CP:  1.00D+00  8.74D-01  5.02D-01  1.09D+00  4.04D-01
                    CP:  9.01D-01  1.04D+00  9.93D-01  5.15D-01
 E= -1650.24297535087     Delta-E=        0.000000000010 Rises=F Damp=F
 DIIS: error= 5.93D-09 at cycle  10 NSaved=  10.
 NSaved=10 IEnMin= 9 EnMin= -1650.24297535088     IErMin=10 ErrMin= 5.93D-09
 ErrMax= 5.93D-09  0.00D+00 EMaxC= 1.00D-01 BMatC= 9.57D-15 BMatP= 3.65D-13
 IDIUse=1 WtCom= 1.00D+00 WtEn= 0.00D+00
 Coeff-Com:  0.494D-05-0.194D-05 0.255D-04 0.137D-03-0.951D-04-0.159D-02
 Coeff-Com: -0.891D-02-0.353D-01 0.117D+00 0.929D+00
 Coeff:      0.494D-05-0.194D-05 0.255D-04 0.137D-03-0.951D-04-0.159D-02
 Coeff:     -0.891D-02-0.353D-01 0.117D+00 0.929D+00
 Gap=     0.217 Goal=   None    Shift=    0.000
 RMSDP=1.86D-09 MaxDP=1.21D-07 DE= 1.00D-11 OVMax= 4.45D-08

 Cycle  11  Pass 1  IDiag  1:
 RMSU=  3.57D-10    CP:  1.00D+00  8.74D-01  5.02D-01  1.09D+00  4.03D-01
                    CP:  9.01D-01  1.04D+00  9.87D-01  6.00D-01  1.00D+00
 E= -1650.24297535087     Delta-E=        0.000000000004 Rises=F Damp=F
 DIIS: error= 6.56D-10 at cycle  11 NSaved=  11.
 NSaved=11 IEnMin= 9 EnMin= -1650.24297535088     IErMin=11 ErrMin= 6.56D-10
 ErrMax= 6.56D-10  0.00D+00 EMaxC= 1.00D-01 BMatC= 8.92D-17 BMatP= 9.57D-15
 IDIUse=1 WtCom= 1.00D+00 WtEn= 0.00D+00
 Coeff-Com:  0.252D-06-0.958D-07 0.875D-06 0.218D-04-0.481D-05-0.295D-04
 Coeff-Com: -0.539D-03-0.422D-02-0.244D-02 0.177D-01 0.989D+00
 Coeff:      0.252D-06-0.958D-07 0.875D-06 0.218D-04-0.481D-05-0.295D-04
 Coeff:     -0.539D-03-0.422D-02-0.244D-02 0.177D-01 0.989D+00
 Gap=     0.217 Goal=   None    Shift=    0.000
 RMSDP=3.74D-10 MaxDP=2.63D-08 DE= 3.64D-12 OVMax= 6.69D-09

 Cycle  12  Pass 1  IDiag  1:
 RMSU=  1.98D-10    CP:  1.00D+00  8.74D-01  5.02D-01  1.09D+00  4.03D-01
                    CP:  9.01D-01  1.04D+00  9.87D-01  6.00D-01  1.02D+00
                    CP:  9.38D-01
 E= -1650.24297535093     Delta-E=       -0.000000000063 Rises=F Damp=F
 DIIS: error= 6.46D-10 at cycle  12 NSaved=  12.
 NSaved=12 IEnMin=12 EnMin= -1650.24297535093     IErMin=12 ErrMin= 6.46D-10
 ErrMax= 6.46D-10  0.00D+00 EMaxC= 1.00D-01 BMatC= 9.48D-17 BMatP= 8.92D-17
 IDIUse=1 WtCom= 1.00D+00 WtEn= 0.00D+00
 Coeff-Com: -0.242D-06 0.883D-07-0.130D-05 0.145D-05 0.831D-05 0.104D-03
 Coeff-Com:  0.388D-03 0.540D-03-0.107D-01-0.652D-01 0.567D+00 0.508D+00
 Coeff:     -0.242D-06 0.883D-07-0.130D-05 0.145D-05 0.831D-05 0.104D-03
 Coeff:      0.388D-03 0.540D-03-0.107D-01-0.652D-01 0.567D+00 0.508D+00
 Gap=     0.217 Goal=   None    Shift=    0.000
 RMSDP=1.64D-10 MaxDP=9.67D-09 DE=-6.28D-11 OVMax= 2.36D-09

 Cycle  13  Pass 1  IDiag  1:
 RMSU=  4.92D-11    CP:  1.00D+00  8.74D-01  5.02D-01  1.09D+00  4.03D-01
                    CP:  9.01D-01  1.04D+00  9.87D-01  6.00D-01  1.01D+00
                    CP:  1.10D+00  3.27D-01
 E= -1650.24297535092     Delta-E=        0.000000000010 Rises=F Damp=F
 DIIS: error= 1.77D-10 at cycle  13 NSaved=  13.
 NSaved=13 IEnMin=12 EnMin= -1650.24297535093     IErMin=13 ErrMin= 1.77D-10
 ErrMax= 1.77D-10  0.00D+00 EMaxC= 1.00D-01 BMatC= 5.54D-18 BMatP= 8.92D-17
 IDIUse=1 WtCom= 1.00D+00 WtEn= 0.00D+00
 Coeff-Com: -0.138D-06 0.622D-07-0.606D-06-0.110D-05 0.516D-05 0.509D-04
 Coeff-Com:  0.230D-03 0.629D-03-0.505D-02-0.338D-01 0.194D+00 0.258D+00
 Coeff-Com:  0.587D+00
 Coeff:     -0.138D-06 0.622D-07-0.606D-06-0.110D-05 0.516D-05 0.509D-04
 Coeff:      0.230D-03 0.629D-03-0.505D-02-0.338D-01 0.194D+00 0.258D+00
 Coeff:      0.587D+00
 Gap=     0.217 Goal=   None    Shift=    0.000
 RMSDP=4.63D-11 MaxDP=2.86D-09 DE= 1.05D-11 OVMax= 1.76D-09

 SCF Done:  E(RPBE1PBE) =  -1650.24297535     A.U. after   13 cycles
            NFock= 13  Conv=0.46D-10     -V/T= 2.0021
 KE= 1.646810471011D+03 PE=-5.744136498331D+03 EE= 1.527848469769D+03
 Leave Link  502 at Sun Apr 11 16:43:47 2021, MaxMem=  1048576000 cpu:      1273.6
 (Enter /usr/local/g09/l801.exe)
 DoSCS=F DFT=T ScalE2(SS,OS)=  1.000000  1.000000
 Range of M.O.s used for correlation:     1   375
 NBasis=   375 NAE=    48 NBE=    48 NFC=     0 NFV=     0
 NROrb=    375 NOA=    48 NOB=    48 NVA=   327 NVB=   327

 **** Warning!!: The largest alpha MO coefficient is  0.11485094D+03

 Leave Link  801 at Sun Apr 11 16:43:47 2021, MaxMem=  1048576000 cpu:         0.9
 (Enter /usr/local/g09/l1002.exe)
 Minotr:  Closed shell wavefunction.
          Direct CPHF calculation.
          Differentiating once with respect to electric field.
                with respect to dipole field.
          Electric field/nuclear overlap derivatives assumed to be zero.
          Requested convergence is 1.0D-10 RMS, and 1.0D-09 maximum.
          NewPWx=F KeepS1=T KeepF1=T KeepIn=T MapXYZ=F SortEE=F KeepMc=T.
          MDV=    1048575453 using IRadAn=       1.
 Generate precomputed XC quadrature information.
          Solving linear equations separately, MaxMat=       0.
          Doing perturbations at frequencies    0.000000    0.105471    0.210941
          There are     9 degrees of freedom in the 1st order CPHF.  IDoFFX=0 NUNeed=     9.
 LinEq1:  Iter=  0 NonCon=     9 RMS=2.93D-01 Max=2.65D+01 NDo=     9
 AX will form     9 AO Fock derivatives at one time.
 FoFJK:  IHMeth= 1 ICntrl=       0 DoSepK=F KAlg= 0 I1Cent=   0 FoldK=F
 IRaf= 980000000 NMat=  18 IRICut=      22 DoRegI=T DoRafI=T ISym2E= 0.
 FoFCou: FMM=F IPFlag=           0 FMFlag=      100000 FMFlg1=           0
         NFxFlg=           0 DoJE=F BraDBF=F KetDBF=F FulRan=T
         wScrn=  0.000000 ICntrl=       0 IOpCl=  0 I1Cent=           0 NGrid=           0
         NMat0=   18 NMatS0=      9 NMatT0=    0 NMatD0=   18 NMtDS0=    0 NMtDT0=    0
 Symmetry not used in FoFCou.
 LinEq1:  Iter=  1 NonCon=     9 RMS=1.67D-01 Max=6.73D+00 NDo=     9
 LinEq1:  Iter=  2 NonCon=     9 RMS=5.40D-01 Max=5.98D+01 NDo=     9
 LinEq1:  Iter=  3 NonCon=     9 RMS=2.14D+00 Max=1.26D+02 NDo=     9
 LinEq1:  Iter=  4 NonCon=     9 RMS=1.42D+01 Max=8.77D+02 NDo=     9
 LinEq1:  Iter=  5 NonCon=     9 RMS=6.07D+01 Max=7.42D+03 NDo=     9
 LinEq1:  Iter=  6 NonCon=     9 RMS=2.95D+02 Max=2.05D+04 NDo=     9
 LinEq1:  Iter=  7 NonCon=     9 RMS=1.22D+02 Max=1.60D+04 NDo=     9
 LinEq1:  Iter=  8 NonCon=     9 RMS=1.93D+02 Max=1.90D+04 NDo=     9
 LinEq1:  Iter=  9 NonCon=     9 RMS=1.56D+02 Max=1.37D+04 NDo=     9
 LinEq1:  Iter= 10 NonCon=     9 RMS=1.63D+03 Max=1.55D+05 NDo=     9
 LinEq1:  Iter= 11 NonCon=     9 RMS=2.14D+03 Max=2.09D+05 NDo=     9
 LinEq1:  Iter= 12 NonCon=     9 RMS=2.12D+04 Max=1.49D+06 NDo=     9
 LinEq1:  Iter= 13 NonCon=     9 RMS=2.59D+04 Max=1.77D+06 NDo=     9
 LinEq1:  Iter= 14 NonCon=     9 RMS=2.36D+04 Max=2.62D+06 NDo=     9
 LinEq1:  Iter= 15 NonCon=     9 RMS=1.78D+04 Max=1.50D+06 NDo=     9
 LinEq1:  Iter= 16 NonCon=     9 RMS=2.89D+04 Max=1.76D+06 NDo=     9
 LinEq1:  Iter= 17 NonCon=     9 RMS=2.28D+04 Max=1.60D+06 NDo=     9
 LinEq1:  Iter= 18 NonCon=     9 RMS=3.10D+04 Max=4.28D+06 NDo=     9
 LinEq1:  Iter= 19 NonCon=     9 RMS=3.08D+04 Max=1.55D+06 NDo=     9
 LinEq1:  Iter= 20 NonCon=     9 RMS=3.22D+04 Max=1.09D+06 NDo=     9
 LinEq1:  Iter= 21 NonCon=     9 RMS=8.79D+03 Max=4.24D+05 NDo=     9
 LinEq1:  Iter= 22 NonCon=     9 RMS=6.24D+03 Max=3.31D+05 NDo=     9
 LinEq1:  Iter= 23 NonCon=     9 RMS=6.87D+03 Max=6.55D+05 NDo=     9
 LinEq1:  Iter= 24 NonCon=     8 RMS=6.82D+03 Max=4.81D+05 NDo=     9
 LinEq1:  Iter= 25 NonCon=     8 RMS=4.90D+03 Max=2.66D+05 NDo=     8
 LinEq1:  Iter= 26 NonCon=     8 RMS=3.11D+03 Max=1.56D+05 NDo=     8
 LinEq1:  Iter= 27 NonCon=     6 RMS=1.49D+03 Max=8.30D+04 NDo=     8
 LinEq1:  Iter= 28 NonCon=     6 RMS=1.15D+03 Max=6.48D+04 NDo=     6
 LinEq1:  Iter= 29 NonCon=     6 RMS=9.04D+02 Max=4.97D+04 NDo=     6
 LinEq1:  Iter= 30 NonCon=     6 RMS=4.15D+02 Max=3.80D+04 NDo=     6
 LinEq1:  Iter= 31 NonCon=     6 RMS=2.09D+02 Max=1.06D+04 NDo=     6
 LinEq1:  Iter= 32 NonCon=     6 RMS=2.20D+02 Max=1.67D+04 NDo=     6
 LinEq1:  Iter= 33 NonCon=     6 RMS=1.45D+02 Max=9.47D+03 NDo=     6
 LinEq1:  Iter= 34 NonCon=     3 RMS=1.21D+02 Max=4.65D+03 NDo=     6
 LinEq1:  Iter= 35 NonCon=     3 RMS=4.96D+01 Max=2.57D+03 NDo=     3
 LinEq1:  Iter= 36 NonCon=     3 RMS=2.54D+01 Max=1.18D+03 NDo=     3
 LinEq1:  Iter= 37 NonCon=     3 RMS=1.27D+01 Max=9.20D+02 NDo=     3
 LinEq1:  Iter= 38 NonCon=     3 RMS=4.69D+00 Max=1.76D+02 NDo=     3
 LinEq1:  Iter= 39 NonCon=     3 RMS=1.79D+00 Max=9.01D+01 NDo=     3
 LinEq1:  Iter= 40 NonCon=     3 RMS=6.60D-01 Max=5.22D+01 NDo=     3
 LinEq1:  Iter= 41 NonCon=     3 RMS=2.65D-01 Max=1.22D+01 NDo=     3
 LinEq1:  Iter= 42 NonCon=     3 RMS=1.45D-01 Max=6.59D+00 NDo=     3
 LinEq1:  Iter= 43 NonCon=     3 RMS=1.11D-01 Max=4.71D+00 NDo=     3
 LinEq1:  Iter= 44 NonCon=     3 RMS=7.20D-02 Max=4.34D+00 NDo=     3
 LinEq1:  Iter= 45 NonCon=     3 RMS=4.95D-02 Max=2.43D+00 NDo=     3
 LinEq1:  Iter= 46 NonCon=     3 RMS=2.22D-02 Max=1.55D+00 NDo=     3
 LinEq1:  Iter= 47 NonCon=     3 RMS=6.99D-03 Max=3.53D-01 NDo=     3
 LinEq1:  Iter= 48 NonCon=     3 RMS=4.13D-03 Max=1.97D-01 NDo=     3
 LinEq1:  Iter= 49 NonCon=     3 RMS=2.58D-03 Max=1.45D-01 NDo=     3
 LinEq1:  Iter= 50 NonCon=     3 RMS=1.22D-03 Max=6.14D-02 NDo=     3
 LinEq1:  Iter= 51 NonCon=     3 RMS=5.96D-04 Max=2.25D-02 NDo=     3
 LinEq1:  Iter= 52 NonCon=     3 RMS=2.58D-04 Max=1.87D-02 NDo=     3
 LinEq1:  Iter= 53 NonCon=     3 RMS=8.79D-05 Max=3.59D-03 NDo=     3
 LinEq1:  Iter= 54 NonCon=     3 RMS=3.31D-05 Max=1.02D-03 NDo=     3
 LinEq1:  Iter= 55 NonCon=     3 RMS=1.42D-05 Max=6.45D-04 NDo=     3
 LinEq1:  Iter= 56 NonCon=     3 RMS=5.23D-06 Max=2.60D-04 NDo=     3
 LinEq1:  Iter= 57 NonCon=     3 RMS=1.49D-06 Max=8.68D-05 NDo=     3
 LinEq1:  Iter= 58 NonCon=     3 RMS=6.54D-07 Max=3.15D-05 NDo=     3
 LinEq1:  Iter= 59 NonCon=     3 RMS=3.12D-07 Max=1.76D-05 NDo=     3
 LinEq1:  Iter= 60 NonCon=     3 RMS=8.43D-08 Max=3.07D-06 NDo=     3
 LinEq1:  Iter= 61 NonCon=     3 RMS=2.92D-08 Max=2.09D-06 NDo=     3
 LinEq1:  Iter= 62 NonCon=     3 RMS=1.45D-08 Max=8.08D-07 NDo=     3
 LinEq1:  Iter= 63 NonCon=     3 RMS=5.43D-09 Max=2.82D-07 NDo=     3
 LinEq1:  Iter= 64 NonCon=     3 RMS=2.86D-09 Max=1.80D-07 NDo=     3
 LinEq1:  Iter= 65 NonCon=     3 RMS=9.26D-10 Max=5.68D-08 NDo=     3
 LinEq1:  Iter= 66 NonCon=     3 RMS=2.42D-10 Max=2.39D-08 NDo=     3
 LinEq1:  Iter= 67 NonCon=     2 RMS=8.99D-11 Max=4.37D-09 NDo=     3
 LinEq1:  Iter= 68 NonCon=     1 RMS=3.19D-11 Max=1.61D-09 NDo=     2
 LinEq1:  Iter= 69 NonCon=     0 RMS=1.83D-11 Max=9.28D-10 NDo=     1
 Linear equations converged to 1.000D-10 1.000D-09 after    69 iterations.
 FullF1:  Do perturbations    1 to     9.
 SCF Polarizability for W=    0.000000:
                1             2             3 
      1  0.139273D+03
      2 -0.426746D-04  0.110797D+03
      3  0.286334D-03  0.697800D-03  0.110797D+03
 Isotropic polarizability for W=    0.000000      120.29 Bohr**3.
 SCF Polarizability for W=    0.105471:
                1             2             3 
      1  0.154473D+03
      2 -0.395401D-04  0.116490D+03
      3  0.404229D-03  0.984004D-03  0.116490D+03
 Isotropic polarizability for W=    0.105471      129.15 Bohr**3.
 SCF Polarizability for W=    0.210941:
                1             2             3 
      1  0.326047D+03
      2 -0.102219D-02  0.131604D+03
      3  0.253749D-02 -0.637887D-02  0.131638D+03
 Isotropic polarizability for W=    0.210941      196.43 Bohr**3.
 SCF Static Hyperpolarizability:
 K=  1 block:
                1 
      1  0.314782D+02
 K=  2 block:
                1             2 
      1  0.111009D+00
      2  0.826700D+01 -0.243804D-01
 K=  3 block:
                1             2             3 
      1  0.270812D-01
      2 -0.792374D-03 -0.224515D-01
      3  0.826786D+01 -0.412730D-01  0.481470D-01
 SCF Beta(-W,W;0) for W=    0.105471:
 K=  1 block:
                1             2             3 
      1  0.513828D+02
      2  0.160251D+00  0.129447D+02
      3  0.643152D-01 -0.120888D-02  0.129467D+02
 K=  2 block:
                1             2             3 
      1  0.177653D+00
      2  0.132299D+02 -0.533925D-01
      3 -0.317081D-02 -0.336639D-01 -0.645181D-01
 K=  3 block:
                1             2             3 
      1  0.570613D-01
      2  0.224012D-03 -0.315337D-01
      3  0.132316D+02 -0.647749D-01  0.482835D-01
 SCF Beta(W,W;-2W) for W=    0.105471:
 K=  1 block:
                1             2             3 
      1  0.412589D+03
      2  0.138648D+01  0.669184D+02
      3  0.716055D-01 -0.348706D-01  0.669136D+02
 K=  2 block:
                1             2             3 
      1  0.990586D+00
      2 -0.304667D+02  0.314292D-01
      3 -0.287803D+00 -0.757110D-01 -0.688833D-01
 K=  3 block:
                1             2             3 
      1 -0.336367D+00
      2  0.158538D+00  0.237795D+00
      3 -0.302086D+02 -0.440901D+00 -0.755461D-01
 SCF Beta(-W,W;0) for W=    0.210941:
 K=  1 block:
                1             2             3 
      1  0.154446D+04
      2  0.111919D+00  0.726422D+03
      3  0.287347D+00  0.123802D+01  0.721620D+03
 K=  2 block:
                1             2             3 
      1  0.123829D+01
      2  0.285783D+03 -0.448850D+01
      3  0.743777D-01 -0.752370D+01  0.919642D+01
 K=  3 block:
                1             2             3 
      1  0.177229D+01
      2 -0.239199D+00 -0.529945D+01
      3  0.284628D+03  0.204693D-01  0.362240D+01
 End of Minotr F.D. properties on file   721 Mask=      31 NFrqRd=     2 NDeriv=     1 ND12= 1 LenFil=      94:
 Frequencies=    0.000000    0.105471
 Property number 1 -- Alpha(-w,w) frequency  1    0.000000:
                 1             2             3 
      1   0.139273D+03 -0.426746D-04  0.286334D-03
      2  -0.426746D-04  0.110797D+03  0.697800D-03
      3   0.286334D-03  0.697800D-03  0.110797D+03
 Property number 1 -- Alpha(-w,w) frequency  2    0.105471:
                 1             2             3 
      1   0.154473D+03 -0.395401D-04  0.404229D-03
      2  -0.395401D-04  0.116490D+03  0.984004D-03
      3   0.404229D-03  0.984004D-03  0.116490D+03
 Property number 5 -- Beta(-w,w,0) frequency  1    0.000000:
                 1 
      1   0.314782D+02
      2   0.111009D+00
      3   0.826700D+01
      4   0.270812D-01
      5  -0.792374D-03
      6   0.826786D+01
      7   0.111009D+00
      8   0.826700D+01
      9  -0.243804D-01
     10  -0.792374D-03
     11  -0.224515D-01
     12  -0.412730D-01
     13   0.270812D-01
     14  -0.792374D-03
     15  -0.224515D-01
     16   0.826786D+01
     17  -0.412730D-01
     18   0.481470D-01
 Property number 5 -- Beta(-w,w,0) frequency  2    0.105471:
                 1 
      1   0.513828D+02
      2   0.160251D+00
      3   0.129447D+02
      4   0.643152D-01
      5  -0.120888D-02
      6   0.129467D+02
      7   0.177653D+00
      8   0.132299D+02
      9  -0.533925D-01
     10  -0.317081D-02
     11  -0.336639D-01
     12  -0.645181D-01
     13   0.570613D-01
     14   0.224012D-03
     15  -0.315337D-01
     16   0.132316D+02
     17  -0.647749D-01
     18   0.482835D-01
 Property number 6 -- Beta(w,w,-2w) frequency  1    0.000000:
                 1 
      1   0.314782D+02
      2   0.111009D+00
      3   0.826700D+01
      4   0.270812D-01
      5  -0.792374D-03
      6   0.826786D+01
      7   0.111009D+00
      8   0.826700D+01
      9  -0.243804D-01
     10  -0.792374D-03
     11  -0.224515D-01
     12  -0.412730D-01
     13   0.270812D-01
     14  -0.792374D-03
     15  -0.224515D-01
     16   0.826786D+01
     17  -0.412730D-01
     18   0.481470D-01
 Property number 6 -- Beta(w,w,-2w) frequency  2    0.105471:
                 1 
      1   0.412589D+03
      2   0.138648D+01
      3   0.669184D+02
      4   0.716055D-01
      5  -0.348706D-01
      6   0.669136D+02
      7   0.990586D+00
      8  -0.304667D+02
      9   0.314292D-01
     10  -0.287803D+00
     11  -0.757110D-01
     12  -0.688833D-01
     13  -0.336367D+00
     14   0.158538D+00
     15   0.237795D+00
     16  -0.302086D+02
     17  -0.440901D+00
     18  -0.755461D-01
 End of Minotr F.D. properties file   722 does not exist.
 End of Minotr F.D. properties file   788 does not exist.
 Leave Link 1002 at Sun Apr 11 17:02:31 2021, MaxMem=  1048576000 cpu:     28110.0
 (Enter /usr/local/g09/l601.exe)
 Copying SCF densities to generalized density rwf, IOpCl= 0 IROHF=0.

 **********************************************************************

            Population analysis using the SCF density.

 **********************************************************************

 Alpha  occ. eigenvalues -- -256.33215 -30.10132 -25.93988 -25.92058 -25.92057
 Alpha  occ. eigenvalues --  -10.22871 -10.22840 -10.22839 -10.22779 -10.22779
 Alpha  occ. eigenvalues --  -10.22708 -10.22677 -10.22676 -10.22616 -10.22616
 Alpha  occ. eigenvalues --   -3.44961  -2.23693  -2.19176  -2.19176  -0.92207
 Alpha  occ. eigenvalues --   -0.90471  -0.73532  -0.73531  -0.73332  -0.73332
 Alpha  occ. eigenvalues --   -0.56420  -0.56419  -0.55497  -0.55497  -0.55483
 Alpha  occ. eigenvalues --   -0.54028  -0.43036  -0.42116  -0.42116  -0.41167
 Alpha  occ. eigenvalues --   -0.41166  -0.39339  -0.39339  -0.38801  -0.38801
 Alpha  occ. eigenvalues --   -0.37602  -0.28079  -0.28079  -0.26255  -0.26254
 Alpha  occ. eigenvalues --   -0.24482  -0.21459  -0.21458
 Alpha virt. eigenvalues --    0.00193   0.00194   0.01297   0.02707   0.02708
 Alpha virt. eigenvalues --    0.03476   0.04106   0.04108   0.04996   0.05748
 Alpha virt. eigenvalues --    0.05748   0.05750   0.05750   0.06277   0.06277
 Alpha virt. eigenvalues --    0.08972   0.09145   0.09145   0.09956   0.09957
 Alpha virt. eigenvalues --    0.11198   0.11203   0.13607   0.13608   0.13902
 Alpha virt. eigenvalues --    0.13903   0.14121   0.14581   0.14585   0.17293
 Alpha virt. eigenvalues --    0.17296   0.17965   0.17965   0.18290   0.18290
 Alpha virt. eigenvalues --    0.18338   0.19085   0.19088   0.19198   0.19200
 Alpha virt. eigenvalues --    0.19652   0.21034   0.21346   0.21859   0.21860
 Alpha virt. eigenvalues --    0.23286   0.23293   0.24051   0.24052   0.25330
 Alpha virt. eigenvalues --    0.26014   0.26677   0.26677   0.26825   0.26826
 Alpha virt. eigenvalues --    0.29117   0.29120   0.30699   0.31287   0.31288
 Alpha virt. eigenvalues --    0.34622   0.34623   0.35876   0.35883   0.38915
 Alpha virt. eigenvalues --    0.40200   0.40201   0.40676   0.40680   0.41913
 Alpha virt. eigenvalues --    0.41919   0.43761   0.44503   0.45689   0.48077
 Alpha virt. eigenvalues --    0.48345   0.52533   0.52536   0.55986   0.55989
 Alpha virt. eigenvalues --    0.56239   0.56240   0.58942   0.58946   0.61421
 Alpha virt. eigenvalues --    0.61422   0.61452   0.61529   0.61530   0.61941
 Alpha virt. eigenvalues --    0.64279   0.64282   0.64409   0.64410   0.65746
 Alpha virt. eigenvalues --    0.65746   0.67133   0.67133   0.69889   0.70241
 Alpha virt. eigenvalues --    0.70241   0.70351   0.70352   0.71989   0.71991
 Alpha virt. eigenvalues --    0.72257   0.72348   0.72352   0.73413   0.74526
 Alpha virt. eigenvalues --    0.74528   0.75763   0.78646   0.78647   0.82065
 Alpha virt. eigenvalues --    0.86790   0.86792   0.87177   0.87178   0.87546
 Alpha virt. eigenvalues --    0.88977   0.88989   0.97094   0.97550   0.98221
 Alpha virt. eigenvalues --    0.98239   1.01073   1.01073   1.02649   1.02654
 Alpha virt. eigenvalues --    1.09211   1.09217   1.09795   1.09796   1.12375
 Alpha virt. eigenvalues --    1.12375   1.16828   1.16831   1.19360   1.25625
 Alpha virt. eigenvalues --    1.25628   1.25684   1.27085   1.27090   1.27279
 Alpha virt. eigenvalues --    1.27279   1.28828   1.28831   1.30561   1.30567
 Alpha virt. eigenvalues --    1.33067   1.34069   1.34070   1.34466   1.39885
 Alpha virt. eigenvalues --    1.41844   1.41845   1.41995   1.41997   1.42242
 Alpha virt. eigenvalues --    1.42251   1.43441   1.43444   1.45704   1.46933
 Alpha virt. eigenvalues --    1.46935   1.49163   1.49165   1.49583   1.53893
 Alpha virt. eigenvalues --    1.55326   1.58597   1.58598   1.60054   1.60061
 Alpha virt. eigenvalues --    1.60398   1.60410   1.65083   1.65084   1.68967
 Alpha virt. eigenvalues --    1.78616   1.78616   1.81434   1.81434   1.95417
 Alpha virt. eigenvalues --    1.95417   2.01924   2.12540   2.12547   2.14026
 Alpha virt. eigenvalues --    2.14037   2.16250   2.16251   2.16759   2.16761
 Alpha virt. eigenvalues --    2.28290   2.28292   2.30834   2.32432   2.46384
 Alpha virt. eigenvalues --    2.46387   2.49320   2.51851   2.54559   2.54560
 Alpha virt. eigenvalues --    2.65327   2.65329   2.65627   2.65628   2.67424
 Alpha virt. eigenvalues --    2.72848   2.72852   2.73339   2.79908   2.82266
 Alpha virt. eigenvalues --    2.82267   2.84210   2.86043   2.86046   2.89164
 Alpha virt. eigenvalues --    2.89165   2.94284   2.94288   3.00974   3.00977
 Alpha virt. eigenvalues --    3.01398   3.01398   3.09395   3.09396   3.10193
 Alpha virt. eigenvalues --    3.10195   3.10709   3.10714   3.15560   3.20905
 Alpha virt. eigenvalues --    3.20913   3.22883   3.22884   3.23181   3.23183
 Alpha virt. eigenvalues --    3.25096   3.25097   3.35589   3.36913   3.36924
 Alpha virt. eigenvalues --    3.37007   3.43052   3.43052   3.44818   3.44822
 Alpha virt. eigenvalues --    3.48093   3.54280   3.54282   3.55528   3.55529
 Alpha virt. eigenvalues --    3.57488   3.57488   3.59899   3.59903   3.62595
 Alpha virt. eigenvalues --    3.62596   3.63418   3.64465   3.64490   3.64491
 Alpha virt. eigenvalues --    3.68047   3.68235   3.68738   3.68738   3.69250
 Alpha virt. eigenvalues --    3.69251   3.76837   3.76838   3.78025   3.78028
 Alpha virt. eigenvalues --    3.79144   3.79145   3.80435   3.80437   3.80438
 Alpha virt. eigenvalues --    3.81382   3.81885   3.81889   3.84040   3.85344
 Alpha virt. eigenvalues --    3.85345   3.86476   3.96178   3.96197   4.00126
 Alpha virt. eigenvalues --    4.00139   4.01058   4.06855   4.06856   4.10467
 Alpha virt. eigenvalues --    4.12956   4.12957   4.27592   4.27596   4.29613
 Alpha virt. eigenvalues --    4.29617   4.36549   4.56877   4.56877   4.61198
 Alpha virt. eigenvalues --    4.61206   4.74554   4.74557   4.75823   4.75826
 Alpha virt. eigenvalues --    4.85942   4.85943   4.87573   4.87574   5.07373
 Alpha virt. eigenvalues --    5.15135   5.15426  23.90685  24.01227  24.09376
 Alpha virt. eigenvalues --   24.09376  24.14520  24.14526  24.25966  24.25967
 Alpha virt. eigenvalues --   24.37779  24.37780
 Electronic spatial extent (au):  <R**2>=           1342.4567
 Charge=              0.0000 electrons
 Dipole moment (field-independent basis, Debye):
    X=             -0.2360    Y=             -0.0003    Z=              0.0004  Tot=              0.2360
 Quadrupole moment (field-independent basis, Debye-Ang):
   XX=            -81.1167   YY=            -67.0488   ZZ=            -67.0500
   XY=             -0.0002   XZ=             -0.0002   YZ=              0.0003
 Traceless Quadrupole moment (field-independent basis, Debye-Ang):
   XX=             -9.3782   YY=              4.6897   ZZ=              4.6885
   XY=             -0.0002   XZ=             -0.0002   YZ=              0.0003
 Octapole moment (field-independent basis, Debye-Ang**2):
  XXX=             -1.8953  YYY=              0.0004  ZZZ=              0.0002  XYY=             -0.4937
  XXY=              0.0109  XXZ=             -0.0057  XZZ=             -0.4923  YZZ=              0.0010
  YYZ=             -0.0006  XYZ=             -0.0007
 Hexadecapole moment (field-independent basis, Debye-Ang**3):
 XXXX=          -1183.1545 YYYY=           -378.6610 ZZZZ=           -378.6676 XXXY=             -0.0015
 XXXZ=             -0.0023 YYYX=             -0.0004 YYYZ=             -0.0004 ZZZX=             -0.0011
 ZZZY=              0.0001 XXYY=           -239.1742 XXZZ=           -239.1753 YYZZ=           -126.2214
 XXYZ=             -0.0027 YYXZ=             -0.0003 ZZXY=             -0.0009
 N-N= 9.192345822002D+02 E-N=-5.744136498285D+03  KE= 1.646810471011D+03
  Exact polarizability: 139.273   0.000 110.797   0.000   0.001 110.797
 Approx polarizability: 217.006   0.000 182.960   0.000   0.000 182.961
 No NMR shielding tensors so no spin-rotation constants.
 Leave Link  601 at Sun Apr 11 17:02:32 2021, MaxMem=  1048576000 cpu:         5.5
 (Enter /usr/local/g09/l106.exe)
 NDeriv=   3 NFrqRd=  2 NDerD0=   0 MskFDP=      31 MskDFD=      31 MskDF0=       0
 Re-enter D2Numr: IAtom=  0 IXYZ=1 IStep= 2.
 Leave Link  106 at Sun Apr 11 17:02:32 2021, MaxMem=  1048576000 cpu:         4.0
 (Enter /usr/local/g09/l301.exe)
 Basis read from rwf:  (5D, 7F)
 Pseudo-potential data read from rwf file.
 The following finite field(s) will be applied:
 An electric field of             -0.0003  0.0000  0.0000
   375 basis functions,   602 primitive gaussians,   402 cartesian basis functions
    48 alpha electrons       48 beta electrons
       nuclear repulsion energy       919.2345822002 Hartrees.
 IExCor= 1009 DFT=T Ex+Corr=PBE1PBE ExCW=0 ScaHFX=  0.250000
 ScaDFX=  0.750000  0.750000  1.000000  1.000000 ScalE2=  1.000000  1.000000
 IRadAn=      0 IRanWt=     -1 IRanGd=            0 ICorTp=0 IEmpDi=  4
 NAtoms=   21 NActive=   21 NUniq=   21 SFac= 1.00D+00 NAtFMM=   60 NAOKFM=F Big=F
 Integral buffers will be    131072 words long.
 Raffenetti 2 integral format.
 Two-electron integral symmetry is turned off.
 No density basis found on file   724.
 Leave Link  301 at Sun Apr 11 17:02:32 2021, MaxMem=  1048576000 cpu:         1.4
 (Enter /usr/local/g09/l302.exe)
 NPDir=0 NMtPBC=     1 NCelOv=     1 NCel=       1 NClECP=     1 NCelD=      1
         NCelK=      1 NCelE2=     1 NClLst=     1 CellRange=     0.0.
 One-electron integrals computed using PRISM.
   1 Symmetry operations used in ECPInt.
 ECPInt:  NShTT=    7875 NPrTT=   28235 LenC2=    7866 LenP2D=   21150.
 LDataN:  DoStor=T MaxTD1= 6 Len=  172
 NBasis=   375 RedAO= T EigKep=  3.67D-06  NBF=   375
 NBsUse=   375 1.00D-06 EigRej= -1.00D+00 NBFU=   375
 Precomputing XC quadrature grid using
 IXCGrd= 4 IRadAn=           0 IRanWt=          -1 IRanGd=           0 AccXCQ= 0.00D+00.
 Generated NRdTot=       0 NPtTot=           0 NUsed=           0 NTot=          32
 NSgBfM=   402   402   402   402   402 MxSgAt=    21 MxSgA2=    21.
 Leave Link  302 at Sun Apr 11 17:02:32 2021, MaxMem=  1048576000 cpu:        12.3
 (Enter /usr/local/g09/l303.exe)
 DipDrv:  MaxL=1.
 The nuclear repulsion energy is now       919.2345822002 hartrees.
 Leave Link  303 at Sun Apr 11 17:02:33 2021, MaxMem=  1048576000 cpu:         1.5
 (Enter /usr/local/g09/l401.exe)
 Initial guess from the checkpoint file:  "ferr_pbe0.chk"
 B after Tr=     0.000000    0.000000    0.000000
         Rot=    1.000000    0.000000    0.000000    0.000000 Ang=   0.00 deg.
 Guess basis will be translated and rotated to current coordinates.
 JPrj=2 DoOrth=T DoCkMO=T.
 Leave Link  401 at Sun Apr 11 17:02:33 2021, MaxMem=  1048576000 cpu:         6.4
 (Enter /usr/local/g09/l502.exe)
 Closed shell SCF:
 Using DIIS extrapolation, IDIIS=  1040.
 Two-electron integral symmetry not used.
 IVT=      515866 IEndB=      515866 NGot=  1048576000 MDV=  1048238781
 LenX=  1048238781 LenY=  1048076736
 Requested convergence on RMS density matrix=1.00D-10 within 128 cycles.
 Requested convergence on MAX density matrix=1.00D-08.
 Requested convergence on             energy=1.00D-08.
 No special actions if energy rises.
 Fock matrices will be formed incrementally for  20 cycles.

 Cycle   1  Pass 1  IDiag  1:
 FoFJK:  IHMeth= 1 ICntrl=       0 DoSepK=F KAlg= 0 I1Cent=   0 FoldK=F
 IRaf= 980000000 NMat=   1 IRICut=       1 DoRegI=T DoRafI=F ISym2E= 0.
 FoFCou: FMM=F IPFlag=           0 FMFlag=      100000 FMFlg1=           0
         NFxFlg=           0 DoJE=F BraDBF=F KetDBF=F FulRan=T
         wScrn=  0.000000 ICntrl=       0 IOpCl=  0 I1Cent=           0 NGrid=           0
         NMat0=    1 NMatS0=      1 NMatT0=    0 NMatD0=    1 NMtDS0=    0 NMtDT0=    0
 Symmetry not used in FoFCou.
 E= -1650.24294439340    
 DIIS: error= 1.54D-04 at cycle   1 NSaved=   1.
 NSaved= 1 IEnMin= 1 EnMin= -1650.24294439340     IErMin= 1 ErrMin= 1.54D-04
 ErrMax= 1.54D-04  0.00D+00 EMaxC= 1.00D-01 BMatC= 2.82D-06 BMatP= 2.82D-06
 IDIUse=3 WtCom= 9.98D-01 WtEn= 1.54D-03
 Coeff-Com:  0.100D+01
 Coeff-En:   0.100D+01
 Coeff:      0.100D+01
 Gap=     0.451 Goal=   None    Shift=    0.000
 RMSDP=8.53D-05 MaxDP=4.52D-03              OVMax= 2.15D-03

 Cycle   2  Pass 1  IDiag  1:
 RMSU=  8.53D-05    CP:  1.00D+00
 E= -1650.24294675362     Delta-E=       -0.000002360220 Rises=F Damp=F
 DIIS: error= 1.42D-04 at cycle   2 NSaved=   2.
 NSaved= 2 IEnMin= 2 EnMin= -1650.24294675362     IErMin= 2 ErrMin= 1.42D-04
 ErrMax= 1.42D-04  0.00D+00 EMaxC= 1.00D-01 BMatC= 4.29D-06 BMatP= 2.82D-06
 IDIUse=3 WtCom= 4.56D-01 WtEn= 5.44D-01
 Coeff-Com:  0.561D+00 0.439D+00
 Coeff-En:   0.378D+00 0.622D+00
 Coeff:      0.462D+00 0.538D+00
 Gap=     0.217 Goal=   None    Shift=    0.000
 RMSDP=2.14D-05 MaxDP=4.62D-04 DE=-2.36D-06 OVMax= 9.82D-04

 Cycle   3  Pass 1  IDiag  1:
 RMSU=  2.04D-05    CP:  1.00D+00  9.25D-01
 E= -1650.24295118880     Delta-E=       -0.000004435175 Rises=F Damp=F
 DIIS: error= 6.65D-05 at cycle   3 NSaved=   3.
 NSaved= 3 IEnMin= 3 EnMin= -1650.24295118880     IErMin= 3 ErrMin= 6.65D-05
 ErrMax= 6.65D-05  0.00D+00 EMaxC= 1.00D-01 BMatC= 1.00D-06 BMatP= 2.82D-06
 IDIUse=1 WtCom= 1.00D+00 WtEn= 0.00D+00
 Coeff-Com:  0.204D+00 0.318D+00 0.479D+00
 Coeff:      0.204D+00 0.318D+00 0.479D+00
 Gap=     0.217 Goal=   None    Shift=    0.000
 RMSDP=1.22D-05 MaxDP=6.93D-04 DE=-4.44D-06 OVMax= 2.54D-04

 Cycle   4  Pass 1  IDiag  1:
 RMSU=  4.23D-06    CP:  1.00D+00  8.77D-01  4.77D-01
 E= -1650.24295211501     Delta-E=       -0.000000926215 Rises=F Damp=F
 DIIS: error= 1.24D-05 at cycle   4 NSaved=   4.
 NSaved= 4 IEnMin= 4 EnMin= -1650.24295211501     IErMin= 4 ErrMin= 1.24D-05
 ErrMax= 1.24D-05  0.00D+00 EMaxC= 1.00D-01 BMatC= 2.03D-08 BMatP= 1.00D-06
 IDIUse=1 WtCom= 1.00D+00 WtEn= 0.00D+00
 Coeff-Com:  0.255D-01 0.559D-01 0.163D+00 0.755D+00
 Coeff:      0.255D-01 0.559D-01 0.163D+00 0.755D+00
 Gap=     0.217 Goal=   None    Shift=    0.000
 RMSDP=1.61D-06 MaxDP=4.64D-05 DE=-9.26D-07 OVMax= 4.56D-05

 Cycle   5  Pass 1  IDiag  1:
 RMSU=  1.18D-06    CP:  1.00D+00  8.76D-01  5.29D-01  9.98D-01
 E= -1650.24295210571     Delta-E=        0.000000009302 Rises=F Damp=F
 DIIS: error= 1.98D-05 at cycle   5 NSaved=   5.
 NSaved= 5 IEnMin= 4 EnMin= -1650.24295211501     IErMin= 4 ErrMin= 1.24D-05
 ErrMax= 1.98D-05  0.00D+00 EMaxC= 1.00D-01 BMatC= 5.31D-08 BMatP= 2.03D-08
 IDIUse=1 WtCom= 1.00D+00 WtEn= 0.00D+00
 Coeff-Com:  0.139D-01 0.349D-01 0.119D+00 0.642D+00 0.190D+00
 Coeff:      0.139D-01 0.349D-01 0.119D+00 0.642D+00 0.190D+00
 Gap=     0.217 Goal=   None    Shift=    0.000
 RMSDP=9.41D-07 MaxDP=4.64D-05 DE= 9.30D-09 OVMax= 4.30D-05

 Cycle   6  Pass 1  IDiag  1:
 RMSU=  6.48D-07    CP:  1.00D+00  8.75D-01  5.30D-01  1.02D+00  4.76D-01
 E= -1650.24295212791     Delta-E=       -0.000000022200 Rises=F Damp=F
 DIIS: error= 6.30D-06 at cycle   6 NSaved=   6.
 NSaved= 6 IEnMin= 6 EnMin= -1650.24295212791     IErMin= 6 ErrMin= 6.30D-06
 ErrMax= 6.30D-06  0.00D+00 EMaxC= 1.00D-01 BMatC= 5.60D-09 BMatP= 2.03D-08
 IDIUse=1 WtCom= 1.00D+00 WtEn= 0.00D+00
 Coeff-Com: -0.929D-03 0.586D-03 0.118D-01 0.130D+00 0.229D+00 0.630D+00
 Coeff:     -0.929D-03 0.586D-03 0.118D-01 0.130D+00 0.229D+00 0.630D+00
 Gap=     0.217 Goal=   None    Shift=    0.000
 RMSDP=4.45D-07 MaxDP=2.90D-05 DE=-2.22D-08 OVMax= 1.07D-05

 Cycle   7  Pass 1  IDiag  1:
 RMSU=  1.24D-07    CP:  1.00D+00  8.74D-01  5.19D-01  1.08D+00  5.97D-01
                    CP:  7.27D-01
 E= -1650.24295213045     Delta-E=       -0.000000002537 Rises=F Damp=F
 DIIS: error= 2.95D-07 at cycle   7 NSaved=   7.
 NSaved= 7 IEnMin= 7 EnMin= -1650.24295213045     IErMin= 7 ErrMin= 2.95D-07
 ErrMax= 2.95D-07  0.00D+00 EMaxC= 1.00D-01 BMatC= 1.84D-11 BMatP= 5.60D-09
 IDIUse=1 WtCom= 1.00D+00 WtEn= 0.00D+00
 Coeff-Com: -0.833D-03-0.101D-02-0.371D-02-0.731D-03 0.405D-01 0.134D+00
 Coeff-Com:  0.832D+00
 Coeff:     -0.833D-03-0.101D-02-0.371D-02-0.731D-03 0.405D-01 0.134D+00
 Coeff:      0.832D+00
 Gap=     0.217 Goal=   None    Shift=    0.000
 RMSDP=7.98D-08 MaxDP=5.31D-06 DE=-2.54D-09 OVMax= 1.84D-06

 Cycle   8  Pass 1  IDiag  1:
 RMSU=  1.44D-08    CP:  1.00D+00  8.74D-01  5.16D-01  1.09D+00  6.10D-01
                    CP:  7.47D-01  1.03D+00
 E= -1650.24295213047     Delta-E=       -0.000000000024 Rises=F Damp=F
 DIIS: error= 3.61D-08 at cycle   8 NSaved=   8.
 NSaved= 8 IEnMin= 8 EnMin= -1650.24295213047     IErMin= 8 ErrMin= 3.61D-08
 ErrMax= 3.61D-08  0.00D+00 EMaxC= 1.00D-01 BMatC= 3.03D-13 BMatP= 1.84D-11
 IDIUse=1 WtCom= 1.00D+00 WtEn= 0.00D+00
 Coeff-Com: -0.327D-04-0.955D-04-0.116D-03-0.255D-02-0.386D-03 0.211D-02
 Coeff-Com:  0.627D-01 0.938D+00
 Coeff:     -0.327D-04-0.955D-04-0.116D-03-0.255D-02-0.386D-03 0.211D-02
 Coeff:      0.627D-01 0.938D+00
 Gap=     0.217 Goal=   None    Shift=    0.000
 RMSDP=8.63D-09 MaxDP=5.40D-07 DE=-2.41D-11 OVMax= 2.16D-07

 Cycle   9  Pass 1  IDiag  1:
 RMSU=  3.86D-09    CP:  1.00D+00  8.74D-01  5.16D-01  1.09D+00  6.10D-01
                    CP:  7.52D-01  1.04D+00  1.02D+00
 E= -1650.24295213051     Delta-E=       -0.000000000041 Rises=F Damp=F
 DIIS: error= 9.89D-09 at cycle   9 NSaved=   9.
 NSaved= 9 IEnMin= 9 EnMin= -1650.24295213051     IErMin= 9 ErrMin= 9.89D-09
 ErrMax= 9.89D-09  0.00D+00 EMaxC= 1.00D-01 BMatC= 2.63D-14 BMatP= 3.03D-13
 IDIUse=1 WtCom= 1.00D+00 WtEn= 0.00D+00
 Coeff-Com: -0.169D-05-0.332D-04 0.119D-04-0.847D-03-0.628D-03-0.173D-02
 Coeff-Com:  0.924D-02 0.326D+00 0.668D+00
 Coeff:     -0.169D-05-0.332D-04 0.119D-04-0.847D-03-0.628D-03-0.173D-02
 Coeff:      0.924D-02 0.326D+00 0.668D+00
 Gap=     0.217 Goal=   None    Shift=    0.000
 RMSDP=3.21D-09 MaxDP=1.73D-07 DE=-4.09D-11 OVMax= 3.61D-08

 Cycle  10  Pass 1  IDiag  1:
 RMSU=  1.05D-09    CP:  1.00D+00  8.74D-01  5.16D-01  1.09D+00  6.11D-01
                    CP:  7.51D-01  1.04D+00  1.08D+00  4.43D-01
 E= -1650.24295213046     Delta-E=        0.000000000053 Rises=F Damp=F
 DIIS: error= 4.47D-09 at cycle  10 NSaved=  10.
 NSaved=10 IEnMin= 9 EnMin= -1650.24295213051     IErMin=10 ErrMin= 4.47D-09
 ErrMax= 4.47D-09  0.00D+00 EMaxC= 1.00D-01 BMatC= 4.91D-15 BMatP= 2.63D-14
 IDIUse=1 WtCom= 1.00D+00 WtEn= 0.00D+00
 Coeff-Com:  0.493D-05-0.266D-05 0.260D-04 0.142D-03-0.355D-03-0.134D-02
 Coeff-Com: -0.890D-02-0.361D-01 0.305D+00 0.742D+00
 Coeff:      0.493D-05-0.266D-05 0.260D-04 0.142D-03-0.355D-03-0.134D-02
 Coeff:     -0.890D-02-0.361D-01 0.305D+00 0.742D+00
 Gap=     0.217 Goal=   None    Shift=    0.000
 RMSDP=1.09D-09 MaxDP=6.28D-08 DE= 5.28D-11 OVMax= 1.89D-08

 Cycle  11  Pass 1  IDiag  1:
 RMSU=  1.79D-10    CP:  1.00D+00  8.74D-01  5.16D-01  1.09D+00  6.11D-01
                    CP:  7.51D-01  1.04D+00  1.07D+00  6.43D-01  7.99D-01
 E= -1650.24295213050     Delta-E=       -0.000000000034 Rises=F Damp=F
 DIIS: error= 2.25D-10 at cycle  11 NSaved=  11.
 NSaved=11 IEnMin= 9 EnMin= -1650.24295213051     IErMin=11 ErrMin= 2.25D-10
 ErrMax= 2.25D-10  0.00D+00 EMaxC= 1.00D-01 BMatC= 1.21D-17 BMatP= 4.91D-15
 IDIUse=1 WtCom= 1.00D+00 WtEn= 0.00D+00
 Coeff-Com:  0.209D-07-0.198D-07-0.328D-06 0.150D-04 0.737D-05 0.382D-04
 Coeff-Com: -0.119D-03-0.247D-02-0.151D-01-0.162D-01 0.103D+01
 Coeff:      0.209D-07-0.198D-07-0.328D-06 0.150D-04 0.737D-05 0.382D-04
 Coeff:     -0.119D-03-0.247D-02-0.151D-01-0.162D-01 0.103D+01
 Gap=     0.217 Goal=   None    Shift=    0.000
 RMSDP=2.01D-10 MaxDP=1.48D-08 DE=-3.41D-11 OVMax= 3.30D-09

 Cycle  12  Pass 1  IDiag  1:
 RMSU=  1.09D-10    CP:  1.00D+00  8.74D-01  5.16D-01  1.09D+00  6.11D-01
                    CP:  7.51D-01  1.04D+00  1.07D+00  6.41D-01  8.14D-01
                    CP:  9.15D-01
 E= -1650.24295213052     Delta-E=       -0.000000000029 Rises=F Damp=F
 DIIS: error= 2.11D-10 at cycle  12 NSaved=  12.
 NSaved=12 IEnMin=12 EnMin= -1650.24295213052     IErMin=12 ErrMin= 2.11D-10
 ErrMax= 2.11D-10  0.00D+00 EMaxC= 1.00D-01 BMatC= 1.64D-17 BMatP= 1.21D-17
 IDIUse=1 WtCom= 1.00D+00 WtEn= 0.00D+00
 Coeff-Com: -0.267D-06 0.134D-06-0.150D-05 0.101D-05 0.273D-04 0.954D-04
 Coeff-Com:  0.433D-03 0.688D-03-0.270D-01-0.537D-01 0.626D+00 0.454D+00
 Coeff:     -0.267D-06 0.134D-06-0.150D-05 0.101D-05 0.273D-04 0.954D-04
 Coeff:      0.433D-03 0.688D-03-0.270D-01-0.537D-01 0.626D+00 0.454D+00
 Gap=     0.217 Goal=   None    Shift=    0.000
 RMSDP=8.34D-11 MaxDP=5.75D-09 DE=-2.86D-11 OVMax= 1.00D-09

 SCF Done:  E(RPBE1PBE) =  -1650.24295213     A.U. after   12 cycles
            NFock= 12  Conv=0.83D-10     -V/T= 2.0021
 KE= 1.646810488179D+03 PE=-5.744136683299D+03 EE= 1.527848660789D+03
 Leave Link  502 at Sun Apr 11 17:03:20 2021, MaxMem=  1048576000 cpu:      1175.9
 (Enter /usr/local/g09/l801.exe)
 DoSCS=F DFT=T ScalE2(SS,OS)=  1.000000  1.000000
 Range of M.O.s used for correlation:     1   375
 NBasis=   375 NAE=    48 NBE=    48 NFC=     0 NFV=     0
 NROrb=    375 NOA=    48 NOB=    48 NVA=   327 NVB=   327

 **** Warning!!: The largest alpha MO coefficient is  0.11447678D+03

 Leave Link  801 at Sun Apr 11 17:03:20 2021, MaxMem=  1048576000 cpu:         1.0
 (Enter /usr/local/g09/l1002.exe)
 Minotr:  Closed shell wavefunction.
          Direct CPHF calculation.
          Differentiating once with respect to electric field.
                with respect to dipole field.
          Electric field/nuclear overlap derivatives assumed to be zero.
          Requested convergence is 1.0D-10 RMS, and 1.0D-09 maximum.
          NewPWx=F KeepS1=T KeepF1=T KeepIn=T MapXYZ=F SortEE=F KeepMc=T.
          MDV=    1048575453 using IRadAn=       1.
 Generate precomputed XC quadrature information.
          Solving linear equations separately, MaxMat=       0.
          Doing perturbations at frequencies    0.000000    0.105471    0.210941
          There are     9 degrees of freedom in the 1st order CPHF.  IDoFFX=0 NUNeed=     9.
 LinEq1:  Iter=  0 NonCon=     9 RMS=2.93D-01 Max=2.65D+01 NDo=     9
 AX will form     9 AO Fock derivatives at one time.
 FoFJK:  IHMeth= 1 ICntrl=       0 DoSepK=F KAlg= 0 I1Cent=   0 FoldK=F
 IRaf= 980000000 NMat=  18 IRICut=      22 DoRegI=T DoRafI=T ISym2E= 0.
 FoFCou: FMM=F IPFlag=           0 FMFlag=      100000 FMFlg1=           0
         NFxFlg=           0 DoJE=F BraDBF=F KetDBF=F FulRan=T
         wScrn=  0.000000 ICntrl=       0 IOpCl=  0 I1Cent=           0 NGrid=           0
         NMat0=   18 NMatS0=      9 NMatT0=    0 NMatD0=   18 NMtDS0=    0 NMtDT0=    0
 Symmetry not used in FoFCou.
 LinEq1:  Iter=  1 NonCon=     9 RMS=1.67D-01 Max=6.70D+00 NDo=     9
 LinEq1:  Iter=  2 NonCon=     9 RMS=2.84D-01 Max=3.19D+01 NDo=     9
 LinEq1:  Iter=  3 NonCon=     9 RMS=1.79D+00 Max=1.04D+02 NDo=     9
 LinEq1:  Iter=  4 NonCon=     9 RMS=8.77D+00 Max=6.17D+02 NDo=     9
 LinEq1:  Iter=  5 NonCon=     9 RMS=5.89D+01 Max=7.04D+03 NDo=     9
 LinEq1:  Iter=  6 NonCon=     9 RMS=2.92D+02 Max=2.10D+04 NDo=     9
 LinEq1:  Iter=  7 NonCon=     9 RMS=1.12D+02 Max=8.16D+03 NDo=     9
 LinEq1:  Iter=  8 NonCon=     9 RMS=1.44D+02 Max=1.89D+04 NDo=     9
 LinEq1:  Iter=  9 NonCon=     9 RMS=1.50D+02 Max=1.30D+04 NDo=     9
 LinEq1:  Iter= 10 NonCon=     9 RMS=1.55D+03 Max=1.49D+05 NDo=     9
 LinEq1:  Iter= 11 NonCon=     9 RMS=2.04D+03 Max=2.12D+05 NDo=     9
 LinEq1:  Iter= 12 NonCon=     9 RMS=1.49D+04 Max=1.41D+06 NDo=     9
 LinEq1:  Iter= 13 NonCon=     9 RMS=2.17D+04 Max=1.38D+06 NDo=     9
 LinEq1:  Iter= 14 NonCon=     9 RMS=2.19D+04 Max=2.42D+06 NDo=     9
 LinEq1:  Iter= 15 NonCon=     9 RMS=1.75D+04 Max=1.55D+06 NDo=     9
 LinEq1:  Iter= 16 NonCon=     9 RMS=2.84D+04 Max=1.71D+06 NDo=     9
 LinEq1:  Iter= 17 NonCon=     9 RMS=2.05D+04 Max=1.03D+06 NDo=     9
 LinEq1:  Iter= 18 NonCon=     9 RMS=1.80D+04 Max=2.56D+06 NDo=     9
 LinEq1:  Iter= 19 NonCon=     9 RMS=2.88D+04 Max=1.53D+06 NDo=     9
 LinEq1:  Iter= 20 NonCon=     9 RMS=3.11D+04 Max=1.04D+06 NDo=     9
 LinEq1:  Iter= 21 NonCon=     9 RMS=7.81D+03 Max=4.24D+05 NDo=     9
 LinEq1:  Iter= 22 NonCon=     9 RMS=5.42D+03 Max=3.05D+05 NDo=     9
 LinEq1:  Iter= 23 NonCon=     9 RMS=6.21D+03 Max=6.19D+05 NDo=     9
 LinEq1:  Iter= 24 NonCon=     8 RMS=5.61D+03 Max=4.29D+05 NDo=     9
 LinEq1:  Iter= 25 NonCon=     8 RMS=4.02D+03 Max=2.03D+05 NDo=     8
 LinEq1:  Iter= 26 NonCon=     6 RMS=2.56D+03 Max=1.49D+05 NDo=     8
 LinEq1:  Iter= 27 NonCon=     6 RMS=1.43D+03 Max=7.03D+04 NDo=     6
 LinEq1:  Iter= 28 NonCon=     6 RMS=1.09D+03 Max=5.20D+04 NDo=     6
 LinEq1:  Iter= 29 NonCon=     6 RMS=8.02D+02 Max=4.09D+04 NDo=     6
 LinEq1:  Iter= 30 NonCon=     6 RMS=3.83D+02 Max=2.57D+04 NDo=     6
 LinEq1:  Iter= 31 NonCon=     6 RMS=1.81D+02 Max=1.00D+04 NDo=     6
 LinEq1:  Iter= 32 NonCon=     6 RMS=1.86D+02 Max=1.36D+04 NDo=     6
 LinEq1:  Iter= 33 NonCon=     5 RMS=1.20D+02 Max=7.58D+03 NDo=     6
 LinEq1:  Iter= 34 NonCon=     3 RMS=9.24D+01 Max=4.97D+03 NDo=     5
 LinEq1:  Iter= 35 NonCon=     3 RMS=4.44D+01 Max=2.43D+03 NDo=     3
 LinEq1:  Iter= 36 NonCon=     3 RMS=2.37D+01 Max=1.08D+03 NDo=     3
 LinEq1:  Iter= 37 NonCon=     3 RMS=1.17D+01 Max=8.68D+02 NDo=     3
 LinEq1:  Iter= 38 NonCon=     3 RMS=3.52D+00 Max=1.46D+02 NDo=     3
 LinEq1:  Iter= 39 NonCon=     3 RMS=1.31D+00 Max=6.82D+01 NDo=     3
 LinEq1:  Iter= 40 NonCon=     3 RMS=5.84D-01 Max=3.71D+01 NDo=     3
 LinEq1:  Iter= 41 NonCon=     3 RMS=2.12D-01 Max=1.04D+01 NDo=     3
 LinEq1:  Iter= 42 NonCon=     3 RMS=1.13D-01 Max=6.15D+00 NDo=     3
 LinEq1:  Iter= 43 NonCon=     3 RMS=8.81D-02 Max=5.37D+00 NDo=     3
 LinEq1:  Iter= 44 NonCon=     3 RMS=6.17D-02 Max=3.90D+00 NDo=     3
 LinEq1:  Iter= 45 NonCon=     3 RMS=4.05D-02 Max=1.95D+00 NDo=     3
 LinEq1:  Iter= 46 NonCon=     3 RMS=2.03D-02 Max=1.29D+00 NDo=     3
 LinEq1:  Iter= 47 NonCon=     3 RMS=5.57D-03 Max=2.62D-01 NDo=     3
 LinEq1:  Iter= 48 NonCon=     3 RMS=3.53D-03 Max=1.41D-01 NDo=     3
 LinEq1:  Iter= 49 NonCon=     3 RMS=2.19D-03 Max=1.20D-01 NDo=     3
 LinEq1:  Iter= 50 NonCon=     3 RMS=9.65D-04 Max=5.43D-02 NDo=     3
 LinEq1:  Iter= 51 NonCon=     3 RMS=4.81D-04 Max=1.89D-02 NDo=     3
 LinEq1:  Iter= 52 NonCon=     3 RMS=2.13D-04 Max=1.52D-02 NDo=     3
 LinEq1:  Iter= 53 NonCon=     3 RMS=6.62D-05 Max=2.85D-03 NDo=     3
 LinEq1:  Iter= 54 NonCon=     3 RMS=2.06D-05 Max=7.86D-04 NDo=     3
 LinEq1:  Iter= 55 NonCon=     3 RMS=9.19D-06 Max=5.14D-04 NDo=     3
 LinEq1:  Iter= 56 NonCon=     3 RMS=3.61D-06 Max=2.03D-04 NDo=     3
 LinEq1:  Iter= 57 NonCon=     3 RMS=1.01D-06 Max=4.36D-05 NDo=     3
 LinEq1:  Iter= 58 NonCon=     3 RMS=4.87D-07 Max=2.21D-05 NDo=     3
 LinEq1:  Iter= 59 NonCon=     3 RMS=2.23D-07 Max=8.62D-06 NDo=     3
 LinEq1:  Iter= 60 NonCon=     3 RMS=6.48D-08 Max=4.08D-06 NDo=     3
 LinEq1:  Iter= 61 NonCon=     3 RMS=1.93D-08 Max=1.11D-06 NDo=     3
 LinEq1:  Iter= 62 NonCon=     3 RMS=1.05D-08 Max=6.17D-07 NDo=     3
 LinEq1:  Iter= 63 NonCon=     3 RMS=4.15D-09 Max=2.31D-07 NDo=     3
 LinEq1:  Iter= 64 NonCon=     3 RMS=1.86D-09 Max=1.22D-07 NDo=     3
 LinEq1:  Iter= 65 NonCon=     3 RMS=6.94D-10 Max=5.75D-08 NDo=     3
 LinEq1:  Iter= 66 NonCon=     3 RMS=1.99D-10 Max=1.59D-08 NDo=     3
 LinEq1:  Iter= 67 NonCon=     2 RMS=6.95D-11 Max=3.59D-09 NDo=     3
 LinEq1:  Iter= 68 NonCon=     0 RMS=2.31D-11 Max=9.00D-10 NDo=     2
 Linear equations converged to 1.000D-10 1.000D-09 after    68 iterations.
 FullF1:  Do perturbations    1 to     9.
 SCF Polarizability for W=    0.000000:
                1             2             3 
      1  0.139265D+03
      2 -0.130652D-03  0.110795D+03
      3  0.266591D-03  0.698973D-03  0.110795D+03
 Isotropic polarizability for W=    0.000000      120.29 Bohr**3.
 SCF Polarizability for W=    0.105471:
                1             2             3 
      1  0.154460D+03
      2 -0.147649D-03  0.116487D+03
      3  0.362874D-03  0.985802D-03  0.116487D+03
 Isotropic polarizability for W=    0.105471      129.14 Bohr**3.
 SCF Polarizability for W=    0.210941:
                1             2             3 
      1  0.325665D+03
      2 -0.458441D-03  0.131417D+03
      3  0.234818D-02 -0.685260D-02  0.131452D+03
 Isotropic polarizability for W=    0.210941      196.18 Bohr**3.
 SCF Static Hyperpolarizability:
 K=  1 block:
                1 
      1 -0.157291D+02
 K=  2 block:
                1             2 
      1  0.110827D+00
      2 -0.413189D+01 -0.245568D-01
 K=  3 block:
                1             2             3 
      1  0.266718D-01
      2 -0.179935D-02 -0.225172D-01
      3 -0.413094D+01 -0.412590D-01  0.479586D-01
 SCF Beta(-W,W;0) for W=    0.105471:
 K=  1 block:
                1             2             3 
      1 -0.256715D+02
      2  0.159928D+00 -0.646944D+01
      3  0.634899D-01 -0.298569D-02 -0.646747D+01
 K=  2 block:
                1             2             3 
      1  0.177428D+00
      2 -0.661130D+01 -0.536658D-01
      3 -0.481927D-02 -0.337930D-01 -0.645408D-01
 K=  3 block:
                1             2             3 
      1  0.562310D-01
      2 -0.141395D-02 -0.316472D-01
      3 -0.660933D+01 -0.647982D-01  0.479666D-01
 SCF Beta(W,W;-2W) for W=    0.105471:
 K=  1 block:
                1             2             3 
      1 -0.205517D+03
      2  0.140581D+01 -0.332227D+02
      3  0.538623D-01  0.145334D-01 -0.332442D+02
 K=  2 block:
                1             2             3 
      1  0.978606D+00
      2  0.162868D+02  0.508181D-01
      3 -0.211052D+00 -0.656775D-01 -0.536475D-01
 K=  3 block:
                1             2             3 
      1 -0.317354D+00
      2  0.236493D+00  0.251887D+00
      3  0.161853D+02 -0.453678D+00 -0.100393D+00
 SCF Beta(-W,W;0) for W=    0.210941:
 K=  1 block:
                1             2             3 
      1 -0.766950D+03
      2 -0.220267D+00 -0.383664D+03
      3  0.425346D+00 -0.333043D+00 -0.381707D+03
 K=  2 block:
                1             2             3 
      1  0.108924D+01
      2 -0.144694D+03 -0.464385D+01
      3  0.446038D+00 -0.832388D+01  0.999577D+01
 K=  3 block:
                1             2             3 
      1  0.177661D+01
      2  0.445374D-01 -0.576644D+01
      3 -0.144537D+03  0.290598D+00  0.405984D+01
 End of Minotr F.D. properties on file   721 Mask=      31 NFrqRd=     2 NDeriv=     1 ND12= 1 LenFil=      94:
 Frequencies=    0.000000    0.105471
 Property number 1 -- Alpha(-w,w) frequency  1    0.000000:
                 1             2             3 
      1   0.139265D+03 -0.130652D-03  0.266591D-03
      2  -0.130652D-03  0.110795D+03  0.698973D-03
      3   0.266591D-03  0.698973D-03  0.110795D+03
 Property number 1 -- Alpha(-w,w) frequency  2    0.105471:
                 1             2             3 
      1   0.154460D+03 -0.147649D-03  0.362874D-03
      2  -0.147649D-03  0.116487D+03  0.985802D-03
      3   0.362874D-03  0.985802D-03  0.116487D+03
 Property number 5 -- Beta(-w,w,0) frequency  1    0.000000:
                 1 
      1  -0.157291D+02
      2   0.110827D+00
      3  -0.413189D+01
      4   0.266718D-01
      5  -0.179935D-02
      6  -0.413094D+01
      7   0.110827D+00
      8  -0.413189D+01
      9  -0.245568D-01
     10  -0.179935D-02
     11  -0.225172D-01
     12  -0.412590D-01
     13   0.266718D-01
     14  -0.179935D-02
     15  -0.225172D-01
     16  -0.413094D+01
     17  -0.412590D-01
     18   0.479586D-01
 Property number 5 -- Beta(-w,w,0) frequency  2    0.105471:
                 1 
      1  -0.256715D+02
      2   0.159928D+00
      3  -0.646944D+01
      4   0.634899D-01
      5  -0.298569D-02
      6  -0.646747D+01
      7   0.177428D+00
      8  -0.661130D+01
      9  -0.536658D-01
     10  -0.481927D-02
     11  -0.337930D-01
     12  -0.645408D-01
     13   0.562310D-01
     14  -0.141395D-02
     15  -0.316472D-01
     16  -0.660933D+01
     17  -0.647982D-01
     18   0.479666D-01
 Property number 6 -- Beta(w,w,-2w) frequency  1    0.000000:
                 1 
      1  -0.157291D+02
      2   0.110827D+00
      3  -0.413189D+01
      4   0.266718D-01
      5  -0.179935D-02
      6  -0.413094D+01
      7   0.110827D+00
      8  -0.413189D+01
      9  -0.245568D-01
     10  -0.179935D-02
     11  -0.225172D-01
     12  -0.412590D-01
     13   0.266718D-01
     14  -0.179935D-02
     15  -0.225172D-01
     16  -0.413094D+01
     17  -0.412590D-01
     18   0.479586D-01
 Property number 6 -- Beta(w,w,-2w) frequency  2    0.105471:
                 1 
      1  -0.205517D+03
      2   0.140581D+01
      3  -0.332227D+02
      4   0.538623D-01
      5   0.145334D-01
      6  -0.332442D+02
      7   0.978606D+00
      8   0.162868D+02
      9   0.508181D-01
     10  -0.211052D+00
     11  -0.656775D-01
     12  -0.536475D-01
     13  -0.317354D+00
     14   0.236493D+00
     15   0.251887D+00
     16   0.161853D+02
     17  -0.453678D+00
     18  -0.100393D+00
 End of Minotr F.D. properties file   722 does not exist.
 End of Minotr F.D. properties file   788 does not exist.
 Leave Link 1002 at Sun Apr 11 17:21:57 2021, MaxMem=  1048576000 cpu:     27917.4
 (Enter /usr/local/g09/l601.exe)
 Copying SCF densities to generalized density rwf, IOpCl= 0 IROHF=0.

 **********************************************************************

            Population analysis using the SCF density.

 **********************************************************************

 Alpha  occ. eigenvalues -- -256.33215 -30.10131 -25.93988 -25.92057 -25.92057
 Alpha  occ. eigenvalues --  -10.22830 -10.22798 -10.22798 -10.22748 -10.22738
 Alpha  occ. eigenvalues --  -10.22738 -10.22717 -10.22717 -10.22657 -10.22657
 Alpha  occ. eigenvalues --   -3.44961  -2.23693  -2.19175  -2.19175  -0.92204
 Alpha  occ. eigenvalues --   -0.90473  -0.73497  -0.73497  -0.73366  -0.73366
 Alpha  occ. eigenvalues --   -0.56413  -0.56412  -0.55504  -0.55503  -0.55478
 Alpha  occ. eigenvalues --   -0.54032  -0.43035  -0.42109  -0.42109  -0.41173
 Alpha  occ. eigenvalues --   -0.41173  -0.39327  -0.39327  -0.38813  -0.38813
 Alpha  occ. eigenvalues --   -0.37603  -0.28077  -0.28077  -0.26257  -0.26256
 Alpha  occ. eigenvalues --   -0.24481  -0.21459  -0.21458
 Alpha virt. eigenvalues --    0.00196   0.00196   0.01316   0.02716   0.02717
 Alpha virt. eigenvalues --    0.03492   0.04115   0.04117   0.04978   0.05746
 Alpha virt. eigenvalues --    0.05746   0.05784   0.05785   0.06237   0.06238
 Alpha virt. eigenvalues --    0.08959   0.09144   0.09144   0.09964   0.09965
 Alpha virt. eigenvalues --    0.11206   0.11212   0.13599   0.13601   0.13910
 Alpha virt. eigenvalues --    0.13911   0.14122   0.14566   0.14570   0.17329
 Alpha virt. eigenvalues --    0.17332   0.17961   0.17961   0.18253   0.18253
 Alpha virt. eigenvalues --    0.18346   0.19091   0.19095   0.19208   0.19209
 Alpha virt. eigenvalues --    0.19652   0.21033   0.21353   0.21852   0.21854
 Alpha virt. eigenvalues --    0.23277   0.23283   0.24053   0.24054   0.25322
 Alpha virt. eigenvalues --    0.26005   0.26711   0.26712   0.26788   0.26788
 Alpha virt. eigenvalues --    0.29122   0.29124   0.30698   0.31281   0.31283
 Alpha virt. eigenvalues --    0.34622   0.34623   0.35878   0.35885   0.38916
 Alpha virt. eigenvalues --    0.40198   0.40199   0.40676   0.40680   0.41913
 Alpha virt. eigenvalues --    0.41918   0.43762   0.44511   0.45682   0.48076
 Alpha virt. eigenvalues --    0.48344   0.52534   0.52536   0.55988   0.55990
 Alpha virt. eigenvalues --    0.56239   0.56240   0.58943   0.58946   0.61449
 Alpha virt. eigenvalues --    0.61450   0.61470   0.61503   0.61505   0.61924
 Alpha virt. eigenvalues --    0.64277   0.64281   0.64406   0.64406   0.65754
 Alpha virt. eigenvalues --    0.65755   0.67124   0.67125   0.69893   0.70254
 Alpha virt. eigenvalues --    0.70254   0.70344   0.70345   0.71984   0.71986
 Alpha virt. eigenvalues --    0.72252   0.72351   0.72355   0.73418   0.74522
 Alpha virt. eigenvalues --    0.74523   0.75759   0.78646   0.78648   0.82065
 Alpha virt. eigenvalues --    0.86800   0.86802   0.87166   0.87167   0.87546
 Alpha virt. eigenvalues --    0.88977   0.88989   0.97110   0.97535   0.98221
 Alpha virt. eigenvalues --    0.98239   1.01073   1.01073   1.02650   1.02655
 Alpha virt. eigenvalues --    1.09211   1.09217   1.09795   1.09796   1.12375
 Alpha virt. eigenvalues --    1.12375   1.16828   1.16831   1.19361   1.25626
 Alpha virt. eigenvalues --    1.25628   1.25683   1.27087   1.27091   1.27279
 Alpha virt. eigenvalues --    1.27279   1.28829   1.28832   1.30561   1.30566
 Alpha virt. eigenvalues --    1.33067   1.34068   1.34069   1.34466   1.39887
 Alpha virt. eigenvalues --    1.41869   1.41871   1.41969   1.41971   1.42242
 Alpha virt. eigenvalues --    1.42251   1.43442   1.43445   1.45704   1.46934
 Alpha virt. eigenvalues --    1.46936   1.49162   1.49164   1.49584   1.53892
 Alpha virt. eigenvalues --    1.55326   1.58598   1.58599   1.60054   1.60062
 Alpha virt. eigenvalues --    1.60397   1.60409   1.65082   1.65083   1.68967
 Alpha virt. eigenvalues --    1.78618   1.78618   1.81433   1.81433   1.95417
 Alpha virt. eigenvalues --    1.95417   2.01924   2.12546   2.12553   2.14021
 Alpha virt. eigenvalues --    2.14032   2.16269   2.16271   2.16740   2.16742
 Alpha virt. eigenvalues --    2.28291   2.28292   2.30840   2.32427   2.46385
 Alpha virt. eigenvalues --    2.46388   2.49324   2.51847   2.54559   2.54560
 Alpha virt. eigenvalues --    2.65344   2.65346   2.65610   2.65611   2.67425
 Alpha virt. eigenvalues --    2.72849   2.72853   2.73340   2.79908   2.82266
 Alpha virt. eigenvalues --    2.82267   2.84210   2.86042   2.86046   2.89165
 Alpha virt. eigenvalues --    2.89166   2.94284   2.94289   3.00975   3.00978
 Alpha virt. eigenvalues --    3.01398   3.01398   3.09394   3.09396   3.10193
 Alpha virt. eigenvalues --    3.10195   3.10709   3.10714   3.15560   3.20907
 Alpha virt. eigenvalues --    3.20915   3.22882   3.22884   3.23184   3.23186
 Alpha virt. eigenvalues --    3.25093   3.25095   3.35590   3.36913   3.36924
 Alpha virt. eigenvalues --    3.37007   3.43052   3.43052   3.44818   3.44822
 Alpha virt. eigenvalues --    3.48094   3.54281   3.54283   3.55530   3.55531
 Alpha virt. eigenvalues --    3.57487   3.57487   3.59898   3.59902   3.62598
 Alpha virt. eigenvalues --    3.62599   3.63419   3.64467   3.64487   3.64488
 Alpha virt. eigenvalues --    3.68047   3.68234   3.68739   3.68740   3.69250
 Alpha virt. eigenvalues --    3.69251   3.76837   3.76838   3.78027   3.78030
 Alpha virt. eigenvalues --    3.79144   3.79145   3.80433   3.80435   3.80445
 Alpha virt. eigenvalues --    3.81376   3.81885   3.81889   3.84040   3.85344
 Alpha virt. eigenvalues --    3.85344   3.86476   3.96179   3.96197   4.00126
 Alpha virt. eigenvalues --    4.00139   4.01058   4.06856   4.06857   4.10467
 Alpha virt. eigenvalues --    4.12955   4.12957   4.27593   4.27596   4.29613
 Alpha virt. eigenvalues --    4.29617   4.36550   4.56877   4.56878   4.61199
 Alpha virt. eigenvalues --    4.61206   4.74554   4.74557   4.75823   4.75826
 Alpha virt. eigenvalues --    4.85945   4.85946   4.87571   4.87572   5.07373
 Alpha virt. eigenvalues --    5.15156   5.15405  23.90685  24.01227  24.09377
 Alpha virt. eigenvalues --   24.09378  24.14519  24.14525  24.25967  24.25968
 Alpha virt. eigenvalues --   24.37779  24.37780
 Electronic spatial extent (au):  <R**2>=           1342.4555
 Charge=              0.0000 electrons
 Dipole moment (field-independent basis, Debye):
    X=              0.1180    Y=             -0.0003    Z=              0.0004  Tot=              0.1180
 Quadrupole moment (field-independent basis, Debye-Ang):
   XX=            -81.1155   YY=            -67.0486   ZZ=            -67.0498
   XY=             -0.0001   XZ=             -0.0002   YZ=              0.0003
 Traceless Quadrupole moment (field-independent basis, Debye-Ang):
   XX=             -9.3775   YY=              4.6894   ZZ=              4.6882
   XY=             -0.0001   XZ=             -0.0002   YZ=              0.0003
 Octapole moment (field-independent basis, Debye-Ang**2):
  XXX=              0.9473  YYY=              0.0004  ZZZ=              0.0002  XYY=              0.2457
  XXY=              0.0109  XXZ=             -0.0057  XZZ=              0.2471  YZZ=              0.0010
  YYZ=             -0.0006  XYZ=             -0.0007
 Hexadecapole moment (field-independent basis, Debye-Ang**3):
 XXXX=          -1183.1316 YYYY=           -378.6585 ZZZZ=           -378.6651 XXXY=             -0.0008
 XXXZ=             -0.0025 YYYX=             -0.0001 YYYZ=             -0.0004 ZZZX=             -0.0011
 ZZZY=              0.0001 XXYY=           -239.1698 XXZZ=           -239.1709 YYZZ=           -126.2205
 XXYZ=             -0.0027 YYXZ=             -0.0003 ZZXY=             -0.0008
 N-N= 9.192345822002D+02 E-N=-5.744136683255D+03  KE= 1.646810488179D+03
  Exact polarizability: 139.265   0.000 110.795   0.000   0.001 110.795
 Approx polarizability: 216.995   0.000 182.958   0.000   0.000 182.959
 No NMR shielding tensors so no spin-rotation constants.
 Leave Link  601 at Sun Apr 11 17:21:57 2021, MaxMem=  1048576000 cpu:         7.6
 (Enter /usr/local/g09/l106.exe)
 NDeriv=   3 NFrqRd=  2 NDerD0=   0 MskFDP=      31 MskDFD=      31 MskDF0=       0
 Re-enter D2Numr: IAtom=  0 IXYZ=1 IStep= 3.
 Leave Link  106 at Sun Apr 11 17:21:57 2021, MaxMem=  1048576000 cpu:         3.9
 (Enter /usr/local/g09/l301.exe)
 Basis read from rwf:  (5D, 7F)
 Pseudo-potential data read from rwf file.
 The following finite field(s) will be applied:
 An electric field of             -0.0007  0.0000  0.0000
   375 basis functions,   602 primitive gaussians,   402 cartesian basis functions
    48 alpha electrons       48 beta electrons
       nuclear repulsion energy       919.2345822002 Hartrees.
 IExCor= 1009 DFT=T Ex+Corr=PBE1PBE ExCW=0 ScaHFX=  0.250000
 ScaDFX=  0.750000  0.750000  1.000000  1.000000 ScalE2=  1.000000  1.000000
 IRadAn=      0 IRanWt=     -1 IRanGd=            0 ICorTp=0 IEmpDi=  4
 NAtoms=   21 NActive=   21 NUniq=   21 SFac= 1.00D+00 NAtFMM=   60 NAOKFM=F Big=F
 Integral buffers will be    131072 words long.
 Raffenetti 2 integral format.
 Two-electron integral symmetry is turned off.
 No density basis found on file   724.
 Leave Link  301 at Sun Apr 11 17:21:57 2021, MaxMem=  1048576000 cpu:         1.4
 (Enter /usr/local/g09/l302.exe)
 NPDir=0 NMtPBC=     1 NCelOv=     1 NCel=       1 NClECP=     1 NCelD=      1
         NCelK=      1 NCelE2=     1 NClLst=     1 CellRange=     0.0.
 One-electron integrals computed using PRISM.
   1 Symmetry operations used in ECPInt.
 ECPInt:  NShTT=    7875 NPrTT=   28235 LenC2=    7866 LenP2D=   21150.
 LDataN:  DoStor=T MaxTD1= 6 Len=  172
 NBasis=   375 RedAO= T EigKep=  3.67D-06  NBF=   375
 NBsUse=   375 1.00D-06 EigRej= -1.00D+00 NBFU=   375
 Precomputing XC quadrature grid using
 IXCGrd= 4 IRadAn=           0 IRanWt=          -1 IRanGd=           0 AccXCQ= 0.00D+00.
 Generated NRdTot=       0 NPtTot=           0 NUsed=           0 NTot=          32
 NSgBfM=   402   402   402   402   402 MxSgAt=    21 MxSgA2=    21.
 Leave Link  302 at Sun Apr 11 17:21:58 2021, MaxMem=  1048576000 cpu:         8.9
 (Enter /usr/local/g09/l303.exe)
 DipDrv:  MaxL=1.
 The nuclear repulsion energy is now       919.2345822002 hartrees.
 Leave Link  303 at Sun Apr 11 17:21:58 2021, MaxMem=  1048576000 cpu:         1.5
 (Enter /usr/local/g09/l401.exe)
 Initial guess from the checkpoint file:  "ferr_pbe0.chk"
 B after Tr=     0.000000    0.000000    0.000000
         Rot=    1.000000    0.000000    0.000000    0.000000 Ang=   0.00 deg.
 Guess basis will be translated and rotated to current coordinates.
 JPrj=2 DoOrth=T DoCkMO=T.
 Leave Link  401 at Sun Apr 11 17:21:58 2021, MaxMem=  1048576000 cpu:         6.6
 (Enter /usr/local/g09/l502.exe)
 Closed shell SCF:
 Using DIIS extrapolation, IDIIS=  1040.
 Two-electron integral symmetry not used.
 IVT=      515866 IEndB=      515866 NGot=  1048576000 MDV=  1048238781
 LenX=  1048238781 LenY=  1048076736
 Requested convergence on RMS density matrix=1.00D-10 within 128 cycles.
 Requested convergence on MAX density matrix=1.00D-08.
 Requested convergence on             energy=1.00D-08.
 No special actions if energy rises.
 Fock matrices will be formed incrementally for  20 cycles.

 Cycle   1  Pass 1  IDiag  1:
 FoFJK:  IHMeth= 1 ICntrl=       0 DoSepK=F KAlg= 0 I1Cent=   0 FoldK=F
 IRaf= 980000000 NMat=   1 IRICut=       1 DoRegI=T DoRafI=F ISym2E= 0.
 FoFCou: FMM=F IPFlag=           0 FMFlag=      100000 FMFlg1=           0
         NFxFlg=           0 DoJE=F BraDBF=F KetDBF=F FulRan=T
         wScrn=  0.000000 ICntrl=       0 IOpCl=  0 I1Cent=           0 NGrid=           0
         NMat0=    1 NMatS0=      1 NMatT0=    0 NMatD0=    1 NMtDS0=    0 NMtDT0=    0
 Symmetry not used in FoFCou.
 E= -1650.24296760171    
 DIIS: error= 1.54D-04 at cycle   1 NSaved=   1.
 NSaved= 1 IEnMin= 1 EnMin= -1650.24296760171     IErMin= 1 ErrMin= 1.54D-04
 ErrMax= 1.54D-04  0.00D+00 EMaxC= 1.00D-01 BMatC= 2.82D-06 BMatP= 2.82D-06
 IDIUse=3 WtCom= 9.98D-01 WtEn= 1.54D-03
 Coeff-Com:  0.100D+01
 Coeff-En:   0.100D+01
 Coeff:      0.100D+01
 Gap=     0.451 Goal=   None    Shift=    0.000
 RMSDP=8.53D-05 MaxDP=4.58D-03              OVMax= 2.15D-03

 Cycle   2  Pass 1  IDiag  1:
 RMSU=  8.53D-05    CP:  1.00D+00
 E= -1650.24296996171     Delta-E=       -0.000002360006 Rises=F Damp=F
 DIIS: error= 1.42D-04 at cycle   2 NSaved=   2.
 NSaved= 2 IEnMin= 2 EnMin= -1650.24296996171     IErMin= 2 ErrMin= 1.42D-04
 ErrMax= 1.42D-04  0.00D+00 EMaxC= 1.00D-01 BMatC= 4.29D-06 BMatP= 2.82D-06
 IDIUse=3 WtCom= 4.56D-01 WtEn= 5.44D-01
 Coeff-Com:  0.561D+00 0.439D+00
 Coeff-En:   0.378D+00 0.622D+00
 Coeff:      0.462D+00 0.538D+00
 Gap=     0.217 Goal=   None    Shift=    0.000
 RMSDP=2.14D-05 MaxDP=4.65D-04 DE=-2.36D-06 OVMax= 9.81D-04

 Cycle   3  Pass 1  IDiag  1:
 RMSU=  2.04D-05    CP:  1.00D+00  9.24D-01
 E= -1650.24297439668     Delta-E=       -0.000004434971 Rises=F Damp=F
 DIIS: error= 6.65D-05 at cycle   3 NSaved=   3.
 NSaved= 3 IEnMin= 3 EnMin= -1650.24297439668     IErMin= 3 ErrMin= 6.65D-05
 ErrMax= 6.65D-05  0.00D+00 EMaxC= 1.00D-01 BMatC= 1.01D-06 BMatP= 2.82D-06
 IDIUse=1 WtCom= 1.00D+00 WtEn= 0.00D+00
 Coeff-Com:  0.204D+00 0.318D+00 0.479D+00
 Coeff:      0.204D+00 0.318D+00 0.479D+00
 Gap=     0.217 Goal=   None    Shift=    0.000
 RMSDP=1.22D-05 MaxDP=6.98D-04 DE=-4.43D-06 OVMax= 2.55D-04

 Cycle   4  Pass 1  IDiag  1:
 RMSU=  4.23D-06    CP:  1.00D+00  8.77D-01  4.78D-01
 E= -1650.24297532024     Delta-E=       -0.000000923552 Rises=F Damp=F
 DIIS: error= 1.24D-05 at cycle   4 NSaved=   4.
 NSaved= 4 IEnMin= 4 EnMin= -1650.24297532024     IErMin= 4 ErrMin= 1.24D-05
 ErrMax= 1.24D-05  0.00D+00 EMaxC= 1.00D-01 BMatC= 2.74D-08 BMatP= 1.01D-06
 IDIUse=1 WtCom= 1.00D+00 WtEn= 0.00D+00
 Coeff-Com:  0.369D-01 0.734D-01 0.185D+00 0.704D+00
 Coeff:      0.369D-01 0.734D-01 0.185D+00 0.704D+00
 Gap=     0.217 Goal=   None    Shift=    0.000
 RMSDP=1.96D-06 MaxDP=7.44D-05 DE=-9.24D-07 OVMax= 7.20D-05

 Cycle   5  Pass 1  IDiag  1:
 RMSU=  1.66D-06    CP:  1.00D+00  8.76D-01  5.24D-01  9.88D-01
 E= -1650.24297526682     Delta-E=        0.000000053414 Rises=F Damp=F
 DIIS: error= 3.39D-05 at cycle   5 NSaved=   5.
 NSaved= 5 IEnMin= 4 EnMin= -1650.24297532024     IErMin= 4 ErrMin= 1.24D-05
 ErrMax= 3.39D-05  0.00D+00 EMaxC= 1.00D-01 BMatC= 1.55D-07 BMatP= 2.74D-08
 IDIUse=1 WtCom= 1.00D+00 WtEn= 0.00D+00
 Coeff-Com:  0.146D-01 0.365D-01 0.124D+00 0.654D+00 0.171D+00
 Coeff:      0.146D-01 0.365D-01 0.124D+00 0.654D+00 0.171D+00
 Gap=     0.217 Goal=   None    Shift=    0.000
 RMSDP=1.35D-06 MaxDP=6.66D-05 DE= 5.34D-08 OVMax= 6.16D-05

 Cycle   6  Pass 1  IDiag  1:
 RMSU=  6.73D-07    CP:  1.00D+00  8.75D-01  5.30D-01  1.02D+00  3.39D-01
 E= -1650.24297533791     Delta-E=       -0.000000071090 Rises=F Damp=F
 DIIS: error= 3.51D-06 at cycle   6 NSaved=   6.
 NSaved= 6 IEnMin= 6 EnMin= -1650.24297533791     IErMin= 6 ErrMin= 3.51D-06
 ErrMax= 3.51D-06  0.00D+00 EMaxC= 1.00D-01 BMatC= 1.95D-09 BMatP= 2.74D-08
 IDIUse=1 WtCom= 1.00D+00 WtEn= 0.00D+00
 Coeff-Com: -0.929D-03 0.586D-03 0.119D-01 0.128D+00 0.109D+00 0.752D+00
 Coeff:     -0.929D-03 0.586D-03 0.119D-01 0.128D+00 0.109D+00 0.752D+00
 Gap=     0.217 Goal=   None    Shift=    0.000
 RMSDP=4.19D-07 MaxDP=2.80D-05 DE=-7.11D-08 OVMax= 6.16D-06

 Cycle   7  Pass 1  IDiag  1:
 RMSU=  1.24D-07    CP:  1.00D+00  8.74D-01  5.19D-01  1.08D+00  4.07D-01
                    CP:  8.66D-01
 E= -1650.24297533893     Delta-E=       -0.000000001022 Rises=F Damp=F
 DIIS: error= 2.94D-07 at cycle   7 NSaved=   7.
 NSaved= 7 IEnMin= 7 EnMin= -1650.24297533893     IErMin= 7 ErrMin= 2.94D-07
 ErrMax= 2.94D-07  0.00D+00 EMaxC= 1.00D-01 BMatC= 1.81D-11 BMatP= 1.95D-09
 IDIUse=1 WtCom= 1.00D+00 WtEn= 0.00D+00
 Coeff-Com: -0.833D-03-0.100D-02-0.370D-02-0.703D-03 0.163D-01 0.158D+00
 Coeff-Com:  0.831D+00
 Coeff:     -0.833D-03-0.100D-02-0.370D-02-0.703D-03 0.163D-01 0.158D+00
 Coeff:      0.831D+00
 Gap=     0.217 Goal=   None    Shift=    0.000
 RMSDP=8.07D-08 MaxDP=5.47D-06 DE=-1.02D-09 OVMax= 1.84D-06

 Cycle   8  Pass 1  IDiag  1:
 RMSU=  1.63D-08    CP:  1.00D+00  8.74D-01  5.16D-01  1.09D+00  4.17D-01
                    CP:  8.87D-01  1.02D+00
 E= -1650.24297533892     Delta-E=        0.000000000018 Rises=F Damp=F
 DIIS: error= 3.59D-08 at cycle   8 NSaved=   8.
 NSaved= 8 IEnMin= 7 EnMin= -1650.24297533893     IErMin= 8 ErrMin= 3.59D-08
 ErrMax= 3.59D-08  0.00D+00 EMaxC= 1.00D-01 BMatC= 3.91D-13 BMatP= 1.81D-11
 IDIUse=1 WtCom= 1.00D+00 WtEn= 0.00D+00
 Coeff-Com: -0.577D-04-0.125D-03-0.239D-03-0.251D-02-0.360D-03 0.688D-02
 Coeff-Com:  0.869D-01 0.910D+00
 Coeff:     -0.577D-04-0.125D-03-0.239D-03-0.251D-02-0.360D-03 0.688D-02
 Coeff:      0.869D-01 0.910D+00
 Gap=     0.217 Goal=   None    Shift=    0.000
 RMSDP=1.16D-08 MaxDP=6.90D-07 DE= 1.77D-11 OVMax= 2.16D-07

 Cycle   9  Pass 1  IDiag  1:
 RMSU=  7.02D-09    CP:  1.00D+00  8.74D-01  5.16D-01  1.09D+00  4.16D-01
                    CP:  8.94D-01  1.04D+00  8.26D-01
 E= -1650.24297533895     Delta-E=       -0.000000000038 Rises=F Damp=F
 DIIS: error= 2.07D-08 at cycle   9 NSaved=   9.
 NSaved= 9 IEnMin= 9 EnMin= -1650.24297533895     IErMin= 9 ErrMin= 2.07D-08
 ErrMax= 2.07D-08  0.00D+00 EMaxC= 1.00D-01 BMatC= 1.11D-13 BMatP= 3.91D-13
 IDIUse=1 WtCom= 1.00D+00 WtEn= 0.00D+00
 Coeff-Com: -0.530D-05-0.432D-04-0.405D-06-0.120D-02-0.445D-03-0.167D-02
 Coeff-Com:  0.179D-01 0.449D+00 0.537D+00
 Coeff:     -0.530D-05-0.432D-04-0.405D-06-0.120D-02-0.445D-03-0.167D-02
 Coeff:      0.179D-01 0.449D+00 0.537D+00
 Gap=     0.217 Goal=   None    Shift=    0.000
 RMSDP=5.11D-09 MaxDP=2.66D-07 DE=-3.77D-11 OVMax= 5.37D-08

 Cycle  10  Pass 1  IDiag  1:
 RMSU=  8.61D-10    CP:  1.00D+00  8.74D-01  5.16D-01  1.09D+00  4.17D-01
                    CP:  8.92D-01  1.04D+00  9.69D-01  5.30D-01
 E= -1650.24297533892     Delta-E=        0.000000000030 Rises=F Damp=F
 DIIS: error= 2.72D-09 at cycle  10 NSaved=  10.
 NSaved=10 IEnMin= 9 EnMin= -1650.24297533895     IErMin=10 ErrMin= 2.72D-09
 ErrMax= 2.72D-09  0.00D+00 EMaxC= 1.00D-01 BMatC= 2.10D-15 BMatP= 1.11D-13
 IDIUse=1 WtCom= 1.00D+00 WtEn= 0.00D+00
 Coeff-Com:  0.494D-05-0.269D-05 0.261D-04 0.137D-03-0.108D-03-0.158D-02
 Coeff-Com: -0.890D-02-0.348D-01 0.958D-01 0.949D+00
 Coeff:      0.494D-05-0.269D-05 0.261D-04 0.137D-03-0.108D-03-0.158D-02
 Coeff:     -0.890D-02-0.348D-01 0.958D-01 0.949D+00
 Gap=     0.217 Goal=   None    Shift=    0.000
 RMSDP=8.96D-10 MaxDP=6.23D-08 DE= 2.96D-11 OVMax= 2.26D-08

 Cycle  11  Pass 1  IDiag  1:
 RMSU=  1.80D-10    CP:  1.00D+00  8.74D-01  5.16D-01  1.09D+00  4.17D-01
                    CP:  8.92D-01  1.04D+00  9.63D-01  6.04D-01  1.02D+00
 E= -1650.24297533896     Delta-E=       -0.000000000034 Rises=F Damp=F
 DIIS: error= 4.21D-10 at cycle  11 NSaved=  11.
 NSaved=11 IEnMin=11 EnMin= -1650.24297533896     IErMin=11 ErrMin= 4.21D-10
 ErrMax= 4.21D-10  0.00D+00 EMaxC= 1.00D-01 BMatC= 3.79D-17 BMatP= 2.10D-15
 IDIUse=1 WtCom= 1.00D+00 WtEn= 0.00D+00
 Coeff-Com:  0.535D-06-0.267D-06 0.238D-05 0.299D-04-0.144D-04-0.118D-03
 Coeff-Com: -0.105D-02-0.628D-02 0.278D-02 0.749D-01 0.930D+00
 Coeff:      0.535D-06-0.267D-06 0.238D-05 0.299D-04-0.144D-04-0.118D-03
 Coeff:     -0.105D-02-0.628D-02 0.278D-02 0.749D-01 0.930D+00
 Gap=     0.217 Goal=   None    Shift=    0.000
 RMSDP=1.86D-10 MaxDP=1.41D-08 DE=-3.37D-11 OVMax= 3.06D-09

 Cycle  12  Pass 1  IDiag  1:
 RMSU=  9.99D-11    CP:  1.00D+00  8.74D-01  5.16D-01  1.09D+00  4.17D-01
                    CP:  8.92D-01  1.04D+00  9.63D-01  6.04D-01  1.04D+00
                    CP:  9.18D-01
 E= -1650.24297533897     Delta-E=       -0.000000000010 Rises=F Damp=F
 DIIS: error= 4.09D-10 at cycle  12 NSaved=  12.
 NSaved=12 IEnMin=12 EnMin= -1650.24297533897     IErMin=12 ErrMin= 4.09D-10
 ErrMax= 4.09D-10  0.00D+00 EMaxC= 1.00D-01 BMatC= 2.97D-17 BMatP= 3.79D-17
 IDIUse=1 WtCom= 1.00D+00 WtEn= 0.00D+00
 Coeff-Com: -0.224D-06 0.116D-06-0.124D-05 0.181D-05 0.841D-05 0.970D-04
 Coeff-Com:  0.357D-03 0.434D-03-0.879D-02-0.628D-01 0.516D+00 0.554D+00
 Coeff:     -0.224D-06 0.116D-06-0.124D-05 0.181D-05 0.841D-05 0.970D-04
 Coeff:      0.357D-03 0.434D-03-0.879D-02-0.628D-01 0.516D+00 0.554D+00
 Gap=     0.217 Goal=   None    Shift=    0.000
 RMSDP=8.91D-11 MaxDP=5.92D-09 DE=-9.55D-12 OVMax= 1.41D-09

 SCF Done:  E(RPBE1PBE) =  -1650.24297534     A.U. after   12 cycles
            NFock= 12  Conv=0.89D-10     -V/T= 2.0021
 KE= 1.646810471036D+03 PE=-5.744136498528D+03 EE= 1.527848469953D+03
 Leave Link  502 at Sun Apr 11 17:22:45 2021, MaxMem=  1048576000 cpu:      1175.5
 (Enter /usr/local/g09/l801.exe)
 DoSCS=F DFT=T ScalE2(SS,OS)=  1.000000  1.000000
 Range of M.O.s used for correlation:     1   375
 NBasis=   375 NAE=    48 NBE=    48 NFC=     0 NFV=     0
 NROrb=    375 NOA=    48 NOB=    48 NVA=   327 NVB=   327

 **** Warning!!: The largest alpha MO coefficient is  0.11483579D+03

 Leave Link  801 at Sun Apr 11 17:22:45 2021, MaxMem=  1048576000 cpu:         0.8
 (Enter /usr/local/g09/l1002.exe)
 Minotr:  Closed shell wavefunction.
          Direct CPHF calculation.
          Differentiating once with respect to electric field.
                with respect to dipole field.
          Electric field/nuclear overlap derivatives assumed to be zero.
          Requested convergence is 1.0D-10 RMS, and 1.0D-09 maximum.
          NewPWx=F KeepS1=T KeepF1=T KeepIn=T MapXYZ=F SortEE=F KeepMc=T.
          MDV=    1048575453 using IRadAn=       1.
 Generate precomputed XC quadrature information.
          Solving linear equations separately, MaxMat=       0.
          Doing perturbations at frequencies    0.000000    0.105471    0.210941
          There are     9 degrees of freedom in the 1st order CPHF.  IDoFFX=0 NUNeed=     9.
 LinEq1:  Iter=  0 NonCon=     9 RMS=2.93D-01 Max=2.66D+01 NDo=     9
 AX will form     9 AO Fock derivatives at one time.
 FoFJK:  IHMeth= 1 ICntrl=       0 DoSepK=F KAlg= 0 I1Cent=   0 FoldK=F
 IRaf= 980000000 NMat=  18 IRICut=      22 DoRegI=T DoRafI=T ISym2E= 0.
 FoFCou: FMM=F IPFlag=           0 FMFlag=      100000 FMFlg1=           0
         NFxFlg=           0 DoJE=F BraDBF=F KetDBF=F FulRan=T
         wScrn=  0.000000 ICntrl=       0 IOpCl=  0 I1Cent=           0 NGrid=           0
         NMat0=   18 NMatS0=      9 NMatT0=    0 NMatD0=   18 NMtDS0=    0 NMtDT0=    0
 Symmetry not used in FoFCou.
 LinEq1:  Iter=  1 NonCon=     9 RMS=1.67D-01 Max=6.73D+00 NDo=     9
 LinEq1:  Iter=  2 NonCon=     9 RMS=5.39D-01 Max=5.98D+01 NDo=     9
 LinEq1:  Iter=  3 NonCon=     9 RMS=2.14D+00 Max=1.27D+02 NDo=     9
 LinEq1:  Iter=  4 NonCon=     9 RMS=1.42D+01 Max=8.32D+02 NDo=     9
 LinEq1:  Iter=  5 NonCon=     9 RMS=6.10D+01 Max=7.39D+03 NDo=     9
 LinEq1:  Iter=  6 NonCon=     9 RMS=2.95D+02 Max=1.61D+04 NDo=     9
 LinEq1:  Iter=  7 NonCon=     9 RMS=1.21D+02 Max=1.59D+04 NDo=     9
 LinEq1:  Iter=  8 NonCon=     9 RMS=1.93D+02 Max=1.91D+04 NDo=     9
 LinEq1:  Iter=  9 NonCon=     9 RMS=1.55D+02 Max=1.35D+04 NDo=     9
 LinEq1:  Iter= 10 NonCon=     9 RMS=1.61D+03 Max=1.55D+05 NDo=     9
 LinEq1:  Iter= 11 NonCon=     9 RMS=3.06D+03 Max=3.24D+05 NDo=     9
 LinEq1:  Iter= 12 NonCon=     9 RMS=2.39D+04 Max=2.09D+06 NDo=     9
 LinEq1:  Iter= 13 NonCon=     9 RMS=2.67D+04 Max=1.79D+06 NDo=     9
 LinEq1:  Iter= 14 NonCon=     9 RMS=2.35D+04 Max=2.65D+06 NDo=     9
 LinEq1:  Iter= 15 NonCon=     9 RMS=1.80D+04 Max=1.51D+06 NDo=     9
 LinEq1:  Iter= 16 NonCon=     9 RMS=2.94D+04 Max=1.78D+06 NDo=     9
 LinEq1:  Iter= 17 NonCon=     9 RMS=2.29D+04 Max=1.62D+06 NDo=     9
 LinEq1:  Iter= 18 NonCon=     9 RMS=3.13D+04 Max=4.30D+06 NDo=     9
 LinEq1:  Iter= 19 NonCon=     9 RMS=3.09D+04 Max=1.63D+06 NDo=     9
 LinEq1:  Iter= 20 NonCon=     9 RMS=3.23D+04 Max=1.04D+06 NDo=     9
 LinEq1:  Iter= 21 NonCon=     9 RMS=8.79D+03 Max=4.23D+05 NDo=     9
 LinEq1:  Iter= 22 NonCon=     9 RMS=6.21D+03 Max=3.27D+05 NDo=     9
 LinEq1:  Iter= 23 NonCon=     9 RMS=6.82D+03 Max=6.53D+05 NDo=     9
 LinEq1:  Iter= 24 NonCon=     8 RMS=6.78D+03 Max=4.70D+05 NDo=     9
 LinEq1:  Iter= 25 NonCon=     8 RMS=4.90D+03 Max=2.73D+05 NDo=     8
 LinEq1:  Iter= 26 NonCon=     8 RMS=3.11D+03 Max=1.55D+05 NDo=     8
 LinEq1:  Iter= 27 NonCon=     6 RMS=1.49D+03 Max=8.25D+04 NDo=     8
 LinEq1:  Iter= 28 NonCon=     6 RMS=1.15D+03 Max=6.18D+04 NDo=     6
 LinEq1:  Iter= 29 NonCon=     6 RMS=9.04D+02 Max=4.95D+04 NDo=     6
 LinEq1:  Iter= 30 NonCon=     6 RMS=4.16D+02 Max=3.83D+04 NDo=     6
 LinEq1:  Iter= 31 NonCon=     6 RMS=2.09D+02 Max=1.05D+04 NDo=     6
 LinEq1:  Iter= 32 NonCon=     6 RMS=2.17D+02 Max=1.66D+04 NDo=     6
 LinEq1:  Iter= 33 NonCon=     6 RMS=1.44D+02 Max=9.36D+03 NDo=     6
 LinEq1:  Iter= 34 NonCon=     3 RMS=1.23D+02 Max=4.81D+03 NDo=     6
 LinEq1:  Iter= 35 NonCon=     3 RMS=4.97D+01 Max=2.59D+03 NDo=     3
 LinEq1:  Iter= 36 NonCon=     3 RMS=2.54D+01 Max=1.17D+03 NDo=     3
 LinEq1:  Iter= 37 NonCon=     3 RMS=1.27D+01 Max=9.21D+02 NDo=     3
 LinEq1:  Iter= 38 NonCon=     3 RMS=4.69D+00 Max=1.78D+02 NDo=     3
 LinEq1:  Iter= 39 NonCon=     3 RMS=1.79D+00 Max=8.91D+01 NDo=     3
 LinEq1:  Iter= 40 NonCon=     3 RMS=6.60D-01 Max=5.21D+01 NDo=     3
 LinEq1:  Iter= 41 NonCon=     3 RMS=2.76D-01 Max=1.21D+01 NDo=     3
 LinEq1:  Iter= 42 NonCon=     3 RMS=1.41D-01 Max=7.00D+00 NDo=     3
 LinEq1:  Iter= 43 NonCon=     3 RMS=1.09D-01 Max=4.53D+00 NDo=     3
 LinEq1:  Iter= 44 NonCon=     3 RMS=6.97D-02 Max=4.95D+00 NDo=     3
 LinEq1:  Iter= 45 NonCon=     3 RMS=4.92D-02 Max=2.45D+00 NDo=     3
 LinEq1:  Iter= 46 NonCon=     3 RMS=2.21D-02 Max=1.53D+00 NDo=     3
 LinEq1:  Iter= 47 NonCon=     3 RMS=7.03D-03 Max=3.67D-01 NDo=     3
 LinEq1:  Iter= 48 NonCon=     3 RMS=3.80D-03 Max=1.28D-01 NDo=     3
 LinEq1:  Iter= 49 NonCon=     3 RMS=2.62D-03 Max=1.44D-01 NDo=     3
 LinEq1:  Iter= 50 NonCon=     3 RMS=1.21D-03 Max=5.52D-02 NDo=     3
 LinEq1:  Iter= 51 NonCon=     3 RMS=5.97D-04 Max=2.27D-02 NDo=     3
 LinEq1:  Iter= 52 NonCon=     3 RMS=2.59D-04 Max=1.84D-02 NDo=     3
 LinEq1:  Iter= 53 NonCon=     3 RMS=8.77D-05 Max=3.94D-03 NDo=     3
 LinEq1:  Iter= 54 NonCon=     3 RMS=3.28D-05 Max=1.41D-03 NDo=     3
 LinEq1:  Iter= 55 NonCon=     3 RMS=1.42D-05 Max=1.04D-03 NDo=     3
 LinEq1:  Iter= 56 NonCon=     3 RMS=5.37D-06 Max=3.10D-04 NDo=     3
 LinEq1:  Iter= 57 NonCon=     3 RMS=1.44D-06 Max=7.98D-05 NDo=     3
 LinEq1:  Iter= 58 NonCon=     3 RMS=5.78D-07 Max=2.65D-05 NDo=     3
 LinEq1:  Iter= 59 NonCon=     3 RMS=2.77D-07 Max=1.18D-05 NDo=     3
 LinEq1:  Iter= 60 NonCon=     3 RMS=7.99D-08 Max=2.92D-06 NDo=     3
 LinEq1:  Iter= 61 NonCon=     3 RMS=2.89D-08 Max=1.84D-06 NDo=     3
 LinEq1:  Iter= 62 NonCon=     3 RMS=1.46D-08 Max=6.09D-07 NDo=     3
 LinEq1:  Iter= 63 NonCon=     3 RMS=5.23D-09 Max=3.13D-07 NDo=     3
 LinEq1:  Iter= 64 NonCon=     3 RMS=2.85D-09 Max=1.66D-07 NDo=     3
 LinEq1:  Iter= 65 NonCon=     3 RMS=9.31D-10 Max=5.02D-08 NDo=     3
 LinEq1:  Iter= 66 NonCon=     3 RMS=2.43D-10 Max=2.44D-08 NDo=     3
 LinEq1:  Iter= 67 NonCon=     2 RMS=8.57D-11 Max=4.43D-09 NDo=     3
 LinEq1:  Iter= 68 NonCon=     1 RMS=3.30D-11 Max=1.74D-09 NDo=     2
 LinEq1:  Iter= 69 NonCon=     0 RMS=1.85D-11 Max=9.37D-10 NDo=     1
 Linear equations converged to 1.000D-10 1.000D-09 after    69 iterations.
 FullF1:  Do perturbations    1 to     9.
 SCF Polarizability for W=    0.000000:
                1             2             3 
      1  0.139273D+03
      2 -0.160014D-03  0.110797D+03
      3  0.260084D-03  0.699745D-03  0.110797D+03
 Isotropic polarizability for W=    0.000000      120.29 Bohr**3.
 SCF Polarizability for W=    0.105471:
                1             2             3 
      1  0.154473D+03
      2 -0.183755D-03  0.116490D+03
      3  0.349246D-03  0.987110D-03  0.116490D+03
 Isotropic polarizability for W=    0.105471      129.15 Bohr**3.
 SCF Polarizability for W=    0.210941:
                1             2             3 
      1  0.326047D+03
      2 -0.313575D-03  0.131604D+03
      3  0.228636D-02 -0.666987D-02  0.131638D+03
 Isotropic polarizability for W=    0.210941      196.43 Bohr**3.
 SCF Static Hyperpolarizability:
 K=  1 block:
                1 
      1 -0.314718D+02
 K=  2 block:
                1             2 
      1  0.111086D+00
      2 -0.826714D+01 -0.245639D-01
 K=  3 block:
                1             2             3 
      1  0.266103D-01
      2 -0.213782D-02 -0.225345D-01
      3 -0.826616D+01 -0.412356D-01  0.479351D-01
 SCF Beta(-W,W;0) for W=    0.105471:
 K=  1 block:
                1             2             3 
      1 -0.513736D+02
      2  0.160416D+00 -0.129462D+02
      3  0.634204D-01 -0.358493D-02 -0.129442D+02
 K=  2 block:
                1             2             3 
      1  0.177838D+00
      2 -0.132306D+02 -0.536275D-01
      3 -0.537831D-02 -0.338304D-01 -0.645257D-01
 K=  3 block:
                1             2             3 
      1  0.561728D-01
      2 -0.196507D-02 -0.316803D-01
      3 -0.132286D+02 -0.647790D-01  0.479568D-01
 SCF Beta(W,W;-2W) for W=    0.105471:
 K=  1 block:
                1             2             3 
      1 -0.412510D+03
      2  0.139111D+01 -0.668851D+02
      3  0.565278D-01  0.284069D-01 -0.669121D+02
 K=  2 block:
                1             2             3 
      1  0.979482D+00
      2  0.304441D+02  0.260349D-01
      3 -0.184189D+00 -0.710243D-01 -0.650474D-01
 K=  3 block:
                1             2             3 
      1 -0.310364D+00
      2  0.260694D+00  0.239065D+00
      3  0.302274D+02 -0.436669D+00 -0.739193D-01
 SCF Beta(-W,W;0) for W=    0.210941:
 K=  1 block:
                1             2             3 
      1 -0.154423D+04
      2  0.910501D-01 -0.726082D+03
      3  0.372638D+00 -0.840903D+00 -0.722049D+03
 K=  2 block:
                1             2             3 
      1  0.125871D+01
      2 -0.285507D+03 -0.450225D+01
      3  0.523741D+00 -0.760207D+01  0.913984D+01
 K=  3 block:
                1             2             3 
      1  0.174530D+01
      2  0.106105D+00 -0.515806D+01
      3 -0.284921D+03  0.115746D+00  0.350137D+01
 End of Minotr F.D. properties on file   721 Mask=      31 NFrqRd=     2 NDeriv=     1 ND12= 1 LenFil=      94:
 Frequencies=    0.000000    0.105471
 Property number 1 -- Alpha(-w,w) frequency  1    0.000000:
                 1             2             3 
      1   0.139273D+03 -0.160014D-03  0.260084D-03
      2  -0.160014D-03  0.110797D+03  0.699745D-03
      3   0.260084D-03  0.699745D-03  0.110797D+03
 Property number 1 -- Alpha(-w,w) frequency  2    0.105471:
                 1             2             3 
      1   0.154473D+03 -0.183755D-03  0.349246D-03
      2  -0.183755D-03  0.116490D+03  0.987110D-03
      3   0.349246D-03  0.987110D-03  0.116490D+03
 Property number 5 -- Beta(-w,w,0) frequency  1    0.000000:
                 1 
      1  -0.314718D+02
      2   0.111086D+00
      3  -0.826714D+01
      4   0.266103D-01
      5  -0.213782D-02
      6  -0.826616D+01
      7   0.111086D+00
      8  -0.826714D+01
      9  -0.245639D-01
     10  -0.213782D-02
     11  -0.225345D-01
     12  -0.412356D-01
     13   0.266103D-01
     14  -0.213782D-02
     15  -0.225345D-01
     16  -0.826616D+01
     17  -0.412356D-01
     18   0.479351D-01
 Property number 5 -- Beta(-w,w,0) frequency  2    0.105471:
                 1 
      1  -0.513736D+02
      2   0.160416D+00
      3  -0.129462D+02
      4   0.634204D-01
      5  -0.358493D-02
      6  -0.129442D+02
      7   0.177838D+00
      8  -0.132306D+02
      9  -0.536275D-01
     10  -0.537831D-02
     11  -0.338304D-01
     12  -0.645257D-01
     13   0.561728D-01
     14  -0.196507D-02
     15  -0.316803D-01
     16  -0.132286D+02
     17  -0.647790D-01
     18   0.479568D-01
 Property number 6 -- Beta(w,w,-2w) frequency  1    0.000000:
                 1 
      1  -0.314718D+02
      2   0.111086D+00
      3  -0.826714D+01
      4   0.266103D-01
      5  -0.213782D-02
      6  -0.826616D+01
      7   0.111086D+00
      8  -0.826714D+01
      9  -0.245639D-01
     10  -0.213782D-02
     11  -0.225345D-01
     12  -0.412356D-01
     13   0.266103D-01
     14  -0.213782D-02
     15  -0.225345D-01
     16  -0.826616D+01
     17  -0.412356D-01
     18   0.479351D-01
 Property number 6 -- Beta(w,w,-2w) frequency  2    0.105471:
                 1 
      1  -0.412510D+03
      2   0.139111D+01
      3  -0.668851D+02
      4   0.565278D-01
      5   0.284069D-01
      6  -0.669121D+02
      7   0.979482D+00
      8   0.304441D+02
      9   0.260349D-01
     10  -0.184189D+00
     11  -0.710243D-01
     12  -0.650474D-01
     13  -0.310364D+00
     14   0.260694D+00
     15   0.239065D+00
     16   0.302274D+02
     17  -0.436669D+00
     18  -0.739193D-01
 End of Minotr F.D. properties file   722 does not exist.
 End of Minotr F.D. properties file   788 does not exist.
 Leave Link 1002 at Sun Apr 11 17:41:29 2021, MaxMem=  1048576000 cpu:     28106.5
 (Enter /usr/local/g09/l601.exe)
 Copying SCF densities to generalized density rwf, IOpCl= 0 IROHF=0.

 **********************************************************************

            Population analysis using the SCF density.

 **********************************************************************

 Alpha  occ. eigenvalues -- -256.33215 -30.10132 -25.93988 -25.92058 -25.92057
 Alpha  occ. eigenvalues --  -10.22871 -10.22840 -10.22839 -10.22779 -10.22779
 Alpha  occ. eigenvalues --  -10.22708 -10.22677 -10.22676 -10.22616 -10.22616
 Alpha  occ. eigenvalues --   -3.44961  -2.23693  -2.19176  -2.19176  -0.92207
 Alpha  occ. eigenvalues --   -0.90471  -0.73532  -0.73531  -0.73332  -0.73332
 Alpha  occ. eigenvalues --   -0.56420  -0.56419  -0.55497  -0.55496  -0.55483
 Alpha  occ. eigenvalues --   -0.54028  -0.43036  -0.42116  -0.42116  -0.41167
 Alpha  occ. eigenvalues --   -0.41166  -0.39339  -0.39339  -0.38801  -0.38801
 Alpha  occ. eigenvalues --   -0.37602  -0.28079  -0.28079  -0.26255  -0.26254
 Alpha  occ. eigenvalues --   -0.24482  -0.21459  -0.21458
 Alpha virt. eigenvalues --    0.00193   0.00194   0.01297   0.02707   0.02708
 Alpha virt. eigenvalues --    0.03476   0.04106   0.04108   0.04996   0.05748
 Alpha virt. eigenvalues --    0.05748   0.05750   0.05750   0.06277   0.06277
 Alpha virt. eigenvalues --    0.08972   0.09145   0.09145   0.09956   0.09957
 Alpha virt. eigenvalues --    0.11198   0.11203   0.13607   0.13608   0.13902
 Alpha virt. eigenvalues --    0.13903   0.14121   0.14581   0.14585   0.17293
 Alpha virt. eigenvalues --    0.17296   0.17965   0.17965   0.18290   0.18290
 Alpha virt. eigenvalues --    0.18338   0.19085   0.19088   0.19198   0.19200
 Alpha virt. eigenvalues --    0.19652   0.21034   0.21346   0.21859   0.21860
 Alpha virt. eigenvalues --    0.23286   0.23293   0.24051   0.24052   0.25330
 Alpha virt. eigenvalues --    0.26014   0.26677   0.26677   0.26825   0.26825
 Alpha virt. eigenvalues --    0.29117   0.29120   0.30699   0.31287   0.31288
 Alpha virt. eigenvalues --    0.34622   0.34623   0.35876   0.35883   0.38915
 Alpha virt. eigenvalues --    0.40200   0.40201   0.40676   0.40680   0.41913
 Alpha virt. eigenvalues --    0.41919   0.43761   0.44503   0.45689   0.48077
 Alpha virt. eigenvalues --    0.48345   0.52533   0.52536   0.55986   0.55989
 Alpha virt. eigenvalues --    0.56239   0.56240   0.58942   0.58946   0.61420
 Alpha virt. eigenvalues --    0.61422   0.61452   0.61529   0.61530   0.61941
 Alpha virt. eigenvalues --    0.64279   0.64282   0.64409   0.64410   0.65746
 Alpha virt. eigenvalues --    0.65746   0.67132   0.67134   0.69889   0.70241
 Alpha virt. eigenvalues --    0.70241   0.70351   0.70352   0.71989   0.71991
 Alpha virt. eigenvalues --    0.72257   0.72348   0.72352   0.73413   0.74526
 Alpha virt. eigenvalues --    0.74528   0.75763   0.78646   0.78647   0.82065
 Alpha virt. eigenvalues --    0.86790   0.86792   0.87177   0.87178   0.87546
 Alpha virt. eigenvalues --    0.88977   0.88989   0.97094   0.97550   0.98221
 Alpha virt. eigenvalues --    0.98239   1.01073   1.01073   1.02649   1.02654
 Alpha virt. eigenvalues --    1.09211   1.09217   1.09795   1.09796   1.12375
 Alpha virt. eigenvalues --    1.12375   1.16828   1.16831   1.19360   1.25625
 Alpha virt. eigenvalues --    1.25628   1.25684   1.27085   1.27090   1.27279
 Alpha virt. eigenvalues --    1.27279   1.28828   1.28831   1.30561   1.30567
 Alpha virt. eigenvalues --    1.33067   1.34069   1.34070   1.34466   1.39885
 Alpha virt. eigenvalues --    1.41843   1.41845   1.41995   1.41997   1.42242
 Alpha virt. eigenvalues --    1.42251   1.43441   1.43444   1.45704   1.46933
 Alpha virt. eigenvalues --    1.46935   1.49163   1.49165   1.49583   1.53893
 Alpha virt. eigenvalues --    1.55326   1.58597   1.58597   1.60054   1.60061
 Alpha virt. eigenvalues --    1.60398   1.60410   1.65083   1.65084   1.68967
 Alpha virt. eigenvalues --    1.78616   1.78616   1.81434   1.81434   1.95417
 Alpha virt. eigenvalues --    1.95417   2.01924   2.12540   2.12547   2.14026
 Alpha virt. eigenvalues --    2.14037   2.16250   2.16251   2.16758   2.16761
 Alpha virt. eigenvalues --    2.28290   2.28292   2.30834   2.32432   2.46384
 Alpha virt. eigenvalues --    2.46387   2.49320   2.51851   2.54559   2.54560
 Alpha virt. eigenvalues --    2.65327   2.65329   2.65627   2.65628   2.67424
 Alpha virt. eigenvalues --    2.72848   2.72852   2.73339   2.79908   2.82266
 Alpha virt. eigenvalues --    2.82267   2.84210   2.86043   2.86046   2.89164
 Alpha virt. eigenvalues --    2.89165   2.94284   2.94288   3.00974   3.00977
 Alpha virt. eigenvalues --    3.01398   3.01398   3.09395   3.09396   3.10193
 Alpha virt. eigenvalues --    3.10195   3.10709   3.10714   3.15560   3.20905
 Alpha virt. eigenvalues --    3.20913   3.22883   3.22884   3.23181   3.23183
 Alpha virt. eigenvalues --    3.25096   3.25097   3.35589   3.36913   3.36924
 Alpha virt. eigenvalues --    3.37007   3.43052   3.43052   3.44818   3.44822
 Alpha virt. eigenvalues --    3.48093   3.54280   3.54282   3.55528   3.55529
 Alpha virt. eigenvalues --    3.57488   3.57489   3.59899   3.59903   3.62595
 Alpha virt. eigenvalues --    3.62596   3.63418   3.64465   3.64490   3.64491
 Alpha virt. eigenvalues --    3.68047   3.68235   3.68738   3.68738   3.69250
 Alpha virt. eigenvalues --    3.69251   3.76837   3.76838   3.78025   3.78028
 Alpha virt. eigenvalues --    3.79144   3.79145   3.80435   3.80437   3.80438
 Alpha virt. eigenvalues --    3.81382   3.81885   3.81889   3.84040   3.85344
 Alpha virt. eigenvalues --    3.85345   3.86476   3.96178   3.96197   4.00126
 Alpha virt. eigenvalues --    4.00139   4.01058   4.06855   4.06856   4.10467
 Alpha virt. eigenvalues --    4.12956   4.12957   4.27592   4.27596   4.29613
 Alpha virt. eigenvalues --    4.29617   4.36549   4.56877   4.56877   4.61198
 Alpha virt. eigenvalues --    4.61206   4.74554   4.74557   4.75823   4.75826
 Alpha virt. eigenvalues --    4.85942   4.85943   4.87573   4.87574   5.07373
 Alpha virt. eigenvalues --    5.15135   5.15425  23.90685  24.01227  24.09376
 Alpha virt. eigenvalues --   24.09376  24.14520  24.14526  24.25966  24.25967
 Alpha virt. eigenvalues --   24.37779  24.37780
 Electronic spatial extent (au):  <R**2>=           1342.4567
 Charge=              0.0000 electrons
 Dipole moment (field-independent basis, Debye):
    X=              0.2360    Y=             -0.0003    Z=              0.0004  Tot=              0.2360
 Quadrupole moment (field-independent basis, Debye-Ang):
   XX=            -81.1167   YY=            -67.0488   ZZ=            -67.0500
   XY=             -0.0001   XZ=             -0.0002   YZ=              0.0003
 Traceless Quadrupole moment (field-independent basis, Debye-Ang):
   XX=             -9.3782   YY=              4.6897   ZZ=              4.6885
   XY=             -0.0001   XZ=             -0.0002   YZ=              0.0003
 Octapole moment (field-independent basis, Debye-Ang**2):
  XXX=              1.8949  YYY=              0.0004  ZZZ=              0.0002  XYY=              0.4921
  XXY=              0.0109  XXZ=             -0.0057  XZZ=              0.4935  YZZ=              0.0010
  YYZ=             -0.0006  XYZ=             -0.0007
 Hexadecapole moment (field-independent basis, Debye-Ang**3):
 XXXX=          -1183.1545 YYYY=           -378.6610 ZZZZ=           -378.6676 XXXY=             -0.0006
 XXXZ=             -0.0025 YYYX=              0.0000 YYYZ=             -0.0004 ZZZX=             -0.0012
 ZZZY=              0.0001 XXYY=           -239.1742 XXZZ=           -239.1753 YYZZ=           -126.2214
 XXYZ=             -0.0027 YYXZ=             -0.0003 ZZXY=             -0.0008
 N-N= 9.192345822002D+02 E-N=-5.744136498436D+03  KE= 1.646810471036D+03
  Exact polarizability: 139.273   0.000 110.797   0.000   0.001 110.797
 Approx polarizability: 217.006   0.000 182.960   0.000   0.000 182.961
 No NMR shielding tensors so no spin-rotation constants.
 Leave Link  601 at Sun Apr 11 17:41:30 2021, MaxMem=  1048576000 cpu:         7.7
 (Enter /usr/local/g09/l106.exe)
 NDeriv=   3 NFrqRd=  2 NDerD0=   0 MskFDP=      31 MskDFD=      31 MskDF0=       0
 Re-enter D2Numr: IAtom=  0 IXYZ=1 IStep= 4.
 Leave Link  106 at Sun Apr 11 17:41:30 2021, MaxMem=  1048576000 cpu:         4.5
 (Enter /usr/local/g09/l301.exe)
 Basis read from rwf:  (5D, 7F)
 Pseudo-potential data read from rwf file.
 The following finite field(s) will be applied:
 An electric field of              0.0000  0.0003  0.0000
   375 basis functions,   602 primitive gaussians,   402 cartesian basis functions
    48 alpha electrons       48 beta electrons
       nuclear repulsion energy       919.2345822002 Hartrees.
 IExCor= 1009 DFT=T Ex+Corr=PBE1PBE ExCW=0 ScaHFX=  0.250000
 ScaDFX=  0.750000  0.750000  1.000000  1.000000 ScalE2=  1.000000  1.000000
 IRadAn=      0 IRanWt=     -1 IRanGd=            0 ICorTp=0 IEmpDi=  4
 NAtoms=   21 NActive=   21 NUniq=   21 SFac= 1.00D+00 NAtFMM=   60 NAOKFM=F Big=F
 Integral buffers will be    131072 words long.
 Raffenetti 2 integral format.
 Two-electron integral symmetry is turned off.
 No density basis found on file   724.
 Leave Link  301 at Sun Apr 11 17:41:30 2021, MaxMem=  1048576000 cpu:         1.3
 (Enter /usr/local/g09/l302.exe)
 NPDir=0 NMtPBC=     1 NCelOv=     1 NCel=       1 NClECP=     1 NCelD=      1
         NCelK=      1 NCelE2=     1 NClLst=     1 CellRange=     0.0.
 One-electron integrals computed using PRISM.
   1 Symmetry operations used in ECPInt.
 ECPInt:  NShTT=    7875 NPrTT=   28235 LenC2=    7866 LenP2D=   21150.
 LDataN:  DoStor=T MaxTD1= 6 Len=  172
 NBasis=   375 RedAO= T EigKep=  3.67D-06  NBF=   375
 NBsUse=   375 1.00D-06 EigRej= -1.00D+00 NBFU=   375
 Precomputing XC quadrature grid using
 IXCGrd= 4 IRadAn=           0 IRanWt=          -1 IRanGd=           0 AccXCQ= 0.00D+00.
 Generated NRdTot=       0 NPtTot=           0 NUsed=           0 NTot=          32
 NSgBfM=   402   402   402   402   402 MxSgAt=    21 MxSgA2=    21.
 Leave Link  302 at Sun Apr 11 17:41:30 2021, MaxMem=  1048576000 cpu:         9.0
 (Enter /usr/local/g09/l303.exe)
 DipDrv:  MaxL=1.
 The nuclear repulsion energy is now       919.2345822002 hartrees.
 Leave Link  303 at Sun Apr 11 17:41:31 2021, MaxMem=  1048576000 cpu:         1.5
 (Enter /usr/local/g09/l401.exe)
 Initial guess from the checkpoint file:  "ferr_pbe0.chk"
 B after Tr=     0.000000    0.000000    0.000000
         Rot=    1.000000    0.000000    0.000000    0.000000 Ang=   0.00 deg.
 Guess basis will be translated and rotated to current coordinates.
 JPrj=2 DoOrth=T DoCkMO=T.
 Leave Link  401 at Sun Apr 11 17:41:31 2021, MaxMem=  1048576000 cpu:         9.7
 (Enter /usr/local/g09/l502.exe)
 Closed shell SCF:
 Using DIIS extrapolation, IDIIS=  1040.
 Two-electron integral symmetry not used.
 IVT=      515866 IEndB=      515866 NGot=  1048576000 MDV=  1048238781
 LenX=  1048238781 LenY=  1048076736
 Requested convergence on RMS density matrix=1.00D-10 within 128 cycles.
 Requested convergence on MAX density matrix=1.00D-08.
 Requested convergence on             energy=1.00D-08.
 No special actions if energy rises.
 Fock matrices will be formed incrementally for  20 cycles.

 Cycle   1  Pass 1  IDiag  1:
 FoFJK:  IHMeth= 1 ICntrl=       0 DoSepK=F KAlg= 0 I1Cent=   0 FoldK=F
 IRaf= 980000000 NMat=   1 IRICut=       1 DoRegI=T DoRafI=F ISym2E= 0.
 FoFCou: FMM=F IPFlag=           0 FMFlag=      100000 FMFlg1=           0
         NFxFlg=           0 DoJE=F BraDBF=F KetDBF=F FulRan=T
         wScrn=  0.000000 ICntrl=       0 IOpCl=  0 I1Cent=           0 NGrid=           0
         NMat0=    1 NMatS0=      1 NMatT0=    0 NMatD0=    1 NMtDS0=    0 NMtDT0=    0
 Symmetry not used in FoFCou.
 E= -1650.24294443694    
 DIIS: error= 1.34D-04 at cycle   1 NSaved=   1.
 NSaved= 1 IEnMin= 1 EnMin= -1650.24294443694     IErMin= 1 ErrMin= 1.34D-04
 ErrMax= 1.34D-04  0.00D+00 EMaxC= 1.00D-01 BMatC= 2.81D-06 BMatP= 2.81D-06
 IDIUse=3 WtCom= 9.99D-01 WtEn= 1.34D-03
 Coeff-Com:  0.100D+01
 Coeff-En:   0.100D+01
 Coeff:      0.100D+01
 Gap=     0.451 Goal=   None    Shift=    0.000
 RMSDP=1.66D-04 MaxDP=9.81D-03              OVMax= 1.34D-03

 Cycle   2  Pass 1  IDiag  1:
 RMSU=  1.66D-04    CP:  1.00D+00
 E= -1650.24294500082     Delta-E=       -0.000000563878 Rises=F Damp=F
 DIIS: error= 1.68D-04 at cycle   2 NSaved=   2.
 NSaved= 2 IEnMin= 2 EnMin= -1650.24294500082     IErMin= 1 ErrMin= 1.34D-04
 ErrMax= 1.68D-04  0.00D+00 EMaxC= 1.00D-01 BMatC= 5.05D-06 BMatP= 2.81D-06
 IDIUse=3 WtCom= 4.35D-01 WtEn= 5.65D-01
 Coeff-Com:  0.583D+00 0.417D+00
 Coeff-En:   0.471D+00 0.529D+00
 Coeff:      0.520D+00 0.480D+00
 Gap=     0.217 Goal=   None    Shift=    0.000
 RMSDP=8.23D-05 MaxDP=4.15D-03 DE=-5.64D-07 OVMax= 7.33D-04

 Cycle   3  Pass 1  IDiag  1:
 RMSU=  3.03D-05    CP:  1.00D+00  5.40D-01
 E= -1650.24294994210     Delta-E=       -0.000004941277 Rises=F Damp=F
 DIIS: error= 4.24D-05 at cycle   3 NSaved=   3.
 NSaved= 3 IEnMin= 3 EnMin= -1650.24294994210     IErMin= 3 ErrMin= 4.24D-05
 ErrMax= 4.24D-05  0.00D+00 EMaxC= 1.00D-01 BMatC= 7.44D-07 BMatP= 2.81D-06
 IDIUse=1 WtCom= 1.00D+00 WtEn= 0.00D+00
 Coeff-Com:  0.183D+00 0.283D+00 0.534D+00
 Coeff:      0.183D+00 0.283D+00 0.534D+00
 Gap=     0.217 Goal=   None    Shift=    0.000
 RMSDP=8.57D-06 MaxDP=5.12D-04 DE=-4.94D-06 OVMax= 1.61D-04

 Cycle   4  Pass 1  IDiag  1:
 RMSU=  3.75D-06    CP:  1.00D+00  5.82D-01  9.00D-01
 E= -1650.24295058966     Delta-E=       -0.000000647559 Rises=F Damp=F
 DIIS: error= 2.44D-06 at cycle   4 NSaved=   4.
 NSaved= 4 IEnMin= 4 EnMin= -1650.24295058966     IErMin= 4 ErrMin= 2.44D-06
 ErrMax= 2.44D-06  0.00D+00 EMaxC= 1.00D-01 BMatC= 2.85D-09 BMatP= 7.44D-07
 IDIUse=1 WtCom= 1.00D+00 WtEn= 0.00D+00
 Coeff-Com:  0.911D-02 0.281D-01 0.795D-01 0.883D+00
 Coeff:      0.911D-02 0.281D-01 0.795D-01 0.883D+00
 Gap=     0.217 Goal=   None    Shift=    0.000
 RMSDP=1.14D-06 MaxDP=4.60D-05 DE=-6.48D-07 OVMax= 1.97D-05

 Cycle   5  Pass 1  IDiag  1:
 RMSU=  8.32D-07    CP:  1.00D+00  5.87D-01  9.07D-01  9.54D-01
 E= -1650.24295058983     Delta-E=       -0.000000000174 Rises=F Damp=F
 DIIS: error= 5.65D-06 at cycle   5 NSaved=   5.
 NSaved= 5 IEnMin= 5 EnMin= -1650.24295058983     IErMin= 4 ErrMin= 2.44D-06
 ErrMax= 5.65D-06  0.00D+00 EMaxC= 1.00D-01 BMatC= 4.63D-09 BMatP= 2.85D-09
 IDIUse=1 WtCom= 1.00D+00 WtEn= 0.00D+00
 Coeff-Com:  0.302D-02 0.148D-01 0.433D-01 0.611D+00 0.328D+00
 Coeff:      0.302D-02 0.148D-01 0.433D-01 0.611D+00 0.328D+00
 Gap=     0.217 Goal=   None    Shift=    0.000
 RMSDP=4.87D-07 MaxDP=2.61D-05 DE=-1.74D-10 OVMax= 2.29D-05

 Cycle   6  Pass 1  IDiag  1:
 RMSU=  4.38D-07    CP:  1.00D+00  5.87D-01  9.10D-01  9.66D-01  8.48D-01
 E= -1650.24295058859     Delta-E=        0.000000001236 Rises=F Damp=F
 DIIS: error= 7.52D-06 at cycle   6 NSaved=   6.
 NSaved= 6 IEnMin= 5 EnMin= -1650.24295058983     IErMin= 4 ErrMin= 2.44D-06
 ErrMax= 7.52D-06  0.00D+00 EMaxC= 1.00D-01 BMatC= 7.69D-09 BMatP= 2.85D-09
 IDIUse=1 WtCom= 1.00D+00 WtEn= 0.00D+00
 Coeff-Com: -0.216D-02 0.649D-03 0.834D-03 0.186D+00 0.478D+00 0.336D+00
 Coeff:     -0.216D-02 0.649D-03 0.834D-03 0.186D+00 0.478D+00 0.336D+00
 Gap=     0.217 Goal=   None    Shift=    0.000
 RMSDP=3.22D-07 MaxDP=1.94D-05 DE= 1.24D-09 OVMax= 1.48D-05

 Cycle   7  Pass 1  IDiag  1:
 RMSU=  9.49D-08    CP:  1.00D+00  5.86D-01  9.13D-01  9.82D-01  9.01D-01
                    CP:  4.27D-01
 E= -1650.24295059220     Delta-E=       -0.000000003604 Rises=F Damp=F
 DIIS: error= 3.03D-07 at cycle   7 NSaved=   7.
 NSaved= 7 IEnMin= 7 EnMin= -1650.24295059220     IErMin= 7 ErrMin= 3.03D-07
 ErrMax= 3.03D-07  0.00D+00 EMaxC= 1.00D-01 BMatC= 1.39D-11 BMatP= 2.85D-09
 IDIUse=1 WtCom= 1.00D+00 WtEn= 0.00D+00
 Coeff-Com: -0.394D-03-0.307D-03-0.895D-03 0.279D-02 0.104D+00 0.924D-01
 Coeff-Com:  0.802D+00
 Coeff:     -0.394D-03-0.307D-03-0.895D-03 0.279D-02 0.104D+00 0.924D-01
 Coeff:      0.802D+00
 Gap=     0.217 Goal=   None    Shift=    0.000
 RMSDP=8.41D-08 MaxDP=4.05D-06 DE=-3.60D-09 OVMax= 1.69D-06

 Cycle   8  Pass 1  IDiag  1:
 RMSU=  2.36D-08    CP:  1.00D+00  5.86D-01  9.12D-01  9.81D-01  9.31D-01
                    CP:  4.58D-01  9.99D-01
 E= -1650.24295059225     Delta-E=       -0.000000000054 Rises=F Damp=F
 DIIS: error= 5.45D-08 at cycle   8 NSaved=   8.
 NSaved= 8 IEnMin= 8 EnMin= -1650.24295059225     IErMin= 8 ErrMin= 5.45D-08
 ErrMax= 5.45D-08  0.00D+00 EMaxC= 1.00D-01 BMatC= 2.74D-13 BMatP= 1.39D-11
 IDIUse=1 WtCom= 1.00D+00 WtEn= 0.00D+00
 Coeff-Com:  0.349D-04-0.134D-03 0.712D-04-0.656D-02-0.189D-01-0.141D-01
 Coeff-Com: -0.182D-01 0.106D+01
 Coeff:      0.349D-04-0.134D-03 0.712D-04-0.656D-02-0.189D-01-0.141D-01
 Coeff:     -0.182D-01 0.106D+01
 Gap=     0.217 Goal=   None    Shift=    0.000
 RMSDP=1.32D-08 MaxDP=6.43D-07 DE=-5.37D-11 OVMax= 8.31D-07

 Cycle   9  Pass 1  IDiag  1:
 RMSU=  6.08D-09    CP:  1.00D+00  5.86D-01  9.12D-01  9.81D-01  9.37D-01
                    CP:  4.60D-01  1.07D+00  1.27D+00
 E= -1650.24295059224     Delta-E=        0.000000000011 Rises=F Damp=F
 DIIS: error= 1.78D-08 at cycle   9 NSaved=   9.
 NSaved= 9 IEnMin= 8 EnMin= -1650.24295059225     IErMin= 9 ErrMin= 1.78D-08
 ErrMax= 1.78D-08  0.00D+00 EMaxC= 1.00D-01 BMatC= 3.38D-14 BMatP= 2.74D-13
 IDIUse=1 WtCom= 1.00D+00 WtEn= 0.00D+00
 Coeff-Com:  0.274D-04-0.204D-04 0.967D-04-0.725D-03-0.852D-02-0.678D-02
 Coeff-Com: -0.504D-01 0.108D+00 0.959D+00
 Coeff:      0.274D-04-0.204D-04 0.967D-04-0.725D-03-0.852D-02-0.678D-02
 Coeff:     -0.504D-01 0.108D+00 0.959D+00
 Gap=     0.217 Goal=   None    Shift=    0.000
 RMSDP=5.33D-09 MaxDP=2.97D-07 DE= 1.09D-11 OVMax= 2.45D-07

 Cycle  10  Pass 1  IDiag  1:
 RMSU=  3.09D-09    CP:  1.00D+00  5.86D-01  9.12D-01  9.80D-01  9.37D-01
                    CP:  4.65D-01  1.08D+00  1.39D+00  9.55D-01
 E= -1650.24295059219     Delta-E=        0.000000000052 Rises=F Damp=F
 DIIS: error= 8.72D-09 at cycle  10 NSaved=  10.
 NSaved=10 IEnMin= 8 EnMin= -1650.24295059225     IErMin=10 ErrMin= 8.72D-09
 ErrMax= 8.72D-09  0.00D+00 EMaxC= 1.00D-01 BMatC= 1.59D-14 BMatP= 3.38D-14
 IDIUse=1 WtCom= 1.00D+00 WtEn= 0.00D+00
 Coeff-Com:  0.102D-04 0.423D-05 0.454D-04 0.447D-03-0.204D-02-0.208D-02
 Coeff-Com: -0.246D-01-0.755D-01 0.510D+00 0.594D+00
 Coeff:      0.102D-04 0.423D-05 0.454D-04 0.447D-03-0.204D-02-0.208D-02
 Coeff:     -0.246D-01-0.755D-01 0.510D+00 0.594D+00
 Gap=     0.217 Goal=   None    Shift=    0.000
 RMSDP=2.26D-09 MaxDP=1.39D-07 DE= 5.18D-11 OVMax= 6.26D-08

 Cycle  11  Pass 1  IDiag  1:
 RMSU=  4.23D-10    CP:  1.00D+00  5.86D-01  9.12D-01  9.80D-01  9.38D-01
                    CP:  4.63D-01  1.08D+00  1.41D+00  1.14D+00  6.18D-01
 E= -1650.24295059220     Delta-E=       -0.000000000013 Rises=F Damp=F
 DIIS: error= 9.41D-10 at cycle  11 NSaved=  11.
 NSaved=11 IEnMin= 8 EnMin= -1650.24295059225     IErMin=11 ErrMin= 9.41D-10
 ErrMax= 9.41D-10  0.00D+00 EMaxC= 1.00D-01 BMatC= 1.59D-16 BMatP= 1.59D-14
 IDIUse=1 WtCom= 1.00D+00 WtEn= 0.00D+00
 Coeff-Com: -0.680D-06 0.254D-05-0.115D-05 0.114D-03 0.272D-03 0.207D-03
 Coeff-Com: -0.180D-03-0.183D-01 0.109D-01 0.901D-01 0.917D+00
 Coeff:     -0.680D-06 0.254D-05-0.115D-05 0.114D-03 0.272D-03 0.207D-03
 Coeff:     -0.180D-03-0.183D-01 0.109D-01 0.901D-01 0.917D+00
 Gap=     0.217 Goal=   None    Shift=    0.000
 RMSDP=4.91D-10 MaxDP=3.19D-08 DE=-1.27D-11 OVMax= 1.12D-08

 Cycle  12  Pass 1  IDiag  1:
 RMSU=  1.43D-10    CP:  1.00D+00  5.86D-01  9.12D-01  9.80D-01  9.38D-01
                    CP:  4.63D-01  1.08D+00  1.41D+00  1.15D+00  6.62D-01
                    CP:  9.12D-01
 E= -1650.24295059224     Delta-E=       -0.000000000041 Rises=F Damp=F
 DIIS: error= 2.99D-10 at cycle  12 NSaved=  12.
 NSaved=12 IEnMin= 8 EnMin= -1650.24295059225     IErMin=12 ErrMin= 2.99D-10
 ErrMax= 2.99D-10  0.00D+00 EMaxC= 1.00D-01 BMatC= 2.58D-17 BMatP= 1.59D-16
 IDIUse=1 WtCom= 1.00D+00 WtEn= 0.00D+00
 Coeff-Com: -0.494D-06 0.119D-05-0.141D-05 0.449D-04 0.173D-03 0.133D-03
 Coeff-Com:  0.495D-03-0.709D-02-0.653D-02 0.296D-01 0.438D+00 0.545D+00
 Coeff:     -0.494D-06 0.119D-05-0.141D-05 0.449D-04 0.173D-03 0.133D-03
 Coeff:      0.495D-03-0.709D-02-0.653D-02 0.296D-01 0.438D+00 0.545D+00
 Gap=     0.217 Goal=   None    Shift=    0.000
 RMSDP=1.28D-10 MaxDP=6.46D-09 DE=-4.14D-11 OVMax= 1.56D-09

 Cycle  13  Pass 1  IDiag  1:
 RMSU=  4.45D-11    CP:  1.00D+00  5.86D-01  9.12D-01  9.80D-01  9.38D-01
                    CP:  4.63D-01  1.08D+00  1.41D+00  1.15D+00  6.62D-01
                    CP:  9.88D-01  1.95D-01
 E= -1650.24295059219     Delta-E=        0.000000000053 Rises=F Damp=F
 DIIS: error= 1.25D-10 at cycle  13 NSaved=  13.
 NSaved=13 IEnMin= 8 EnMin= -1650.24295059225     IErMin=13 ErrMin= 1.25D-10
 ErrMax= 1.25D-10  0.00D+00 EMaxC= 1.00D-01 BMatC= 4.79D-18 BMatP= 2.58D-17
 IDIUse=1 WtCom= 1.00D+00 WtEn= 0.00D+00
 Coeff-Com: -0.162D-06 0.316D-06-0.659D-06 0.762D-05 0.551D-04 0.430D-04
 Coeff-Com:  0.345D-03-0.112D-02-0.607D-02 0.213D-02 0.106D+00 0.328D+00
 Coeff-Com:  0.570D+00
 Coeff:     -0.162D-06 0.316D-06-0.659D-06 0.762D-05 0.551D-04 0.430D-04
 Coeff:      0.345D-03-0.112D-02-0.607D-02 0.213D-02 0.106D+00 0.328D+00
 Coeff:      0.570D+00
 Gap=     0.217 Goal=   None    Shift=    0.000
 RMSDP=4.82D-11 MaxDP=2.56D-09 DE= 5.32D-11 OVMax= 5.19D-10

 SCF Done:  E(RPBE1PBE) =  -1650.24295059     A.U. after   13 cycles
            NFock= 13  Conv=0.48D-10     -V/T= 2.0021
 KE= 1.646810491345D+03 PE=-5.744136693175D+03 EE= 1.527848669038D+03
 Leave Link  502 at Sun Apr 11 17:42:22 2021, MaxMem=  1048576000 cpu:      1270.2
 (Enter /usr/local/g09/l801.exe)
 DoSCS=F DFT=T ScalE2(SS,OS)=  1.000000  1.000000
 Range of M.O.s used for correlation:     1   375
 NBasis=   375 NAE=    48 NBE=    48 NFC=     0 NFV=     0
 NROrb=    375 NOA=    48 NOB=    48 NVA=   327 NVB=   327

 **** Warning!!: The largest alpha MO coefficient is  0.11629554D+03

 Leave Link  801 at Sun Apr 11 17:42:22 2021, MaxMem=  1048576000 cpu:         0.9
 (Enter /usr/local/g09/l1002.exe)
 Minotr:  Closed shell wavefunction.
          Direct CPHF calculation.
          Differentiating once with respect to electric field.
                with respect to dipole field.
          Electric field/nuclear overlap derivatives assumed to be zero.
          Requested convergence is 1.0D-10 RMS, and 1.0D-09 maximum.
          NewPWx=F KeepS1=T KeepF1=T KeepIn=T MapXYZ=F SortEE=F KeepMc=T.
          MDV=    1048575453 using IRadAn=       1.
 Generate precomputed XC quadrature information.
          Solving linear equations separately, MaxMat=       0.
          Doing perturbations at frequencies    0.000000    0.105471    0.210941
          There are     9 degrees of freedom in the 1st order CPHF.  IDoFFX=0 NUNeed=     9.
 LinEq1:  Iter=  0 NonCon=     9 RMS=2.92D-01 Max=3.06D+01 NDo=     9
 AX will form     9 AO Fock derivatives at one time.
 FoFJK:  IHMeth= 1 ICntrl=       0 DoSepK=F KAlg= 0 I1Cent=   0 FoldK=F
 IRaf= 980000000 NMat=  18 IRICut=      22 DoRegI=T DoRafI=T ISym2E= 0.
 FoFCou: FMM=F IPFlag=           0 FMFlag=      100000 FMFlg1=           0
         NFxFlg=           0 DoJE=F BraDBF=F KetDBF=F FulRan=T
         wScrn=  0.000000 ICntrl=       0 IOpCl=  0 I1Cent=           0 NGrid=           0
         NMat0=   18 NMatS0=      9 NMatT0=    0 NMatD0=   18 NMtDS0=    0 NMtDT0=    0
 Symmetry not used in FoFCou.
 LinEq1:  Iter=  1 NonCon=     9 RMS=1.70D-01 Max=6.60D+00 NDo=     9
 LinEq1:  Iter=  2 NonCon=     9 RMS=5.95D-01 Max=7.45D+01 NDo=     9
 LinEq1:  Iter=  3 NonCon=     9 RMS=1.91D+00 Max=8.17D+01 NDo=     9
 LinEq1:  Iter=  4 NonCon=     9 RMS=3.75D+00 Max=4.67D+02 NDo=     9
 LinEq1:  Iter=  5 NonCon=     9 RMS=2.45D+01 Max=1.61D+03 NDo=     9
 LinEq1:  Iter=  6 NonCon=     9 RMS=1.11D+02 Max=1.11D+04 NDo=     9
 LinEq1:  Iter=  7 NonCon=     9 RMS=1.26D+02 Max=1.73D+04 NDo=     9
 LinEq1:  Iter=  8 NonCon=     9 RMS=1.35D+02 Max=1.68D+04 NDo=     9
 LinEq1:  Iter=  9 NonCon=     9 RMS=9.70D+02 Max=1.12D+05 NDo=     9
 LinEq1:  Iter= 10 NonCon=     9 RMS=2.39D+03 Max=1.09D+05 NDo=     9
 LinEq1:  Iter= 11 NonCon=     9 RMS=2.84D+03 Max=3.46D+05 NDo=     9
 LinEq1:  Iter= 12 NonCon=     9 RMS=1.26D+04 Max=4.25D+05 NDo=     9
 LinEq1:  Iter= 13 NonCon=     9 RMS=1.21D+04 Max=8.62D+05 NDo=     9
 LinEq1:  Iter= 14 NonCon=     9 RMS=1.82D+04 Max=1.15D+06 NDo=     9
 LinEq1:  Iter= 15 NonCon=     9 RMS=2.13D+04 Max=1.74D+06 NDo=     9
 LinEq1:  Iter= 16 NonCon=     9 RMS=2.08D+04 Max=1.09D+06 NDo=     9
 LinEq1:  Iter= 17 NonCon=     9 RMS=1.72D+04 Max=1.51D+06 NDo=     9
 LinEq1:  Iter= 18 NonCon=     9 RMS=1.96D+04 Max=2.56D+06 NDo=     9
 LinEq1:  Iter= 19 NonCon=     9 RMS=2.96D+04 Max=2.09D+06 NDo=     9
 LinEq1:  Iter= 20 NonCon=     9 RMS=1.84D+04 Max=1.19D+06 NDo=     9
 LinEq1:  Iter= 21 NonCon=     9 RMS=1.36D+04 Max=8.53D+05 NDo=     9
 LinEq1:  Iter= 22 NonCon=     9 RMS=1.33D+04 Max=1.51D+06 NDo=     9
 LinEq1:  Iter= 23 NonCon=     9 RMS=2.22D+04 Max=2.34D+06 NDo=     9
 LinEq1:  Iter= 24 NonCon=     9 RMS=2.08D+04 Max=1.20D+06 NDo=     9
 LinEq1:  Iter= 25 NonCon=     8 RMS=1.56D+04 Max=5.05D+05 NDo=     9
 LinEq1:  Iter= 26 NonCon=     6 RMS=7.58D+03 Max=4.80D+05 NDo=     8
 LinEq1:  Iter= 27 NonCon=     6 RMS=6.55D+03 Max=4.31D+05 NDo=     6
 LinEq1:  Iter= 28 NonCon=     6 RMS=3.38D+03 Max=2.25D+05 NDo=     6
 LinEq1:  Iter= 29 NonCon=     6 RMS=1.15D+03 Max=6.30D+04 NDo=     6
 LinEq1:  Iter= 30 NonCon=     6 RMS=6.20D+02 Max=3.51D+04 NDo=     6
 LinEq1:  Iter= 31 NonCon=     6 RMS=3.02D+02 Max=1.59D+04 NDo=     6
 LinEq1:  Iter= 32 NonCon=     6 RMS=2.51D+02 Max=1.26D+04 NDo=     6
 LinEq1:  Iter= 33 NonCon=     4 RMS=1.12D+02 Max=5.71D+03 NDo=     6
 LinEq1:  Iter= 34 NonCon=     3 RMS=5.01D+01 Max=3.48D+03 NDo=     4
 LinEq1:  Iter= 35 NonCon=     3 RMS=3.58D+01 Max=2.38D+03 NDo=     3
 LinEq1:  Iter= 36 NonCon=     3 RMS=1.69D+01 Max=1.11D+03 NDo=     3
 LinEq1:  Iter= 37 NonCon=     3 RMS=1.20D+01 Max=5.00D+02 NDo=     3
 LinEq1:  Iter= 38 NonCon=     3 RMS=9.01D+00 Max=4.51D+02 NDo=     3
 LinEq1:  Iter= 39 NonCon=     3 RMS=2.92D+00 Max=1.69D+02 NDo=     3
 LinEq1:  Iter= 40 NonCon=     3 RMS=2.36D+00 Max=1.29D+02 NDo=     3
 LinEq1:  Iter= 41 NonCon=     3 RMS=1.98D+00 Max=1.16D+02 NDo=     3
 LinEq1:  Iter= 42 NonCon=     3 RMS=8.84D-01 Max=4.24D+01 NDo=     3
 LinEq1:  Iter= 43 NonCon=     3 RMS=2.97D-01 Max=1.73D+01 NDo=     3
 LinEq1:  Iter= 44 NonCon=     3 RMS=1.66D-01 Max=1.01D+01 NDo=     3
 LinEq1:  Iter= 45 NonCon=     3 RMS=8.59D-02 Max=3.93D+00 NDo=     3
 LinEq1:  Iter= 46 NonCon=     3 RMS=3.21D-02 Max=2.01D+00 NDo=     3
 LinEq1:  Iter= 47 NonCon=     3 RMS=1.21D-02 Max=8.76D-01 NDo=     3
 LinEq1:  Iter= 48 NonCon=     3 RMS=6.61D-03 Max=3.12D-01 NDo=     3
 LinEq1:  Iter= 49 NonCon=     3 RMS=5.69D-03 Max=3.20D-01 NDo=     3
 LinEq1:  Iter= 50 NonCon=     3 RMS=2.16D-03 Max=1.60D-01 NDo=     3
 LinEq1:  Iter= 51 NonCon=     3 RMS=7.09D-04 Max=2.30D-02 NDo=     3
 LinEq1:  Iter= 52 NonCon=     3 RMS=3.00D-04 Max=1.30D-02 NDo=     3
 LinEq1:  Iter= 53 NonCon=     3 RMS=1.00D-04 Max=6.78D-03 NDo=     3
 LinEq1:  Iter= 54 NonCon=     3 RMS=3.61D-05 Max=2.30D-03 NDo=     3
 LinEq1:  Iter= 55 NonCon=     3 RMS=1.49D-05 Max=6.55D-04 NDo=     3
 LinEq1:  Iter= 56 NonCon=     3 RMS=5.85D-06 Max=3.16D-04 NDo=     3
 LinEq1:  Iter= 57 NonCon=     3 RMS=1.61D-06 Max=7.96D-05 NDo=     3
 LinEq1:  Iter= 58 NonCon=     3 RMS=6.87D-07 Max=2.77D-05 NDo=     3
 LinEq1:  Iter= 59 NonCon=     3 RMS=2.84D-07 Max=1.86D-05 NDo=     3
 LinEq1:  Iter= 60 NonCon=     3 RMS=7.16D-08 Max=3.06D-06 NDo=     3
 LinEq1:  Iter= 61 NonCon=     3 RMS=2.65D-08 Max=1.79D-06 NDo=     3
 LinEq1:  Iter= 62 NonCon=     3 RMS=1.39D-08 Max=6.60D-07 NDo=     3
 LinEq1:  Iter= 63 NonCon=     3 RMS=3.68D-09 Max=3.00D-07 NDo=     3
 LinEq1:  Iter= 64 NonCon=     3 RMS=1.65D-09 Max=1.17D-07 NDo=     3
 LinEq1:  Iter= 65 NonCon=     3 RMS=6.76D-10 Max=2.84D-08 NDo=     3
 LinEq1:  Iter= 66 NonCon=     3 RMS=1.95D-10 Max=1.19D-08 NDo=     3
 LinEq1:  Iter= 67 NonCon=     2 RMS=1.15D-10 Max=6.21D-09 NDo=     3
 LinEq1:  Iter= 68 NonCon=     1 RMS=4.26D-11 Max=1.44D-09 NDo=     2
 LinEq1:  Iter= 69 NonCon=     0 RMS=1.23D-11 Max=8.35D-10 NDo=     1
 Linear equations converged to 1.000D-10 1.000D-09 after    69 iterations.
 FullF1:  Do perturbations    1 to     9.
 SCF Polarizability for W=    0.000000:
                1             2             3 
      1  0.139263D+03
      2 -0.101348D-03  0.110795D+03
      3  0.272649D-03  0.695306D-03  0.110795D+03
 Isotropic polarizability for W=    0.000000      120.28 Bohr**3.
 SCF Polarizability for W=    0.105471:
                1             2             3 
      1  0.154457D+03
      2 -0.111706D-03  0.116487D+03
      3  0.375175D-03  0.981979D-03  0.116486D+03
 Isotropic polarizability for W=    0.105471      129.14 Bohr**3.
 SCF Polarizability for W=    0.210941:
                1             2             3 
      1  0.325575D+03
      2 -0.646119D-03  0.131397D+03
      3  0.253496D-02 -0.138838D-01  0.131423D+03
 Isotropic polarizability for W=    0.210941      196.13 Bohr**3.
 SCF Static Hyperpolarizability:
 K=  1 block:
                1 
      1  0.315130D-02
 K=  2 block:
                1             2 
      1  0.424218D+01
      2 -0.195432D-04  0.544710D+01
 K=  3 block:
                1             2             3 
      1  0.271817D-01
      2 -0.144219D-02 -0.214977D-01
      3  0.840096D-03  0.178006D+01  0.468483D-01
 SCF Beta(-W,W;0) for W=    0.105471:
 K=  1 block:
                1             2             3 
      1  0.456615D-02
      2  0.676378D+01 -0.662527D-03
      3  0.643514D-01 -0.235015D-02  0.124416D-02
 K=  2 block:
                1             2             3 
      1  0.737498D+01
      2 -0.280403D-03  0.782093D+01
      3 -0.422160D-02 -0.316671D-01  0.256447D+01
 K=  3 block:
                1             2             3 
      1  0.571122D-01
      2 -0.828369D-03 -0.295281D-01
      3  0.152408D-02  0.255091D+01  0.462658D-01
 SCF Beta(W,W;-2W) for W=    0.105471:
 K=  1 block:
                1             2             3 
      1  0.379570D-01
      2  0.365912D+02  0.168284D-01
      3  0.367813D-01 -0.376278D-02  0.241756D-02
 K=  2 block:
                1             2             3 
      1  0.802914D+01
      2 -0.102074D-01  0.139478D+02
      3 -0.240249D+00  0.571396D+00 -0.267294D+02
 K=  3 block:
                1             2             3 
      1 -0.350143D+00
      2  0.208262D+00  0.877735D+00
      3  0.758205D-02  0.176568D+02 -0.813818D+00
 SCF Beta(-W,W;0) for W=    0.210941:
 K=  1 block:
                1             2             3 
      1  0.101648D+00
      2  0.144065D+03  0.199365D+00
      3  0.377732D+00  0.242517D+00 -0.235902D+00
 K=  2 block:
                1             2             3 
      1  0.217877D+03
      2  0.201443D+00  0.234941D+03
      3  0.311170D+00 -0.468276D+02  0.213874D+03
 K=  3 block:
                1             2             3 
      1  0.167169D+01
      2 -0.876672D-01 -0.428387D+02
      3 -0.233854D+00  0.153400D+03  0.463116D+02
 End of Minotr F.D. properties on file   721 Mask=      31 NFrqRd=     2 NDeriv=     1 ND12= 1 LenFil=      94:
 Frequencies=    0.000000    0.105471
 Property number 1 -- Alpha(-w,w) frequency  1    0.000000:
                 1             2             3 
      1   0.139263D+03 -0.101348D-03  0.272649D-03
      2  -0.101348D-03  0.110795D+03  0.695306D-03
      3   0.272649D-03  0.695306D-03  0.110795D+03
 Property number 1 -- Alpha(-w,w) frequency  2    0.105471:
                 1             2             3 
      1   0.154457D+03 -0.111706D-03  0.375175D-03
      2  -0.111706D-03  0.116487D+03  0.981979D-03
      3   0.375175D-03  0.981979D-03  0.116486D+03
 Property number 5 -- Beta(-w,w,0) frequency  1    0.000000:
                 1 
      1   0.315130D-02
      2   0.424218D+01
      3  -0.195432D-04
      4   0.271817D-01
      5  -0.144219D-02
      6   0.840096D-03
      7   0.424218D+01
      8  -0.195432D-04
      9   0.544710D+01
     10  -0.144219D-02
     11  -0.214977D-01
     12   0.178006D+01
     13   0.271817D-01
     14  -0.144219D-02
     15  -0.214977D-01
     16   0.840096D-03
     17   0.178006D+01
     18   0.468483D-01
 Property number 5 -- Beta(-w,w,0) frequency  2    0.105471:
                 1 
      1   0.456615D-02
      2   0.676378D+01
      3  -0.662527D-03
      4   0.643514D-01
      5  -0.235015D-02
      6   0.124416D-02
      7   0.737498D+01
      8  -0.280403D-03
      9   0.782093D+01
     10  -0.422160D-02
     11  -0.316671D-01
     12   0.256447D+01
     13   0.571122D-01
     14  -0.828369D-03
     15  -0.295281D-01
     16   0.152408D-02
     17   0.255091D+01
     18   0.462658D-01
 Property number 6 -- Beta(w,w,-2w) frequency  1    0.000000:
                 1 
      1   0.315130D-02
      2   0.424218D+01
      3  -0.195432D-04
      4   0.271817D-01
      5  -0.144219D-02
      6   0.840096D-03
      7   0.424218D+01
      8  -0.195432D-04
      9   0.544710D+01
     10  -0.144219D-02
     11  -0.214977D-01
     12   0.178006D+01
     13   0.271817D-01
     14  -0.144219D-02
     15  -0.214977D-01
     16   0.840096D-03
     17   0.178006D+01
     18   0.468483D-01
 Property number 6 -- Beta(w,w,-2w) frequency  2    0.105471:
                 1 
      1   0.379570D-01
      2   0.365912D+02
      3   0.168284D-01
      4   0.367813D-01
      5  -0.376278D-02
      6   0.241756D-02
      7   0.802914D+01
      8  -0.102074D-01
      9   0.139478D+02
     10  -0.240249D+00
     11   0.571396D+00
     12  -0.267294D+02
     13  -0.350143D+00
     14   0.208262D+00
     15   0.877735D+00
     16   0.758205D-02
     17   0.176568D+02
     18  -0.813818D+00
 End of Minotr F.D. properties file   722 does not exist.
 End of Minotr F.D. properties file   788 does not exist.
 Leave Link 1002 at Sun Apr 11 18:01:10 2021, MaxMem=  1048576000 cpu:     28196.2
 (Enter /usr/local/g09/l601.exe)
 Copying SCF densities to generalized density rwf, IOpCl= 0 IROHF=0.

 **********************************************************************

            Population analysis using the SCF density.

 **********************************************************************

 Alpha  occ. eigenvalues -- -256.33215 -30.10131 -25.93988 -25.92057 -25.92057
 Alpha  occ. eigenvalues --  -10.22797 -10.22797 -10.22760 -10.22759 -10.22753
 Alpha  occ. eigenvalues --  -10.22753 -10.22707 -10.22706 -10.22684 -10.22683
 Alpha  occ. eigenvalues --   -3.44961  -2.23693  -2.19175  -2.19175  -0.92203
 Alpha  occ. eigenvalues --   -0.90474  -0.73481  -0.73481  -0.73382  -0.73382
 Alpha  occ. eigenvalues --   -0.56419  -0.56400  -0.55516  -0.55496  -0.55477
 Alpha  occ. eigenvalues --   -0.54034  -0.43035  -0.42107  -0.42106  -0.41176
 Alpha  occ. eigenvalues --   -0.41175  -0.39327  -0.39318  -0.38820  -0.38814
 Alpha  occ. eigenvalues --   -0.37604  -0.28076  -0.28076  -0.26258  -0.26257
 Alpha  occ. eigenvalues --   -0.24481  -0.21460  -0.21458
 Alpha virt. eigenvalues --    0.00196   0.00196   0.01311   0.02712   0.02724
 Alpha virt. eigenvalues --    0.03492   0.04108   0.04140   0.04970   0.05695
 Alpha virt. eigenvalues --    0.05701   0.05835   0.05855   0.06204   0.06241
 Alpha virt. eigenvalues --    0.08954   0.09134   0.09153   0.09964   0.09969
 Alpha virt. eigenvalues --    0.11208   0.11214   0.13593   0.13599   0.13913
 Alpha virt. eigenvalues --    0.13914   0.14125   0.14562   0.14565   0.17308
 Alpha virt. eigenvalues --    0.17379   0.17958   0.17960   0.18225   0.18258
 Alpha virt. eigenvalues --    0.18343   0.19065   0.19069   0.19224   0.19258
 Alpha virt. eigenvalues --    0.19650   0.21032   0.21357   0.21847   0.21852
 Alpha virt. eigenvalues --    0.23258   0.23302   0.24054   0.24055   0.25318
 Alpha virt. eigenvalues --    0.26002   0.26738   0.26741   0.26760   0.26761
 Alpha virt. eigenvalues --    0.29097   0.29153   0.30697   0.31269   0.31293
 Alpha virt. eigenvalues --    0.34623   0.34623   0.35877   0.35888   0.38917
 Alpha virt. eigenvalues --    0.40184   0.40213   0.40676   0.40680   0.41907
 Alpha virt. eigenvalues --    0.41923   0.43762   0.44514   0.45679   0.48075
 Alpha virt. eigenvalues --    0.48344   0.52534   0.52536   0.55987   0.55992
 Alpha virt. eigenvalues --    0.56239   0.56240   0.58925   0.58965   0.61443
 Alpha virt. eigenvalues --    0.61472   0.61476   0.61480   0.61514   0.61917
 Alpha virt. eigenvalues --    0.64274   0.64279   0.64407   0.64408   0.65757
 Alpha virt. eigenvalues --    0.65757   0.67121   0.67122   0.69894   0.70240
 Alpha virt. eigenvalues --    0.70277   0.70303   0.70381   0.71962   0.72005
 Alpha virt. eigenvalues --    0.72250   0.72353   0.72357   0.73420   0.74503
 Alpha virt. eigenvalues --    0.74539   0.75757   0.78647   0.78648   0.82065
 Alpha virt. eigenvalues --    0.86804   0.86805   0.87162   0.87163   0.87546
 Alpha virt. eigenvalues --    0.88969   0.88997   0.97115   0.97530   0.98192
 Alpha virt. eigenvalues --    0.98268   1.01073   1.01073   1.02644   1.02661
 Alpha virt. eigenvalues --    1.09204   1.09223   1.09796   1.09797   1.12375
 Alpha virt. eigenvalues --    1.12375   1.16820   1.16838   1.19362   1.25626
 Alpha virt. eigenvalues --    1.25627   1.25685   1.27081   1.27097   1.27279
 Alpha virt. eigenvalues --    1.27279   1.28829   1.28832   1.30543   1.30584
 Alpha virt. eigenvalues --    1.33067   1.34068   1.34069   1.34466   1.39887
 Alpha virt. eigenvalues --    1.41881   1.41882   1.41957   1.41959   1.42228
 Alpha virt. eigenvalues --    1.42265   1.43414   1.43475   1.45704   1.46929
 Alpha virt. eigenvalues --    1.46941   1.49159   1.49165   1.49585   1.53891
 Alpha virt. eigenvalues --    1.55326   1.58598   1.58599   1.60029   1.60087
 Alpha virt. eigenvalues --    1.60400   1.60405   1.65082   1.65083   1.68967
 Alpha virt. eigenvalues --    1.78618   1.78618   1.81433   1.81433   1.95417
 Alpha virt. eigenvalues --    1.95417   2.01924   2.12520   2.12583   2.14003
 Alpha virt. eigenvalues --    2.14046   2.16262   2.16291   2.16720   2.16749
 Alpha virt. eigenvalues --    2.28291   2.28292   2.30841   2.32426   2.46385
 Alpha virt. eigenvalues --    2.46388   2.49325   2.51847   2.54559   2.54560
 Alpha virt. eigenvalues --    2.65350   2.65352   2.65604   2.65605   2.67425
 Alpha virt. eigenvalues --    2.72819   2.72883   2.73340   2.79907   2.82266
 Alpha virt. eigenvalues --    2.82267   2.84209   2.86016   2.86071   2.89165
 Alpha virt. eigenvalues --    2.89166   2.94282   2.94291   3.00970   3.00983
 Alpha virt. eigenvalues --    3.01397   3.01398   3.09392   3.09397   3.10193
 Alpha virt. eigenvalues --    3.10195   3.10709   3.10714   3.15560   3.20908
 Alpha virt. eigenvalues --    3.20914   3.22875   3.22890   3.23185   3.23186
 Alpha virt. eigenvalues --    3.25093   3.25094   3.35590   3.36908   3.36929
 Alpha virt. eigenvalues --    3.37007   3.43052   3.43052   3.44819   3.44821
 Alpha virt. eigenvalues --    3.48094   3.54276   3.54289   3.55530   3.55531
 Alpha virt. eigenvalues --    3.57486   3.57487   3.59890   3.59910   3.62588
 Alpha virt. eigenvalues --    3.62611   3.63419   3.64467   3.64474   3.64499
 Alpha virt. eigenvalues --    3.68046   3.68233   3.68740   3.68741   3.69249
 Alpha virt. eigenvalues --    3.69250   3.76837   3.76838   3.78022   3.78037
 Alpha virt. eigenvalues --    3.79143   3.79145   3.80423   3.80443   3.80447
 Alpha virt. eigenvalues --    3.81373   3.81887   3.81888   3.84040   3.85344
 Alpha virt. eigenvalues --    3.85344   3.86476   3.96168   3.96209   4.00128
 Alpha virt. eigenvalues --    4.00136   4.01058   4.06856   4.06857   4.10467
 Alpha virt. eigenvalues --    4.12955   4.12956   4.27590   4.27599   4.29606
 Alpha virt. eigenvalues --    4.29624   4.36550   4.56877   4.56878   4.61186
 Alpha virt. eigenvalues --    4.61219   4.74546   4.74564   4.75823   4.75826
 Alpha virt. eigenvalues --    4.85945   4.85946   4.87570   4.87571   5.07373
 Alpha virt. eigenvalues --    5.15163   5.15397  23.90686  24.01227  24.09365
 Alpha virt. eigenvalues --   24.09390  24.14513  24.14531  24.25967  24.25968
 Alpha virt. eigenvalues --   24.37779  24.37780
 Electronic spatial extent (au):  <R**2>=           1342.4554
 Charge=              0.0000 electrons
 Dipole moment (field-independent basis, Debye):
    X=              0.0000    Y=             -0.0942    Z=              0.0004  Tot=              0.0942
 Quadrupole moment (field-independent basis, Debye-Ang):
   XX=            -81.1152   YY=            -67.0487   ZZ=            -67.0498
   XY=             -0.0001   XZ=             -0.0002   YZ=              0.0003
 Traceless Quadrupole moment (field-independent basis, Debye-Ang):
   XX=             -9.3773   YY=              4.6892   ZZ=              4.6881
   XY=             -0.0001   XZ=             -0.0002   YZ=              0.0003
 Octapole moment (field-independent basis, Debye-Ang**2):
  XXX=             -0.0002  YYY=             -0.4996  ZZZ=              0.0002  XYY=             -0.0008
  XXY=             -0.3303  XXZ=             -0.0057  XZZ=              0.0006  YZZ=             -0.1656
  YYZ=             -0.0006  XYZ=             -0.0007
 Hexadecapole moment (field-independent basis, Debye-Ang**3):
 XXXX=          -1183.1256 YYYY=           -378.7292 ZZZZ=           -378.7332 XXXY=             -0.0010
 XXXZ=             -0.0024 YYYX=             -0.0002 YYYZ=             -0.0394 ZZZX=             -0.0011
 ZZZY=              0.0391 XXYY=           -239.1697 XXZZ=           -239.1698 YYZZ=           -126.1523
 XXYZ=             -0.0027 YYXZ=             -0.0003 ZZXY=             -0.0009
 N-N= 9.192345822002D+02 E-N=-5.744136693190D+03  KE= 1.646810491345D+03
  Exact polarizability: 139.263   0.000 110.795   0.000   0.001 110.795
 Approx polarizability: 216.992   0.000 182.958   0.000   0.000 182.959
 No NMR shielding tensors so no spin-rotation constants.
 Leave Link  601 at Sun Apr 11 18:01:10 2021, MaxMem=  1048576000 cpu:         5.2
 (Enter /usr/local/g09/l106.exe)
 NDeriv=   3 NFrqRd=  2 NDerD0=   0 MskFDP=      31 MskDFD=      31 MskDF0=       0
 Re-enter D2Numr: IAtom=  0 IXYZ=2 IStep= 1.
 Leave Link  106 at Sun Apr 11 18:01:10 2021, MaxMem=  1048576000 cpu:         2.7
 (Enter /usr/local/g09/l301.exe)
 Basis read from rwf:  (5D, 7F)
 Pseudo-potential data read from rwf file.
 The following finite field(s) will be applied:
 An electric field of              0.0000  0.0007  0.0000
   375 basis functions,   602 primitive gaussians,   402 cartesian basis functions
    48 alpha electrons       48 beta electrons
       nuclear repulsion energy       919.2345822002 Hartrees.
 IExCor= 1009 DFT=T Ex+Corr=PBE1PBE ExCW=0 ScaHFX=  0.250000
 ScaDFX=  0.750000  0.750000  1.000000  1.000000 ScalE2=  1.000000  1.000000
 IRadAn=      0 IRanWt=     -1 IRanGd=            0 ICorTp=0 IEmpDi=  4
 NAtoms=   21 NActive=   21 NUniq=   21 SFac= 1.00D+00 NAtFMM=   60 NAOKFM=F Big=F
 Integral buffers will be    131072 words long.
 Raffenetti 2 integral format.
 Two-electron integral symmetry is turned off.
 No density basis found on file   724.
 Leave Link  301 at Sun Apr 11 18:01:10 2021, MaxMem=  1048576000 cpu:         1.3
 (Enter /usr/local/g09/l302.exe)
 NPDir=0 NMtPBC=     1 NCelOv=     1 NCel=       1 NClECP=     1 NCelD=      1
         NCelK=      1 NCelE2=     1 NClLst=     1 CellRange=     0.0.
 One-electron integrals computed using PRISM.
   1 Symmetry operations used in ECPInt.
 ECPInt:  NShTT=    7875 NPrTT=   28235 LenC2=    7866 LenP2D=   21150.
 LDataN:  DoStor=T MaxTD1= 6 Len=  172
 NBasis=   375 RedAO= T EigKep=  3.67D-06  NBF=   375
 NBsUse=   375 1.00D-06 EigRej= -1.00D+00 NBFU=   375
 Precomputing XC quadrature grid using
 IXCGrd= 4 IRadAn=           0 IRanWt=          -1 IRanGd=           0 AccXCQ= 0.00D+00.
 Generated NRdTot=       0 NPtTot=           0 NUsed=           0 NTot=          32
 NSgBfM=   402   402   402   402   402 MxSgAt=    21 MxSgA2=    21.
 Leave Link  302 at Sun Apr 11 18:01:11 2021, MaxMem=  1048576000 cpu:         8.6
 (Enter /usr/local/g09/l303.exe)
 DipDrv:  MaxL=1.
 The nuclear repulsion energy is now       919.2345822002 hartrees.
 Leave Link  303 at Sun Apr 11 18:01:11 2021, MaxMem=  1048576000 cpu:         1.4
 (Enter /usr/local/g09/l401.exe)
 Initial guess from the checkpoint file:  "ferr_pbe0.chk"
 B after Tr=     0.000000    0.000000    0.000000
         Rot=    1.000000    0.000000    0.000000    0.000000 Ang=   0.00 deg.
 Guess basis will be translated and rotated to current coordinates.
 JPrj=2 DoOrth=T DoCkMO=T.
 Leave Link  401 at Sun Apr 11 18:01:11 2021, MaxMem=  1048576000 cpu:         6.5
 (Enter /usr/local/g09/l502.exe)
 Closed shell SCF:
 Using DIIS extrapolation, IDIIS=  1040.
 Two-electron integral symmetry not used.
 IVT=      515866 IEndB=      515866 NGot=  1048576000 MDV=  1048238781
 LenX=  1048238781 LenY=  1048076736
 Requested convergence on RMS density matrix=1.00D-10 within 128 cycles.
 Requested convergence on MAX density matrix=1.00D-08.
 Requested convergence on             energy=1.00D-08.
 No special actions if energy rises.
 Fock matrices will be formed incrementally for  20 cycles.

 Cycle   1  Pass 1  IDiag  1:
 FoFJK:  IHMeth= 1 ICntrl=       0 DoSepK=F KAlg= 0 I1Cent=   0 FoldK=F
 IRaf= 980000000 NMat=   1 IRICut=       1 DoRegI=T DoRafI=F ISym2E= 0.
 FoFCou: FMM=F IPFlag=           0 FMFlag=      100000 FMFlg1=           0
         NFxFlg=           0 DoJE=F BraDBF=F KetDBF=F FulRan=T
         wScrn=  0.000000 ICntrl=       0 IOpCl=  0 I1Cent=           0 NGrid=           0
         NMat0=    1 NMatS0=      1 NMatT0=    0 NMatD0=    1 NMtDS0=    0 NMtDT0=    0
 Symmetry not used in FoFCou.
 E= -1650.24294447745    
 DIIS: error= 2.68D-04 at cycle   1 NSaved=   1.
 NSaved= 1 IEnMin= 1 EnMin= -1650.24294447745     IErMin= 1 ErrMin= 2.68D-04
 ErrMax= 2.68D-04  0.00D+00 EMaxC= 1.00D-01 BMatC= 1.12D-05 BMatP= 1.12D-05
 IDIUse=3 WtCom= 9.97D-01 WtEn= 2.68D-03
 Coeff-Com:  0.100D+01
 Coeff-En:   0.100D+01
 Coeff:      0.100D+01
 Gap=     0.451 Goal=   None    Shift=    0.000
 RMSDP=3.32D-04 MaxDP=1.98D-02              OVMax= 2.71D-03

 Cycle   2  Pass 1  IDiag  1:
 RMSU=  3.32D-04    CP:  1.00D+00
 E= -1650.24294673242     Delta-E=       -0.000002254971 Rises=F Damp=F
 DIIS: error= 3.36D-04 at cycle   2 NSaved=   2.
 NSaved= 2 IEnMin= 2 EnMin= -1650.24294673242     IErMin= 1 ErrMin= 2.68D-04
 ErrMax= 3.36D-04  0.00D+00 EMaxC= 1.00D-01 BMatC= 2.02D-05 BMatP= 1.12D-05
 IDIUse=3 WtCom= 3.53D-01 WtEn= 6.47D-01
 Coeff-Com:  0.583D+00 0.417D+00
 Coeff-En:   0.471D+00 0.529D+00
 Coeff:      0.510D+00 0.490D+00
 Gap=     0.217 Goal=   None    Shift=    0.000
 RMSDP=1.68D-04 MaxDP=8.51D-03 DE=-2.25D-06 OVMax= 1.50D-03

 Cycle   3  Pass 1  IDiag  1:
 RMSU=  6.19D-05    CP:  1.00D+00  5.31D-01
 E= -1650.24296614634     Delta-E=       -0.000019413922 Rises=F Damp=F
 DIIS: error= 9.22D-05 at cycle   3 NSaved=   3.
 NSaved= 3 IEnMin= 3 EnMin= -1650.24296614634     IErMin= 3 ErrMin= 9.22D-05
 ErrMax= 9.22D-05  0.00D+00 EMaxC= 1.00D-01 BMatC= 3.36D-06 BMatP= 1.12D-05
 IDIUse=1 WtCom= 1.00D+00 WtEn= 0.00D+00
 Coeff-Com:  0.183D+00 0.293D+00 0.524D+00
 Coeff:      0.183D+00 0.293D+00 0.524D+00
 Gap=     0.217 Goal=   None    Shift=    0.000
 RMSDP=2.01D-05 MaxDP=1.19D-03 DE=-1.94D-05 OVMax= 3.49D-04

 Cycle   4  Pass 1  IDiag  1:
 RMSU=  7.50D-06    CP:  1.00D+00  5.82D-01  8.83D-01
 E= -1650.24296908676     Delta-E=       -0.000002940416 Rises=F Damp=F
 DIIS: error= 7.40D-06 at cycle   4 NSaved=   4.
 NSaved= 4 IEnMin= 4 EnMin= -1650.24296908676     IErMin= 4 ErrMin= 7.40D-06
 ErrMax= 7.40D-06  0.00D+00 EMaxC= 1.00D-01 BMatC= 1.44D-08 BMatP= 3.36D-06
 IDIUse=1 WtCom= 1.00D+00 WtEn= 0.00D+00
 Coeff-Com:  0.121D-01 0.342D-01 0.860D-01 0.868D+00
 Coeff:      0.121D-01 0.342D-01 0.860D-01 0.868D+00
 Gap=     0.217 Goal=   None    Shift=    0.000
 RMSDP=2.41D-06 MaxDP=1.19D-04 DE=-2.94D-06 OVMax= 6.84D-05

 Cycle   5  Pass 1  IDiag  1:
 RMSU=  1.88D-06    CP:  1.00D+00  5.87D-01  8.90D-01  9.53D-01
 E= -1650.24296905228     Delta-E=        0.000000034477 Rises=F Damp=F
 DIIS: error= 2.69D-05 at cycle   5 NSaved=   5.
 NSaved= 5 IEnMin= 4 EnMin= -1650.24296908676     IErMin= 4 ErrMin= 7.40D-06
 ErrMax= 2.69D-05  0.00D+00 EMaxC= 1.00D-01 BMatC= 9.82D-08 BMatP= 1.44D-08
 IDIUse=1 WtCom= 1.00D+00 WtEn= 0.00D+00
 Coeff-Com:  0.479D-02 0.204D-01 0.556D-01 0.732D+00 0.187D+00
 Coeff:      0.479D-02 0.204D-01 0.556D-01 0.732D+00 0.187D+00
 Gap=     0.217 Goal=   None    Shift=    0.000
 RMSDP=1.27D-06 MaxDP=6.27D-05 DE= 3.45D-08 OVMax= 5.86D-05

 Cycle   6  Pass 1  IDiag  1:
 RMSU=  1.03D-06    CP:  1.00D+00  5.87D-01  8.91D-01  9.61D-01  6.62D-01
 E= -1650.24296909348     Delta-E=       -0.000000041196 Rises=F Damp=F
 DIIS: error= 8.25D-06 at cycle   6 NSaved=   6.
 NSaved= 6 IEnMin= 6 EnMin= -1650.24296909348     IErMin= 4 ErrMin= 7.40D-06
 ErrMax= 8.25D-06  0.00D+00 EMaxC= 1.00D-01 BMatC= 9.88D-09 BMatP= 1.44D-08
 IDIUse=1 WtCom= 1.00D+00 WtEn= 0.00D+00
 Coeff-Com: -0.217D-02 0.667D-03 0.824D-03 0.186D+00 0.218D+00 0.597D+00
 Coeff:     -0.217D-02 0.667D-03 0.824D-03 0.186D+00 0.218D+00 0.597D+00
 Gap=     0.217 Goal=   None    Shift=    0.000
 RMSDP=5.42D-07 MaxDP=3.10D-05 DE=-4.12D-08 OVMax= 2.01D-05

 Cycle   7  Pass 1  IDiag  1:
 RMSU=  1.91D-07    CP:  1.00D+00  5.86D-01  8.95D-01  9.82D-01  7.15D-01
                    CP:  7.41D-01
 E= -1650.24296909854     Delta-E=       -0.000000005063 Rises=F Damp=F
 DIIS: error= 4.61D-07 at cycle   7 NSaved=   7.
 NSaved= 7 IEnMin= 7 EnMin= -1650.24296909854     IErMin= 7 ErrMin= 4.61D-07
 ErrMax= 4.61D-07  0.00D+00 EMaxC= 1.00D-01 BMatC= 4.79D-11 BMatP= 9.88D-09
 IDIUse=1 WtCom= 1.00D+00 WtEn= 0.00D+00
 Coeff-Com: -0.395D-03-0.324D-03-0.880D-03 0.287D-02 0.432D-01 0.151D+00
 Coeff-Com:  0.805D+00
 Coeff:     -0.395D-03-0.324D-03-0.880D-03 0.287D-02 0.432D-01 0.151D+00
 Coeff:      0.805D+00
 Gap=     0.217 Goal=   None    Shift=    0.000
 RMSDP=1.69D-07 MaxDP=8.25D-06 DE=-5.06D-09 OVMax= 3.17D-06

 Cycle   8  Pass 1  IDiag  1:
 RMSU=  4.81D-08    CP:  1.00D+00  5.86D-01  8.95D-01  9.81D-01  7.36D-01
                    CP:  7.82D-01  9.99D-01
 E= -1650.24296909858     Delta-E=       -0.000000000035 Rises=F Damp=F
 DIIS: error= 1.15D-07 at cycle   8 NSaved=   8.
 NSaved= 8 IEnMin= 8 EnMin= -1650.24296909858     IErMin= 8 ErrMin= 1.15D-07
 ErrMax= 1.15D-07  0.00D+00 EMaxC= 1.00D-01 BMatC= 1.21D-12 BMatP= 4.79D-11
 IDIUse=1 WtCom= 1.00D+00 WtEn= 0.00D+00
 Coeff-Com:  0.274D-04-0.136D-03 0.514D-04-0.646D-02-0.726D-02-0.213D-01
 Coeff-Com: -0.886D-03 0.104D+01
 Coeff:      0.274D-04-0.136D-03 0.514D-04-0.646D-02-0.726D-02-0.213D-01
 Coeff:     -0.886D-03 0.104D+01
 Gap=     0.217 Goal=   None    Shift=    0.000
 RMSDP=2.80D-08 MaxDP=1.54D-06 DE=-3.55D-11 OVMax= 1.66D-06

 Cycle   9  Pass 1  IDiag  1:
 RMSU=  1.60D-08    CP:  1.00D+00  5.86D-01  8.95D-01  9.81D-01  7.42D-01
                    CP:  7.84D-01  1.07D+00  1.22D+00
 E= -1650.24296909851     Delta-E=        0.000000000064 Rises=F Damp=F
 DIIS: error= 4.51D-08 at cycle   9 NSaved=   9.
 NSaved= 9 IEnMin= 8 EnMin= -1650.24296909858     IErMin= 9 ErrMin= 4.51D-08
 ErrMax= 4.51D-08  0.00D+00 EMaxC= 1.00D-01 BMatC= 3.03D-13 BMatP= 1.21D-12
 IDIUse=1 WtCom= 1.00D+00 WtEn= 0.00D+00
 Coeff-Com:  0.333D-04-0.427D-04 0.993D-04-0.212D-02-0.542D-02-0.162D-01
 Coeff-Com: -0.527D-01 0.325D+00 0.752D+00
 Coeff:      0.333D-04-0.427D-04 0.993D-04-0.212D-02-0.542D-02-0.162D-01
 Coeff:     -0.527D-01 0.325D+00 0.752D+00
 Gap=     0.217 Goal=   None    Shift=    0.000
 RMSDP=1.26D-08 MaxDP=7.10D-07 DE= 6.37D-11 OVMax= 4.53D-07

 Cycle  10  Pass 1  IDiag  1:
 RMSU=  6.93D-09    CP:  1.00D+00  5.86D-01  8.95D-01  9.80D-01  7.41D-01
                    CP:  7.90D-01  1.08D+00  1.35D+00  7.15D-01
 E= -1650.24296909854     Delta-E=       -0.000000000025 Rises=F Damp=F
 DIIS: error= 2.01D-08 at cycle  10 NSaved=  10.
 NSaved=10 IEnMin= 8 EnMin= -1650.24296909858     IErMin=10 ErrMin= 2.01D-08
 ErrMax= 2.01D-08  0.00D+00 EMaxC= 1.00D-01 BMatC= 7.92D-14 BMatP= 3.03D-13
 IDIUse=1 WtCom= 1.00D+00 WtEn= 0.00D+00
 Coeff-Com:  0.106D-04 0.511D-05 0.462D-04 0.453D-03-0.812D-03-0.335D-02
 Coeff-Com: -0.256D-01-0.760D-01 0.358D+00 0.747D+00
 Coeff:      0.106D-04 0.511D-05 0.462D-04 0.453D-03-0.812D-03-0.335D-02
 Coeff:     -0.256D-01-0.760D-01 0.358D+00 0.747D+00
 Gap=     0.217 Goal=   None    Shift=    0.000
 RMSDP=5.59D-09 MaxDP=3.57D-07 DE=-2.46D-11 OVMax= 2.15D-07

 Cycle  11  Pass 1  IDiag  1:
 RMSU=  8.28D-10    CP:  1.00D+00  5.86D-01  8.95D-01  9.80D-01  7.41D-01
                    CP:  7.88D-01  1.08D+00  1.38D+00  9.34D-01  8.18D-01
 E= -1650.24296909858     Delta-E=       -0.000000000040 Rises=F Damp=F
 DIIS: error= 1.83D-09 at cycle  11 NSaved=  11.
 NSaved=11 IEnMin=11 EnMin= -1650.24296909858     IErMin=11 ErrMin= 1.83D-09
 ErrMax= 1.83D-09  0.00D+00 EMaxC= 1.00D-01 BMatC= 4.43D-16 BMatP= 7.92D-14
 IDIUse=1 WtCom= 1.00D+00 WtEn= 0.00D+00
 Coeff-Com: -0.613D-06 0.254D-05-0.841D-06 0.116D-03 0.111D-03 0.342D-03
 Coeff-Com: -0.332D-03-0.184D-01 0.544D-02 0.690D-01 0.944D+00
 Coeff:     -0.613D-06 0.254D-05-0.841D-06 0.116D-03 0.111D-03 0.342D-03
 Coeff:     -0.332D-03-0.184D-01 0.544D-02 0.690D-01 0.944D+00
 Gap=     0.217 Goal=   None    Shift=    0.000
 RMSDP=9.73D-10 MaxDP=6.03D-08 DE=-4.00D-11 OVMax= 2.32D-08

 Cycle  12  Pass 1  IDiag  1:
 RMSU=  2.86D-10    CP:  1.00D+00  5.86D-01  8.95D-01  9.80D-01  7.41D-01
                    CP:  7.88D-01  1.08D+00  1.38D+00  9.37D-01  8.44D-01
                    CP:  9.39D-01
 E= -1650.24296909856     Delta-E=        0.000000000013 Rises=F Damp=F
 DIIS: error= 6.43D-10 at cycle  12 NSaved=  12.
 NSaved=12 IEnMin=11 EnMin= -1650.24296909858     IErMin=12 ErrMin= 6.43D-10
 ErrMax= 6.43D-10  0.00D+00 EMaxC= 1.00D-01 BMatC= 1.35D-16 BMatP= 4.43D-16
 IDIUse=1 WtCom= 1.00D+00 WtEn= 0.00D+00
 Coeff-Com: -0.505D-06 0.119D-05-0.140D-05 0.459D-04 0.777D-04 0.232D-03
 Coeff-Com:  0.500D-03-0.713D-02-0.649D-02 0.149D-01 0.460D+00 0.538D+00
 Coeff:     -0.505D-06 0.119D-05-0.140D-05 0.459D-04 0.777D-04 0.232D-03
 Coeff:      0.500D-03-0.713D-02-0.649D-02 0.149D-01 0.460D+00 0.538D+00
 Gap=     0.217 Goal=   None    Shift=    0.000
 RMSDP=2.50D-10 MaxDP=1.24D-08 DE= 1.27D-11 OVMax= 3.30D-09

 Cycle  13  Pass 1  IDiag  1:
 RMSU=  8.24D-11    CP:  1.00D+00  5.86D-01  8.95D-01  9.80D-01  7.41D-01
                    CP:  7.88D-01  1.08D+00  1.38D+00  9.37D-01  8.44D-01
                    CP:  1.02D+00  2.15D-01
 E= -1650.24296909858     Delta-E=       -0.000000000019 Rises=F Damp=F
 DIIS: error= 2.39D-10 at cycle  13 NSaved=  13.
 NSaved=13 IEnMin=13 EnMin= -1650.24296909858     IErMin=13 ErrMin= 2.39D-10
 ErrMax= 2.39D-10  0.00D+00 EMaxC= 1.00D-01 BMatC= 1.76D-17 BMatP= 1.35D-16
 IDIUse=1 WtCom= 1.00D+00 WtEn= 0.00D+00
 Coeff-Com: -0.176D-06 0.334D-06-0.682D-06 0.884D-05 0.268D-04 0.783D-04
 Coeff-Com:  0.352D-03-0.130D-02-0.473D-02-0.220D-02 0.121D+00 0.307D+00
 Coeff-Com:  0.579D+00
 Coeff:     -0.176D-06 0.334D-06-0.682D-06 0.884D-05 0.268D-04 0.783D-04
 Coeff:      0.352D-03-0.130D-02-0.473D-02-0.220D-02 0.121D+00 0.307D+00
 Coeff:      0.579D+00
 Gap=     0.217 Goal=   None    Shift=    0.000
 RMSDP=9.14D-11 MaxDP=5.01D-09 DE=-1.91D-11 OVMax= 1.06D-09

 SCF Done:  E(RPBE1PBE) =  -1650.24296910     A.U. after   13 cycles
            NFock= 13  Conv=0.91D-10     -V/T= 2.0021
 KE= 1.646810484164D+03 PE=-5.744136538934D+03 EE= 1.527848503471D+03
 Leave Link  502 at Sun Apr 11 18:02:02 2021, MaxMem=  1048576000 cpu:      1272.8
 (Enter /usr/local/g09/l801.exe)
 DoSCS=F DFT=T ScalE2(SS,OS)=  1.000000  1.000000
 Range of M.O.s used for correlation:     1   375
 NBasis=   375 NAE=    48 NBE=    48 NFC=     0 NFV=     0
 NROrb=    375 NOA=    48 NOB=    48 NVA=   327 NVB=   327

 **** Warning!!: The largest alpha MO coefficient is  0.11676992D+03

 Leave Link  801 at Sun Apr 11 18:02:02 2021, MaxMem=  1048576000 cpu:         0.8
 (Enter /usr/local/g09/l1002.exe)
 Minotr:  Closed shell wavefunction.
          Direct CPHF calculation.
          Differentiating once with respect to electric field.
                with respect to dipole field.
          Electric field/nuclear overlap derivatives assumed to be zero.
          Requested convergence is 1.0D-10 RMS, and 1.0D-09 maximum.
          NewPWx=F KeepS1=T KeepF1=T KeepIn=T MapXYZ=F SortEE=F KeepMc=T.
          MDV=    1048575453 using IRadAn=       1.
 Generate precomputed XC quadrature information.
          Solving linear equations separately, MaxMat=       0.
          Doing perturbations at frequencies    0.000000    0.105471    0.210941
          There are     9 degrees of freedom in the 1st order CPHF.  IDoFFX=0 NUNeed=     9.
 LinEq1:  Iter=  0 NonCon=     9 RMS=2.93D-01 Max=2.80D+01 NDo=     9
 AX will form     9 AO Fock derivatives at one time.
 FoFJK:  IHMeth= 1 ICntrl=       0 DoSepK=F KAlg= 0 I1Cent=   0 FoldK=F
 IRaf= 980000000 NMat=  18 IRICut=      22 DoRegI=T DoRafI=T ISym2E= 0.
 FoFCou: FMM=F IPFlag=           0 FMFlag=      100000 FMFlg1=           0
         NFxFlg=           0 DoJE=F BraDBF=F KetDBF=F FulRan=T
         wScrn=  0.000000 ICntrl=       0 IOpCl=  0 I1Cent=           0 NGrid=           0
         NMat0=   18 NMatS0=      9 NMatT0=    0 NMatD0=   18 NMtDS0=    0 NMtDT0=    0
 Symmetry not used in FoFCou.
 LinEq1:  Iter=  1 NonCon=     9 RMS=1.76D-01 Max=7.58D+00 NDo=     9
 LinEq1:  Iter=  2 NonCon=     9 RMS=9.60D-01 Max=1.18D+02 NDo=     9
 LinEq1:  Iter=  3 NonCon=     9 RMS=1.97D+00 Max=7.70D+01 NDo=     9
 LinEq1:  Iter=  4 NonCon=     9 RMS=8.70D+00 Max=1.12D+03 NDo=     9
 LinEq1:  Iter=  5 NonCon=     9 RMS=2.58D+01 Max=1.68D+03 NDo=     9
 LinEq1:  Iter=  6 NonCon=     9 RMS=1.14D+02 Max=1.26D+04 NDo=     9
 LinEq1:  Iter=  7 NonCon=     9 RMS=2.00D+02 Max=2.39D+04 NDo=     9
 LinEq1:  Iter=  8 NonCon=     9 RMS=2.78D+02 Max=3.81D+04 NDo=     9
 LinEq1:  Iter=  9 NonCon=     9 RMS=2.08D+03 Max=2.82D+05 NDo=     9
 LinEq1:  Iter= 10 NonCon=     9 RMS=5.73D+03 Max=7.64D+05 NDo=     9
 LinEq1:  Iter= 11 NonCon=     9 RMS=3.60D+04 Max=2.15D+06 NDo=     9
 LinEq1:  Iter= 12 NonCon=     9 RMS=2.01D+04 Max=8.61D+05 NDo=     9
 LinEq1:  Iter= 13 NonCon=     9 RMS=1.58D+04 Max=1.44D+06 NDo=     9
 LinEq1:  Iter= 14 NonCon=     9 RMS=2.48D+04 Max=1.51D+06 NDo=     9
 LinEq1:  Iter= 15 NonCon=     9 RMS=2.51D+04 Max=1.79D+06 NDo=     9
 LinEq1:  Iter= 16 NonCon=     9 RMS=2.84D+04 Max=2.61D+06 NDo=     9
 LinEq1:  Iter= 17 NonCon=     9 RMS=3.89D+04 Max=4.66D+06 NDo=     9
 LinEq1:  Iter= 18 NonCon=     9 RMS=3.43D+04 Max=2.07D+06 NDo=     9
 LinEq1:  Iter= 19 NonCon=     9 RMS=3.62D+04 Max=1.83D+06 NDo=     9
 LinEq1:  Iter= 20 NonCon=     9 RMS=2.59D+04 Max=2.09D+06 NDo=     9
 LinEq1:  Iter= 21 NonCon=     9 RMS=2.97D+04 Max=2.18D+06 NDo=     9
 LinEq1:  Iter= 22 NonCon=     9 RMS=5.74D+04 Max=5.55D+06 NDo=     9
 LinEq1:  Iter= 23 NonCon=     9 RMS=4.59D+04 Max=3.82D+06 NDo=     9
 LinEq1:  Iter= 24 NonCon=     9 RMS=2.59D+04 Max=1.35D+06 NDo=     9
 LinEq1:  Iter= 25 NonCon=     9 RMS=2.04D+04 Max=1.23D+06 NDo=     9
 LinEq1:  Iter= 26 NonCon=     6 RMS=1.46D+04 Max=1.25D+06 NDo=     9
 LinEq1:  Iter= 27 NonCon=     6 RMS=1.13D+04 Max=6.09D+05 NDo=     6
 LinEq1:  Iter= 28 NonCon=     6 RMS=4.72D+03 Max=2.23D+05 NDo=     6
 LinEq1:  Iter= 29 NonCon=     6 RMS=1.74D+03 Max=1.10D+05 NDo=     6
 LinEq1:  Iter= 30 NonCon=     6 RMS=9.10D+02 Max=4.26D+04 NDo=     6
 LinEq1:  Iter= 31 NonCon=     6 RMS=3.55D+02 Max=2.40D+04 NDo=     6
 LinEq1:  Iter= 32 NonCon=     6 RMS=3.02D+02 Max=1.43D+04 NDo=     6
 LinEq1:  Iter= 33 NonCon=     5 RMS=1.81D+02 Max=1.24D+04 NDo=     6
 LinEq1:  Iter= 34 NonCon=     3 RMS=8.89D+01 Max=5.28D+03 NDo=     5
 LinEq1:  Iter= 35 NonCon=     3 RMS=4.93D+01 Max=2.58D+03 NDo=     3
 LinEq1:  Iter= 36 NonCon=     3 RMS=2.31D+01 Max=1.39D+03 NDo=     3
 LinEq1:  Iter= 37 NonCon=     3 RMS=1.25D+01 Max=5.22D+02 NDo=     3
 LinEq1:  Iter= 38 NonCon=     3 RMS=1.01D+01 Max=7.38D+02 NDo=     3
 LinEq1:  Iter= 39 NonCon=     3 RMS=6.38D+00 Max=3.06D+02 NDo=     3
 LinEq1:  Iter= 40 NonCon=     3 RMS=6.75D+00 Max=2.86D+02 NDo=     3
 LinEq1:  Iter= 41 NonCon=     3 RMS=4.40D+00 Max=1.94D+02 NDo=     3
 LinEq1:  Iter= 42 NonCon=     3 RMS=1.68D+00 Max=8.68D+01 NDo=     3
 LinEq1:  Iter= 43 NonCon=     3 RMS=8.19D-01 Max=5.64D+01 NDo=     3
 LinEq1:  Iter= 44 NonCon=     3 RMS=2.63D-01 Max=1.11D+01 NDo=     3
 LinEq1:  Iter= 45 NonCon=     3 RMS=1.26D-01 Max=4.45D+00 NDo=     3
 LinEq1:  Iter= 46 NonCon=     3 RMS=5.34D-02 Max=3.43D+00 NDo=     3
 LinEq1:  Iter= 47 NonCon=     3 RMS=2.38D-02 Max=1.88D+00 NDo=     3
 LinEq1:  Iter= 48 NonCon=     3 RMS=7.94D-03 Max=6.42D-01 NDo=     3
 LinEq1:  Iter= 49 NonCon=     3 RMS=7.30D-03 Max=3.55D-01 NDo=     3
 LinEq1:  Iter= 50 NonCon=     3 RMS=3.19D-03 Max=1.60D-01 NDo=     3
 LinEq1:  Iter= 51 NonCon=     3 RMS=1.32D-03 Max=6.03D-02 NDo=     3
 LinEq1:  Iter= 52 NonCon=     3 RMS=5.83D-04 Max=3.61D-02 NDo=     3
 LinEq1:  Iter= 53 NonCon=     3 RMS=2.46D-04 Max=1.82D-02 NDo=     3
 LinEq1:  Iter= 54 NonCon=     3 RMS=8.45D-05 Max=3.89D-03 NDo=     3
 LinEq1:  Iter= 55 NonCon=     3 RMS=3.30D-05 Max=1.82D-03 NDo=     3
 LinEq1:  Iter= 56 NonCon=     3 RMS=9.15D-06 Max=5.20D-04 NDo=     3
 LinEq1:  Iter= 57 NonCon=     3 RMS=2.39D-06 Max=1.35D-04 NDo=     3
 LinEq1:  Iter= 58 NonCon=     3 RMS=1.02D-06 Max=6.49D-05 NDo=     3
 LinEq1:  Iter= 59 NonCon=     3 RMS=4.62D-07 Max=3.42D-05 NDo=     3
 LinEq1:  Iter= 60 NonCon=     3 RMS=1.94D-07 Max=1.66D-05 NDo=     3
 LinEq1:  Iter= 61 NonCon=     3 RMS=6.64D-08 Max=2.85D-06 NDo=     3
 LinEq1:  Iter= 62 NonCon=     3 RMS=2.44D-08 Max=8.17D-07 NDo=     3
 LinEq1:  Iter= 63 NonCon=     3 RMS=9.03D-09 Max=7.06D-07 NDo=     3
 LinEq1:  Iter= 64 NonCon=     3 RMS=3.59D-09 Max=1.58D-07 NDo=     3
 LinEq1:  Iter= 65 NonCon=     3 RMS=1.13D-09 Max=6.40D-08 NDo=     3
 LinEq1:  Iter= 66 NonCon=     3 RMS=4.33D-10 Max=2.74D-08 NDo=     3
 LinEq1:  Iter= 67 NonCon=     3 RMS=1.77D-10 Max=4.41D-09 NDo=     3
 LinEq1:  Iter= 68 NonCon=     1 RMS=5.82D-11 Max=2.85D-09 NDo=     3
 LinEq1:  Iter= 69 NonCon=     1 RMS=2.05D-11 Max=1.44D-09 NDo=     1
 LinEq1:  Iter= 70 NonCon=     0 RMS=9.58D-12 Max=2.96D-10 NDo=     1
 Linear equations converged to 1.000D-10 1.000D-09 after    70 iterations.
 FullF1:  Do perturbations    1 to     9.
 SCF Polarizability for W=    0.000000:
                1             2             3 
      1  0.139265D+03
      2 -0.101348D-03  0.110798D+03
      3  0.272175D-03  0.692929D-03  0.110796D+03
 Isotropic polarizability for W=    0.000000      120.29 Bohr**3.
 SCF Polarizability for W=    0.105471:
                1             2             3 
      1  0.154461D+03
      2 -0.111769D-03  0.116491D+03
      3  0.373803D-03  0.980392D-03  0.116488D+03
 Isotropic polarizability for W=    0.105471      129.15 Bohr**3.
 SCF Polarizability for W=    0.210941:
                1             2             3 
      1  0.325682D+03
      2 -0.620478D-03  0.131486D+03
      3  0.263304D-02 -0.453384D-01  0.131534D+03
 Isotropic polarizability for W=    0.210941      196.23 Bohr**3.
 SCF Static Hyperpolarizability:
 K=  1 block:
                1 
      1  0.313122D-02
 K=  2 block:
                1             2 
      1  0.837579D+01
      2  0.281470D-04  0.109256D+02
 K=  3 block:
                1             2             3 
      1  0.275974D-01
      2 -0.142157D-02 -0.184454D-01
      3  0.830806D-03  0.359844D+01  0.436502D-01
 SCF Beta(-W,W;0) for W=    0.105471:
 K=  1 block:
                1             2             3 
      1  0.451704D-02
      2  0.133734D+02 -0.602034D-03
      3  0.650559D-01 -0.230961D-02  0.124598D-02
 K=  2 block:
                1             2             3 
      1  0.145793D+02
      2 -0.205542D-03  0.157105D+02
      3 -0.417907D-02 -0.258498D-01  0.518870D+01
 K=  3 block:
                1             2             3 
      1  0.578417D-01
      2 -0.789566D-03 -0.237143D-01
      3  0.151558D-02  0.516178D+01  0.408071D-01
 SCF Beta(W,W;-2W) for W=    0.105471:
 K=  1 block:
                1             2             3 
      1  0.359067D-01
      2  0.718079D+02  0.179240D-01
      3  0.150992D-01 -0.435269D-02  0.515770D-02
 K=  2 block:
                1             2             3 
      1  0.152591D+02
      2 -0.731428D-02  0.328357D+02
      3 -0.244211D+00  0.242425D+01 -0.525359D+02
 K=  3 block:
                1             2             3 
      1 -0.552823D+00
      2  0.207111D+00  0.247616D+01
      3  0.460631D-02  0.338117D+02 -0.305207D+01
 SCF Beta(-W,W;0) for W=    0.210941:
 K=  1 block:
                1             2             3 
      1  0.850239D-01
      2  0.285452D+03  0.226601D+00
      3  0.979209D+00  0.240178D+00 -0.232128D+00
 K=  2 block:
                1             2             3 
      1  0.436086D+03
      2  0.243690D+00  0.267656D+03
      3  0.274389D+00 -0.151385D+03  0.449538D+03
 K=  3 block:
                1             2             3 
      1  0.156073D+01
      2 -0.137146D+00 -0.146645D+03
      3 -0.314226D+00  0.432880D+03  0.166777D+03
 End of Minotr F.D. properties on file   721 Mask=      31 NFrqRd=     2 NDeriv=     1 ND12= 1 LenFil=      94:
 Frequencies=    0.000000    0.105471
 Property number 1 -- Alpha(-w,w) frequency  1    0.000000:
                 1             2             3 
      1   0.139265D+03 -0.101348D-03  0.272175D-03
      2  -0.101348D-03  0.110798D+03  0.692929D-03
      3   0.272175D-03  0.692929D-03  0.110796D+03
 Property number 1 -- Alpha(-w,w) frequency  2    0.105471:
                 1             2             3 
      1   0.154461D+03 -0.111769D-03  0.373803D-03
      2  -0.111769D-03  0.116491D+03  0.980392D-03
      3   0.373803D-03  0.980392D-03  0.116488D+03
 Property number 5 -- Beta(-w,w,0) frequency  1    0.000000:
                 1 
      1   0.313122D-02
      2   0.837579D+01
      3   0.281470D-04
      4   0.275974D-01
      5  -0.142157D-02
      6   0.830806D-03
      7   0.837579D+01
      8   0.281470D-04
      9   0.109256D+02
     10  -0.142157D-02
     11  -0.184454D-01
     12   0.359844D+01
     13   0.275974D-01
     14  -0.142157D-02
     15  -0.184454D-01
     16   0.830806D-03
     17   0.359844D+01
     18   0.436502D-01
 Property number 5 -- Beta(-w,w,0) frequency  2    0.105471:
                 1 
      1   0.451704D-02
      2   0.133734D+02
      3  -0.602034D-03
      4   0.650559D-01
      5  -0.230961D-02
      6   0.124598D-02
      7   0.145793D+02
      8  -0.205542D-03
      9   0.157105D+02
     10  -0.417907D-02
     11  -0.258498D-01
     12   0.518870D+01
     13   0.578417D-01
     14  -0.789566D-03
     15  -0.237143D-01
     16   0.151558D-02
     17   0.516178D+01
     18   0.408071D-01
 Property number 6 -- Beta(w,w,-2w) frequency  1    0.000000:
                 1 
      1   0.313122D-02
      2   0.837579D+01
      3   0.281470D-04
      4   0.275974D-01
      5  -0.142157D-02
      6   0.830806D-03
      7   0.837579D+01
      8   0.281470D-04
      9   0.109256D+02
     10  -0.142157D-02
     11  -0.184454D-01
     12   0.359844D+01
     13   0.275974D-01
     14  -0.142157D-02
     15  -0.184454D-01
     16   0.830806D-03
     17   0.359844D+01
     18   0.436502D-01
 Property number 6 -- Beta(w,w,-2w) frequency  2    0.105471:
                 1 
      1   0.359067D-01
      2   0.718079D+02
      3   0.179240D-01
      4   0.150992D-01
      5  -0.435269D-02
      6   0.515770D-02
      7   0.152591D+02
      8  -0.731428D-02
      9   0.328357D+02
     10  -0.244211D+00
     11   0.242425D+01
     12  -0.525359D+02
     13  -0.552823D+00
     14   0.207111D+00
     15   0.247616D+01
     16   0.460631D-02
     17   0.338117D+02
     18  -0.305207D+01
 End of Minotr F.D. properties file   722 does not exist.
 End of Minotr F.D. properties file   788 does not exist.
 Leave Link 1002 at Sun Apr 11 18:21:10 2021, MaxMem=  1048576000 cpu:     28692.9
 (Enter /usr/local/g09/l601.exe)
 Copying SCF densities to generalized density rwf, IOpCl= 0 IROHF=0.

 **********************************************************************

            Population analysis using the SCF density.

 **********************************************************************

 Alpha  occ. eigenvalues -- -256.33215 -30.10132 -25.93988 -25.92058 -25.92057
 Alpha  occ. eigenvalues --  -10.22814 -10.22813 -10.22765 -10.22764 -10.22749
 Alpha  occ. eigenvalues --  -10.22749 -10.22706 -10.22706 -10.22667 -10.22666
 Alpha  occ. eigenvalues --   -3.44961  -2.23693  -2.19176  -2.19176  -0.92203
 Alpha  occ. eigenvalues --   -0.90475  -0.73481  -0.73481  -0.73382  -0.73382
 Alpha  occ. eigenvalues --   -0.56430  -0.56391  -0.55527  -0.55486  -0.55477
 Alpha  occ. eigenvalues --   -0.54034  -0.43035  -0.42107  -0.42106  -0.41176
 Alpha  occ. eigenvalues --   -0.41176  -0.39330  -0.39314  -0.38824  -0.38810
 Alpha  occ. eigenvalues --   -0.37604  -0.28076  -0.28076  -0.26258  -0.26257
 Alpha  occ. eigenvalues --   -0.24482  -0.21460  -0.21457
 Alpha virt. eigenvalues --    0.00194   0.00196   0.01276   0.02692   0.02736
 Alpha virt. eigenvalues --    0.03476   0.04107   0.04170   0.04967   0.05626
 Alpha virt. eigenvalues --    0.05640   0.05897   0.05926   0.06184   0.06259
 Alpha virt. eigenvalues --    0.08952   0.09125   0.09162   0.09961   0.09968
 Alpha virt. eigenvalues --    0.11207   0.11214   0.13586   0.13597   0.13913
 Alpha virt. eigenvalues --    0.13916   0.14132   0.14562   0.14567   0.17274
 Alpha virt. eigenvalues --    0.17415   0.17956   0.17960   0.18214   0.18279
 Alpha virt. eigenvalues --    0.18327   0.19010   0.19023   0.19272   0.19325
 Alpha virt. eigenvalues --    0.19641   0.21029   0.21359   0.21840   0.21853
 Alpha virt. eigenvalues --    0.23247   0.23330   0.24056   0.24059   0.25313
 Alpha virt. eigenvalues --    0.26002   0.26738   0.26749   0.26760   0.26761
 Alpha virt. eigenvalues --    0.29073   0.29182   0.30697   0.31258   0.31307
 Alpha virt. eigenvalues --    0.34624   0.34625   0.35874   0.35891   0.38916
 Alpha virt. eigenvalues --    0.40169   0.40228   0.40676   0.40680   0.41902
 Alpha virt. eigenvalues --    0.41929   0.43763   0.44514   0.45679   0.48075
 Alpha virt. eigenvalues --    0.48344   0.52533   0.52536   0.55986   0.55993
 Alpha virt. eigenvalues --    0.56239   0.56240   0.58904   0.58987   0.61406
 Alpha virt. eigenvalues --    0.61469   0.61474   0.61479   0.61549   0.61916
 Alpha virt. eigenvalues --    0.64265   0.64277   0.64414   0.64416   0.65756
 Alpha virt. eigenvalues --    0.65758   0.67121   0.67122   0.69894   0.70221
 Alpha virt. eigenvalues --    0.70263   0.70296   0.70422   0.71939   0.72028
 Alpha virt. eigenvalues --    0.72251   0.72351   0.72362   0.73420   0.74485
 Alpha virt. eigenvalues --    0.74556   0.75758   0.78648   0.78649   0.82064
 Alpha virt. eigenvalues --    0.86803   0.86805   0.87162   0.87163   0.87547
 Alpha virt. eigenvalues --    0.88960   0.89006   0.97115   0.97530   0.98162
 Alpha virt. eigenvalues --    0.98297   1.01073   1.01073   1.02637   1.02669
 Alpha virt. eigenvalues --    1.09192   1.09235   1.09795   1.09796   1.12375
 Alpha virt. eigenvalues --    1.12375   1.16813   1.16845   1.19361   1.25617
 Alpha virt. eigenvalues --    1.25626   1.25693   1.27075   1.27103   1.27278
 Alpha virt. eigenvalues --    1.27279   1.28829   1.28832   1.30524   1.30601
 Alpha virt. eigenvalues --    1.33067   1.34068   1.34070   1.34466   1.39887
 Alpha virt. eigenvalues --    1.41880   1.41882   1.41957   1.41959   1.42214
 Alpha virt. eigenvalues --    1.42279   1.43386   1.43504   1.45704   1.46922
 Alpha virt. eigenvalues --    1.46947   1.49156   1.49168   1.49585   1.53891
 Alpha virt. eigenvalues --    1.55326   1.58598   1.58599   1.60004   1.60112
 Alpha virt. eigenvalues --    1.60393   1.60412   1.65082   1.65083   1.68967
 Alpha virt. eigenvalues --    1.78618   1.78618   1.81433   1.81433   1.95417
 Alpha virt. eigenvalues --    1.95417   2.01924   2.12492   2.12611   2.13976
 Alpha virt. eigenvalues --    2.14073   2.16248   2.16305   2.16706   2.16762
 Alpha virt. eigenvalues --    2.28291   2.28292   2.30841   2.32426   2.46384
 Alpha virt. eigenvalues --    2.46387   2.49324   2.51847   2.54559   2.54560
 Alpha virt. eigenvalues --    2.65350   2.65352   2.65603   2.65605   2.67425
 Alpha virt. eigenvalues --    2.72789   2.72913   2.73340   2.79907   2.82266
 Alpha virt. eigenvalues --    2.82267   2.84209   2.85990   2.86097   2.89165
 Alpha virt. eigenvalues --    2.89166   2.94275   2.94298   3.00965   3.00989
 Alpha virt. eigenvalues --    3.01397   3.01398   3.09391   3.09398   3.10193
 Alpha virt. eigenvalues --    3.10195   3.10703   3.10719   3.15560   3.20908
 Alpha virt. eigenvalues --    3.20913   3.22867   3.22898   3.23185   3.23186
 Alpha virt. eigenvalues --    3.25092   3.25094   3.35589   3.36904   3.36933
 Alpha virt. eigenvalues --    3.37006   3.43051   3.43052   3.44817   3.44823
 Alpha virt. eigenvalues --    3.48094   3.54268   3.54297   3.55530   3.55531
 Alpha virt. eigenvalues --    3.57486   3.57487   3.59882   3.59918   3.62576
 Alpha virt. eigenvalues --    3.62623   3.63419   3.64461   3.64467   3.64511
 Alpha virt. eigenvalues --    3.68046   3.68232   3.68740   3.68741   3.69249
 Alpha virt. eigenvalues --    3.69250   3.76837   3.76838   3.78013   3.78045
 Alpha virt. eigenvalues --    3.79143   3.79145   3.80414   3.80447   3.80453
 Alpha virt. eigenvalues --    3.81374   3.81886   3.81888   3.84040   3.85344
 Alpha virt. eigenvalues --    3.85344   3.86476   3.96156   3.96221   4.00119
 Alpha virt. eigenvalues --    4.00145   4.01058   4.06856   4.06857   4.10467
 Alpha virt. eigenvalues --    4.12955   4.12956   4.27588   4.27601   4.29595
 Alpha virt. eigenvalues --    4.29635   4.36549   4.56877   4.56877   4.61173
 Alpha virt. eigenvalues --    4.61232   4.74538   4.74572   4.75823   4.75826
 Alpha virt. eigenvalues --    4.85945   4.85946   4.87570   4.87571   5.07373
 Alpha virt. eigenvalues --    5.15163   5.15397  23.90685  24.01226  24.09353
 Alpha virt. eigenvalues --   24.09402  24.14500  24.14543  24.25967  24.25968
 Alpha virt. eigenvalues --   24.37779  24.37780
 Electronic spatial extent (au):  <R**2>=           1342.4561
 Charge=              0.0000 electrons
 Dipole moment (field-independent basis, Debye):
    X=              0.0000    Y=             -0.1881    Z=              0.0004  Tot=              0.1881
 Quadrupole moment (field-independent basis, Debye-Ang):
   XX=            -81.1154   YY=            -67.0495   ZZ=            -67.0499
   XY=             -0.0001   XZ=             -0.0002   YZ=              0.0003
 Traceless Quadrupole moment (field-independent basis, Debye-Ang):
   XX=             -9.3772   YY=              4.6888   ZZ=              4.6884
   XY=             -0.0001   XZ=             -0.0002   YZ=              0.0003
 Octapole moment (field-independent basis, Debye-Ang**2):
  XXX=             -0.0002  YYY=             -0.9996  ZZZ=              0.0003  XYY=             -0.0008
  XXY=             -0.6716  XXZ=             -0.0057  XZZ=              0.0006  YZZ=             -0.3321
  YYZ=             -0.0007  XYZ=             -0.0007
 Hexadecapole moment (field-independent basis, Debye-Ang**3):
 XXXX=          -1183.1302 YYYY=           -378.8070 ZZZZ=           -378.8030 XXXY=             -0.0010
 XXXZ=             -0.0024 YYYX=             -0.0002 YYYZ=             -0.0785 ZZZX=             -0.0011
 ZZZY=              0.0781 XXYY=           -239.1734 XXZZ=           -239.1707 YYZZ=           -126.0854
 XXYZ=             -0.0027 YYXZ=             -0.0003 ZZXY=             -0.0009
 N-N= 9.192345822002D+02 E-N=-5.744136538964D+03  KE= 1.646810484164D+03
  Exact polarizability: 139.265   0.000 110.798   0.000   0.001 110.796
 Approx polarizability: 216.994   0.000 182.962   0.000   0.000 182.960
 No NMR shielding tensors so no spin-rotation constants.
 Leave Link  601 at Sun Apr 11 18:21:10 2021, MaxMem=  1048576000 cpu:         5.3
 (Enter /usr/local/g09/l106.exe)
 NDeriv=   3 NFrqRd=  2 NDerD0=   0 MskFDP=      31 MskDFD=      31 MskDF0=       0
 Re-enter D2Numr: IAtom=  0 IXYZ=2 IStep= 2.
 Leave Link  106 at Sun Apr 11 18:21:10 2021, MaxMem=  1048576000 cpu:         4.5
 (Enter /usr/local/g09/l301.exe)
 Basis read from rwf:  (5D, 7F)
 Pseudo-potential data read from rwf file.
 The following finite field(s) will be applied:
 An electric field of              0.0000 -0.0003  0.0000
   375 basis functions,   602 primitive gaussians,   402 cartesian basis functions
    48 alpha electrons       48 beta electrons
       nuclear repulsion energy       919.2345822002 Hartrees.
 IExCor= 1009 DFT=T Ex+Corr=PBE1PBE ExCW=0 ScaHFX=  0.250000
 ScaDFX=  0.750000  0.750000  1.000000  1.000000 ScalE2=  1.000000  1.000000
 IRadAn=      0 IRanWt=     -1 IRanGd=            0 ICorTp=0 IEmpDi=  4
 NAtoms=   21 NActive=   21 NUniq=   21 SFac= 1.00D+00 NAtFMM=   60 NAOKFM=F Big=F
 Integral buffers will be    131072 words long.
 Raffenetti 2 integral format.
 Two-electron integral symmetry is turned off.
 No density basis found on file   724.
 Leave Link  301 at Sun Apr 11 18:21:10 2021, MaxMem=  1048576000 cpu:         1.5
 (Enter /usr/local/g09/l302.exe)
 NPDir=0 NMtPBC=     1 NCelOv=     1 NCel=       1 NClECP=     1 NCelD=      1
         NCelK=      1 NCelE2=     1 NClLst=     1 CellRange=     0.0.
 One-electron integrals computed using PRISM.
   1 Symmetry operations used in ECPInt.
 ECPInt:  NShTT=    7875 NPrTT=   28235 LenC2=    7866 LenP2D=   21150.
 LDataN:  DoStor=T MaxTD1= 6 Len=  172
 NBasis=   375 RedAO= T EigKep=  3.67D-06  NBF=   375
 NBsUse=   375 1.00D-06 EigRej= -1.00D+00 NBFU=   375
 Precomputing XC quadrature grid using
 IXCGrd= 4 IRadAn=           0 IRanWt=          -1 IRanGd=           0 AccXCQ= 0.00D+00.
 Generated NRdTot=       0 NPtTot=           0 NUsed=           0 NTot=          32
 NSgBfM=   402   402   402   402   402 MxSgAt=    21 MxSgA2=    21.
 Leave Link  302 at Sun Apr 11 18:21:11 2021, MaxMem=  1048576000 cpu:         8.9
 (Enter /usr/local/g09/l303.exe)
 DipDrv:  MaxL=1.
 The nuclear repulsion energy is now       919.2345822002 hartrees.
 Leave Link  303 at Sun Apr 11 18:21:11 2021, MaxMem=  1048576000 cpu:         1.9
 (Enter /usr/local/g09/l401.exe)
 Initial guess from the checkpoint file:  "ferr_pbe0.chk"
 B after Tr=     0.000000    0.000000    0.000000
         Rot=    1.000000    0.000000    0.000000    0.000000 Ang=   0.00 deg.
 Guess basis will be translated and rotated to current coordinates.
 JPrj=2 DoOrth=T DoCkMO=T.
 Leave Link  401 at Sun Apr 11 18:21:11 2021, MaxMem=  1048576000 cpu:        10.2
 (Enter /usr/local/g09/l502.exe)
 Closed shell SCF:
 Using DIIS extrapolation, IDIIS=  1040.
 Two-electron integral symmetry not used.
 IVT=      515866 IEndB=      515866 NGot=  1048576000 MDV=  1048238781
 LenX=  1048238781 LenY=  1048076736
 Requested convergence on RMS density matrix=1.00D-10 within 128 cycles.
 Requested convergence on MAX density matrix=1.00D-08.
 Requested convergence on             energy=1.00D-08.
 No special actions if energy rises.
 Fock matrices will be formed incrementally for  20 cycles.

 Cycle   1  Pass 1  IDiag  1:
 FoFJK:  IHMeth= 1 ICntrl=       0 DoSepK=F KAlg= 0 I1Cent=   0 FoldK=F
 IRaf= 980000000 NMat=   1 IRICut=       1 DoRegI=T DoRafI=F ISym2E= 0.
 FoFCou: FMM=F IPFlag=           0 FMFlag=      100000 FMFlg1=           0
         NFxFlg=           0 DoJE=F BraDBF=F KetDBF=F FulRan=T
         wScrn=  0.000000 ICntrl=       0 IOpCl=  0 I1Cent=           0 NGrid=           0
         NMat0=    1 NMatS0=      1 NMatT0=    0 NMatD0=    1 NMtDS0=    0 NMtDT0=    0
 Symmetry not used in FoFCou.
 E= -1650.24294435588    
 DIIS: error= 1.34D-04 at cycle   1 NSaved=   1.
 NSaved= 1 IEnMin= 1 EnMin= -1650.24294435588     IErMin= 1 ErrMin= 1.34D-04
 ErrMax= 1.34D-04  0.00D+00 EMaxC= 1.00D-01 BMatC= 2.81D-06 BMatP= 2.81D-06
 IDIUse=3 WtCom= 9.99D-01 WtEn= 1.34D-03
 Coeff-Com:  0.100D+01
 Coeff-En:   0.100D+01
 Coeff:      0.100D+01
 Gap=     0.451 Goal=   None    Shift=    0.000
 RMSDP=1.66D-04 MaxDP=9.58D-03              OVMax= 1.33D-03

 Cycle   2  Pass 1  IDiag  1:
 RMSU=  1.66D-04    CP:  1.00D+00
 E= -1650.24294491976     Delta-E=       -0.000000563884 Rises=F Damp=F
 DIIS: error= 1.68D-04 at cycle   2 NSaved=   2.
 NSaved= 2 IEnMin= 2 EnMin= -1650.24294491976     IErMin= 1 ErrMin= 1.34D-04
 ErrMax= 1.68D-04  0.00D+00 EMaxC= 1.00D-01 BMatC= 5.05D-06 BMatP= 2.81D-06
 IDIUse=3 WtCom= 4.35D-01 WtEn= 5.65D-01
 Coeff-Com:  0.583D+00 0.417D+00
 Coeff-En:   0.471D+00 0.529D+00
 Coeff:      0.520D+00 0.480D+00
 Gap=     0.217 Goal=   None    Shift=    0.000
 RMSDP=8.23D-05 MaxDP=4.11D-03 DE=-5.64D-07 OVMax= 7.32D-04

 Cycle   3  Pass 1  IDiag  1:
 RMSU=  3.03D-05    CP:  1.00D+00  5.40D-01
 E= -1650.24294986099     Delta-E=       -0.000004941229 Rises=F Damp=F
 DIIS: error= 4.24D-05 at cycle   3 NSaved=   3.
 NSaved= 3 IEnMin= 3 EnMin= -1650.24294986099     IErMin= 3 ErrMin= 4.24D-05
 ErrMax= 4.24D-05  0.00D+00 EMaxC= 1.00D-01 BMatC= 7.44D-07 BMatP= 2.81D-06
 IDIUse=1 WtCom= 1.00D+00 WtEn= 0.00D+00
 Coeff-Com:  0.183D+00 0.283D+00 0.534D+00
 Coeff:      0.183D+00 0.283D+00 0.534D+00
 Gap=     0.217 Goal=   None    Shift=    0.000
 RMSDP=8.57D-06 MaxDP=5.07D-04 DE=-4.94D-06 OVMax= 1.61D-04

 Cycle   4  Pass 1  IDiag  1:
 RMSU=  3.75D-06    CP:  1.00D+00  5.82D-01  9.00D-01
 E= -1650.24295050832     Delta-E=       -0.000000647336 Rises=F Damp=F
 DIIS: error= 3.13D-06 at cycle   4 NSaved=   4.
 NSaved= 4 IEnMin= 4 EnMin= -1650.24295050832     IErMin= 4 ErrMin= 3.13D-06
 ErrMax= 3.13D-06  0.00D+00 EMaxC= 1.00D-01 BMatC= 3.24D-09 BMatP= 7.44D-07
 IDIUse=1 WtCom= 1.00D+00 WtEn= 0.00D+00
 Coeff-Com:  0.107D-01 0.304D-01 0.837D-01 0.875D+00
 Coeff:      0.107D-01 0.304D-01 0.837D-01 0.875D+00
 Gap=     0.217 Goal=   None    Shift=    0.000
 RMSDP=1.18D-06 MaxDP=6.08D-05 DE=-6.47D-07 OVMax= 2.83D-05

 Cycle   5  Pass 1  IDiag  1:
 RMSU=  8.94D-07    CP:  1.00D+00  5.87D-01  9.07D-01  9.53D-01
 E= -1650.24295050394     Delta-E=        0.000000004381 Rises=F Damp=F
 DIIS: error= 1.05D-05 at cycle   5 NSaved=   5.
 NSaved= 5 IEnMin= 4 EnMin= -1650.24295050832     IErMin= 4 ErrMin= 3.13D-06
 ErrMax= 1.05D-05  0.00D+00 EMaxC= 1.00D-01 BMatC= 1.51D-08 BMatP= 3.24D-09
 IDIUse=1 WtCom= 1.00D+00 WtEn= 0.00D+00
 Coeff-Com:  0.448D-02 0.185D-01 0.543D-01 0.712D+00 0.211D+00
 Coeff:      0.448D-02 0.185D-01 0.543D-01 0.712D+00 0.211D+00
 Gap=     0.217 Goal=   None    Shift=    0.000
 RMSDP=5.64D-07 MaxDP=2.87D-05 DE= 4.38D-09 OVMax= 2.61D-05

 Cycle   6  Pass 1  IDiag  1:
 RMSU=  4.80D-07    CP:  1.00D+00  5.87D-01  9.09D-01  9.62D-01  7.32D-01
 E= -1650.24295050940     Delta-E=       -0.000000005454 Rises=F Damp=F
 DIIS: error= 5.10D-06 at cycle   6 NSaved=   6.
 NSaved= 6 IEnMin= 6 EnMin= -1650.24295050940     IErMin= 4 ErrMin= 3.13D-06
 ErrMax= 5.10D-06  0.00D+00 EMaxC= 1.00D-01 BMatC= 3.66D-09 BMatP= 3.24D-09
 IDIUse=1 WtCom= 1.00D+00 WtEn= 0.00D+00
 Coeff-Com: -0.217D-02 0.650D-03 0.836D-03 0.186D+00 0.290D+00 0.525D+00
 Coeff:     -0.217D-02 0.650D-03 0.836D-03 0.186D+00 0.290D+00 0.525D+00
 Gap=     0.217 Goal=   None    Shift=    0.000
 RMSDP=2.83D-07 MaxDP=1.56D-05 DE=-5.45D-09 OVMax= 1.14D-05

 Cycle   7  Pass 1  IDiag  1:
 RMSU=  9.51D-08    CP:  1.00D+00  5.86D-01  9.13D-01  9.82D-01  7.91D-01
                    CP:  6.51D-01
 E= -1650.24295051116     Delta-E=       -0.000000001764 Rises=F Damp=F
 DIIS: error= 2.46D-07 at cycle   7 NSaved=   7.
 NSaved= 7 IEnMin= 7 EnMin= -1650.24295051116     IErMin= 7 ErrMin= 2.46D-07
 ErrMax= 2.46D-07  0.00D+00 EMaxC= 1.00D-01 BMatC= 1.22D-11 BMatP= 3.24D-09
 IDIUse=1 WtCom= 1.00D+00 WtEn= 0.00D+00
 Coeff-Com: -0.394D-03-0.307D-03-0.895D-03 0.279D-02 0.599D-01 0.134D+00
 Coeff-Com:  0.805D+00
 Coeff:     -0.394D-03-0.307D-03-0.895D-03 0.279D-02 0.599D-01 0.134D+00
 Coeff:      0.805D+00
 Gap=     0.217 Goal=   None    Shift=    0.000
 RMSDP=8.40D-08 MaxDP=3.93D-06 DE=-1.76D-09 OVMax= 1.60D-06

 Cycle   8  Pass 1  IDiag  1:
 RMSU=  2.36D-08    CP:  1.00D+00  5.86D-01  9.12D-01  9.81D-01  8.16D-01
                    CP:  6.87D-01  1.00D+00
 E= -1650.24295051116     Delta-E=        0.000000000003 Rises=F Damp=F
 DIIS: error= 5.54D-08 at cycle   8 NSaved=   8.
 NSaved= 8 IEnMin= 7 EnMin= -1650.24295051116     IErMin= 8 ErrMin= 5.54D-08
 ErrMax= 5.54D-08  0.00D+00 EMaxC= 1.00D-01 BMatC= 2.75D-13 BMatP= 1.22D-11
 IDIUse=1 WtCom= 1.00D+00 WtEn= 0.00D+00
 Coeff-Com:  0.348D-04-0.134D-03 0.709D-04-0.655D-02-0.112D-01-0.216D-01
 Coeff-Com: -0.179D-01 0.106D+01
 Coeff:      0.348D-04-0.134D-03 0.709D-04-0.655D-02-0.112D-01-0.216D-01
 Coeff:     -0.179D-01 0.106D+01
 Gap=     0.217 Goal=   None    Shift=    0.000
 RMSDP=1.32D-08 MaxDP=5.79D-07 DE= 2.73D-12 OVMax= 8.34D-07

 Cycle   9  Pass 1  IDiag  1:
 RMSU=  6.15D-09    CP:  1.00D+00  5.86D-01  9.12D-01  9.80D-01  8.22D-01
                    CP:  6.91D-01  1.07D+00  1.27D+00
 E= -1650.24295051117     Delta-E=       -0.000000000012 Rises=F Damp=F
 DIIS: error= 1.91D-08 at cycle   9 NSaved=   9.
 NSaved= 9 IEnMin= 9 EnMin= -1650.24295051117     IErMin= 9 ErrMin= 1.91D-08
 ErrMax= 1.91D-08  0.00D+00 EMaxC= 1.00D-01 BMatC= 3.61D-14 BMatP= 2.75D-13
 IDIUse=1 WtCom= 1.00D+00 WtEn= 0.00D+00
 Coeff-Com:  0.276D-04-0.213D-04 0.968D-04-0.776D-03-0.517D-02-0.102D-01
 Coeff-Com: -0.506D-01 0.116D+00 0.950D+00
 Coeff:      0.276D-04-0.213D-04 0.968D-04-0.776D-03-0.517D-02-0.102D-01
 Coeff:     -0.506D-01 0.116D+00 0.950D+00
 Gap=     0.217 Goal=   None    Shift=    0.000
 RMSDP=5.41D-09 MaxDP=3.21D-07 DE=-1.18D-11 OVMax= 2.47D-07

 Cycle  10  Pass 1  IDiag  1:
 RMSU=  3.15D-09    CP:  1.00D+00  5.86D-01  9.12D-01  9.80D-01  8.21D-01
                    CP:  6.95D-01  1.08D+00  1.39D+00  9.38D-01
 E= -1650.24295051112     Delta-E=        0.000000000046 Rises=F Damp=F
 DIIS: error= 8.77D-09 at cycle  10 NSaved=  10.
 NSaved=10 IEnMin= 9 EnMin= -1650.24295051117     IErMin=10 ErrMin= 8.77D-09
 ErrMax= 8.77D-09  0.00D+00 EMaxC= 1.00D-01 BMatC= 1.74D-14 BMatP= 3.61D-14
 IDIUse=1 WtCom= 1.00D+00 WtEn= 0.00D+00
 Coeff-Com:  0.102D-04 0.423D-05 0.455D-04 0.447D-03-0.113D-02-0.290D-02
 Coeff-Com: -0.248D-01-0.756D-01 0.506D+00 0.598D+00
 Coeff:      0.102D-04 0.423D-05 0.455D-04 0.447D-03-0.113D-02-0.290D-02
 Coeff:     -0.248D-01-0.756D-01 0.506D+00 0.598D+00
 Gap=     0.217 Goal=   None    Shift=    0.000
 RMSDP=2.31D-09 MaxDP=1.48D-07 DE= 4.64D-11 OVMax= 6.55D-08

 Cycle  11  Pass 1  IDiag  1:
 RMSU=  4.22D-10    CP:  1.00D+00  5.86D-01  9.12D-01  9.80D-01  8.22D-01
                    CP:  6.94D-01  1.09D+00  1.41D+00  1.13D+00  6.27D-01
 E= -1650.24295051118     Delta-E=       -0.000000000056 Rises=F Damp=F
 DIIS: error= 8.35D-10 at cycle  11 NSaved=  11.
 NSaved=11 IEnMin=11 EnMin= -1650.24295051118     IErMin=11 ErrMin= 8.35D-10
 ErrMax= 8.35D-10  0.00D+00 EMaxC= 1.00D-01 BMatC= 1.42D-16 BMatP= 1.74D-14
 IDIUse=1 WtCom= 1.00D+00 WtEn= 0.00D+00
 Coeff-Com: -0.696D-06 0.253D-05-0.122D-05 0.113D-03 0.171D-03 0.310D-03
 Coeff-Com: -0.137D-03-0.181D-01 0.987D-02 0.871D-01 0.921D+00
 Coeff:     -0.696D-06 0.253D-05-0.122D-05 0.113D-03 0.171D-03 0.310D-03
 Coeff:     -0.137D-03-0.181D-01 0.987D-02 0.871D-01 0.921D+00
 Gap=     0.217 Goal=   None    Shift=    0.000
 RMSDP=4.84D-10 MaxDP=3.23D-08 DE=-5.64D-11 OVMax= 1.08D-08

 Cycle  12  Pass 1  IDiag  1:
 RMSU=  1.43D-10    CP:  1.00D+00  5.86D-01  9.12D-01  9.80D-01  8.22D-01
                    CP:  6.94D-01  1.09D+00  1.41D+00  1.13D+00  6.68D-01
                    CP:  9.03D-01
 E= -1650.24295051114     Delta-E=        0.000000000039 Rises=F Damp=F
 DIIS: error= 3.05D-10 at cycle  12 NSaved=  12.
 NSaved=12 IEnMin=11 EnMin= -1650.24295051118     IErMin=12 ErrMin= 3.05D-10
 ErrMax= 3.05D-10  0.00D+00 EMaxC= 1.00D-01 BMatC= 2.30D-17 BMatP= 1.42D-16
 IDIUse=1 WtCom= 1.00D+00 WtEn= 0.00D+00
 Coeff-Com: -0.497D-06 0.120D-05-0.141D-05 0.453D-04 0.103D-03 0.203D-03
 Coeff-Com:  0.496D-03-0.715D-02-0.648D-02 0.288D-01 0.443D+00 0.541D+00
 Coeff:     -0.497D-06 0.120D-05-0.141D-05 0.453D-04 0.103D-03 0.203D-03
 Coeff:      0.496D-03-0.715D-02-0.648D-02 0.288D-01 0.443D+00 0.541D+00
 Gap=     0.217 Goal=   None    Shift=    0.000
 RMSDP=1.28D-10 MaxDP=6.83D-09 DE= 3.91D-11 OVMax= 1.57D-09

 Cycle  13  Pass 1  IDiag  1:
 RMSU=  4.21D-11    CP:  1.00D+00  5.86D-01  9.12D-01  9.80D-01  8.22D-01
                    CP:  6.94D-01  1.09D+00  1.41D+00  1.13D+00  6.67D-01
                    CP:  9.85D-01  1.93D-01
 E= -1650.24295051118     Delta-E=       -0.000000000034 Rises=F Damp=F
 DIIS: error= 1.25D-10 at cycle  13 NSaved=  13.
 NSaved=13 IEnMin=11 EnMin= -1650.24295051118     IErMin=13 ErrMin= 1.25D-10
 ErrMax= 1.25D-10  0.00D+00 EMaxC= 1.00D-01 BMatC= 4.79D-18 BMatP= 2.30D-17
 IDIUse=1 WtCom= 1.00D+00 WtEn= 0.00D+00
 Coeff-Com: -0.154D-06 0.302D-06-0.640D-06 0.702D-05 0.302D-04 0.637D-04
 Coeff-Com:  0.340D-03-0.103D-02-0.598D-02 0.139D-02 0.101D+00 0.326D+00
 Coeff-Com:  0.578D+00
 Coeff:     -0.154D-06 0.302D-06-0.640D-06 0.702D-05 0.302D-04 0.637D-04
 Coeff:      0.340D-03-0.103D-02-0.598D-02 0.139D-02 0.101D+00 0.326D+00
 Coeff:      0.578D+00
 Gap=     0.217 Goal=   None    Shift=    0.000
 RMSDP=4.67D-11 MaxDP=2.43D-09 DE=-3.37D-11 OVMax= 5.05D-10

 SCF Done:  E(RPBE1PBE) =  -1650.24295051     A.U. after   13 cycles
            NFock= 13  Conv=0.47D-10     -V/T= 2.0021
 KE= 1.646810491797D+03 PE=-5.744136693871D+03 EE= 1.527848669362D+03
 Leave Link  502 at Sun Apr 11 18:22:02 2021, MaxMem=  1048576000 cpu:      1264.2
 (Enter /usr/local/g09/l801.exe)
 DoSCS=F DFT=T ScalE2(SS,OS)=  1.000000  1.000000
 Range of M.O.s used for correlation:     1   375
 NBasis=   375 NAE=    48 NBE=    48 NFC=     0 NFV=     0
 NROrb=    375 NOA=    48 NOB=    48 NVA=   327 NVB=   327

 **** Warning!!: The largest alpha MO coefficient is  0.10997454D+03

 Leave Link  801 at Sun Apr 11 18:22:02 2021, MaxMem=  1048576000 cpu:         1.0
 (Enter /usr/local/g09/l1002.exe)
 Minotr:  Closed shell wavefunction.
          Direct CPHF calculation.
          Differentiating once with respect to electric field.
                with respect to dipole field.
          Electric field/nuclear overlap derivatives assumed to be zero.
          Requested convergence is 1.0D-10 RMS, and 1.0D-09 maximum.
          NewPWx=F KeepS1=T KeepF1=T KeepIn=T MapXYZ=F SortEE=F KeepMc=T.
          MDV=    1048575453 using IRadAn=       1.
 Generate precomputed XC quadrature information.
          Solving linear equations separately, MaxMat=       0.
          Doing perturbations at frequencies    0.000000    0.105471    0.210941
          There are     9 degrees of freedom in the 1st order CPHF.  IDoFFX=0 NUNeed=     9.
 LinEq1:  Iter=  0 NonCon=     9 RMS=2.92D-01 Max=3.03D+01 NDo=     9
 AX will form     9 AO Fock derivatives at one time.
 FoFJK:  IHMeth= 1 ICntrl=       0 DoSepK=F KAlg= 0 I1Cent=   0 FoldK=F
 IRaf= 980000000 NMat=  18 IRICut=      22 DoRegI=T DoRafI=T ISym2E= 0.
 FoFCou: FMM=F IPFlag=           0 FMFlag=      100000 FMFlg1=           0
         NFxFlg=           0 DoJE=F BraDBF=F KetDBF=F FulRan=T
         wScrn=  0.000000 ICntrl=       0 IOpCl=  0 I1Cent=           0 NGrid=           0
         NMat0=   18 NMatS0=      9 NMatT0=    0 NMatD0=   18 NMtDS0=    0 NMtDT0=    0
 Symmetry not used in FoFCou.
 LinEq1:  Iter=  1 NonCon=     9 RMS=1.67D-01 Max=6.55D+00 NDo=     9
 LinEq1:  Iter=  2 NonCon=     9 RMS=2.50D-01 Max=3.02D+01 NDo=     9
 LinEq1:  Iter=  3 NonCon=     9 RMS=1.71D+00 Max=1.24D+02 NDo=     9
 LinEq1:  Iter=  4 NonCon=     9 RMS=2.97D+00 Max=3.80D+02 NDo=     9
 LinEq1:  Iter=  5 NonCon=     9 RMS=2.33D+01 Max=1.47D+03 NDo=     9
 LinEq1:  Iter=  6 NonCon=     9 RMS=1.16D+02 Max=1.34D+04 NDo=     9
 LinEq1:  Iter=  7 NonCon=     9 RMS=1.29D+02 Max=1.66D+04 NDo=     9
 LinEq1:  Iter=  8 NonCon=     9 RMS=1.33D+02 Max=1.68D+04 NDo=     9
 LinEq1:  Iter=  9 NonCon=     9 RMS=9.77D+02 Max=1.20D+05 NDo=     9
 LinEq1:  Iter= 10 NonCon=     9 RMS=2.41D+03 Max=1.12D+05 NDo=     9
 LinEq1:  Iter= 11 NonCon=     9 RMS=7.61D+03 Max=9.84D+05 NDo=     9
 LinEq1:  Iter= 12 NonCon=     9 RMS=1.31D+04 Max=4.50D+05 NDo=     9
 LinEq1:  Iter= 13 NonCon=     9 RMS=1.23D+04 Max=1.33D+06 NDo=     9
 LinEq1:  Iter= 14 NonCon=     9 RMS=1.83D+04 Max=1.13D+06 NDo=     9
 LinEq1:  Iter= 15 NonCon=     9 RMS=2.16D+04 Max=1.79D+06 NDo=     9
 LinEq1:  Iter= 16 NonCon=     9 RMS=2.08D+04 Max=1.07D+06 NDo=     9
 LinEq1:  Iter= 17 NonCon=     9 RMS=1.81D+04 Max=1.65D+06 NDo=     9
 LinEq1:  Iter= 18 NonCon=     9 RMS=2.06D+04 Max=2.47D+06 NDo=     9
 LinEq1:  Iter= 19 NonCon=     9 RMS=3.03D+04 Max=1.71D+06 NDo=     9
 LinEq1:  Iter= 20 NonCon=     9 RMS=1.85D+04 Max=1.23D+06 NDo=     9
 LinEq1:  Iter= 21 NonCon=     9 RMS=1.37D+04 Max=8.61D+05 NDo=     9
 LinEq1:  Iter= 22 NonCon=     9 RMS=1.43D+04 Max=1.62D+06 NDo=     9
 LinEq1:  Iter= 23 NonCon=     9 RMS=2.30D+04 Max=2.39D+06 NDo=     9
 LinEq1:  Iter= 24 NonCon=     9 RMS=2.00D+04 Max=1.16D+06 NDo=     9
 LinEq1:  Iter= 25 NonCon=     8 RMS=1.51D+04 Max=5.80D+05 NDo=     9
 LinEq1:  Iter= 26 NonCon=     6 RMS=5.45D+03 Max=2.78D+05 NDo=     8
 LinEq1:  Iter= 27 NonCon=     6 RMS=2.93D+03 Max=1.60D+05 NDo=     6
 LinEq1:  Iter= 28 NonCon=     6 RMS=1.86D+03 Max=9.00D+04 NDo=     6
 LinEq1:  Iter= 29 NonCon=     6 RMS=1.17D+03 Max=8.51D+04 NDo=     6
 LinEq1:  Iter= 30 NonCon=     6 RMS=7.03D+02 Max=4.49D+04 NDo=     6
 LinEq1:  Iter= 31 NonCon=     6 RMS=3.16D+02 Max=1.78D+04 NDo=     6
 LinEq1:  Iter= 32 NonCon=     6 RMS=2.57D+02 Max=1.30D+04 NDo=     6
 LinEq1:  Iter= 33 NonCon=     6 RMS=1.26D+02 Max=6.26D+03 NDo=     6
 LinEq1:  Iter= 34 NonCon=     3 RMS=5.91D+01 Max=3.58D+03 NDo=     6
 LinEq1:  Iter= 35 NonCon=     3 RMS=3.85D+01 Max=1.74D+03 NDo=     3
 LinEq1:  Iter= 36 NonCon=     3 RMS=1.74D+01 Max=1.23D+03 NDo=     3
 LinEq1:  Iter= 37 NonCon=     3 RMS=1.20D+01 Max=5.00D+02 NDo=     3
 LinEq1:  Iter= 38 NonCon=     3 RMS=8.94D+00 Max=4.60D+02 NDo=     3
 LinEq1:  Iter= 39 NonCon=     3 RMS=2.95D+00 Max=1.82D+02 NDo=     3
 LinEq1:  Iter= 40 NonCon=     3 RMS=2.63D+00 Max=1.44D+02 NDo=     3
 LinEq1:  Iter= 41 NonCon=     3 RMS=1.92D+00 Max=9.23D+01 NDo=     3
 LinEq1:  Iter= 42 NonCon=     3 RMS=8.95D-01 Max=4.06D+01 NDo=     3
 LinEq1:  Iter= 43 NonCon=     3 RMS=3.09D-01 Max=1.72D+01 NDo=     3
 LinEq1:  Iter= 44 NonCon=     3 RMS=1.68D-01 Max=8.95D+00 NDo=     3
 LinEq1:  Iter= 45 NonCon=     3 RMS=8.58D-02 Max=4.31D+00 NDo=     3
 LinEq1:  Iter= 46 NonCon=     3 RMS=3.31D-02 Max=1.85D+00 NDo=     3
 LinEq1:  Iter= 47 NonCon=     3 RMS=1.33D-02 Max=9.26D-01 NDo=     3
 LinEq1:  Iter= 48 NonCon=     3 RMS=6.43D-03 Max=3.42D-01 NDo=     3
 LinEq1:  Iter= 49 NonCon=     3 RMS=6.05D-03 Max=3.32D-01 NDo=     3
 LinEq1:  Iter= 50 NonCon=     3 RMS=2.29D-03 Max=1.79D-01 NDo=     3
 LinEq1:  Iter= 51 NonCon=     3 RMS=7.34D-04 Max=2.45D-02 NDo=     3
 LinEq1:  Iter= 52 NonCon=     3 RMS=3.04D-04 Max=1.57D-02 NDo=     3
 LinEq1:  Iter= 53 NonCon=     3 RMS=9.91D-05 Max=6.04D-03 NDo=     3
 LinEq1:  Iter= 54 NonCon=     3 RMS=3.22D-05 Max=2.66D-03 NDo=     3
 LinEq1:  Iter= 55 NonCon=     3 RMS=1.46D-05 Max=1.12D-03 NDo=     3
 LinEq1:  Iter= 56 NonCon=     3 RMS=6.05D-06 Max=3.35D-04 NDo=     3
 LinEq1:  Iter= 57 NonCon=     3 RMS=1.66D-06 Max=9.28D-05 NDo=     3
 LinEq1:  Iter= 58 NonCon=     3 RMS=7.04D-07 Max=3.14D-05 NDo=     3
 LinEq1:  Iter= 59 NonCon=     3 RMS=3.01D-07 Max=1.92D-05 NDo=     3
 LinEq1:  Iter= 60 NonCon=     3 RMS=7.30D-08 Max=3.00D-06 NDo=     3
 LinEq1:  Iter= 61 NonCon=     3 RMS=2.65D-08 Max=1.91D-06 NDo=     3
 LinEq1:  Iter= 62 NonCon=     3 RMS=1.36D-08 Max=8.18D-07 NDo=     3
 LinEq1:  Iter= 63 NonCon=     3 RMS=3.56D-09 Max=2.93D-07 NDo=     3
 LinEq1:  Iter= 64 NonCon=     3 RMS=1.93D-09 Max=1.82D-07 NDo=     3
 LinEq1:  Iter= 65 NonCon=     3 RMS=7.46D-10 Max=3.57D-08 NDo=     3
 LinEq1:  Iter= 66 NonCon=     3 RMS=2.09D-10 Max=8.62D-09 NDo=     3
 LinEq1:  Iter= 67 NonCon=     2 RMS=1.19D-10 Max=6.25D-09 NDo=     3
 LinEq1:  Iter= 68 NonCon=     1 RMS=4.34D-11 Max=2.22D-09 NDo=     2
 LinEq1:  Iter= 69 NonCon=     1 RMS=1.47D-11 Max=1.00D-09 NDo=     1
 LinEq1:  Iter= 70 NonCon=     1 RMS=1.69D-11 Max=1.02D-09 NDo=     1
 LinEq1:  Iter= 71 NonCon=     0 RMS=1.02D-11 Max=4.53D-10 NDo=     1
 Linear equations converged to 1.000D-10 1.000D-09 after    71 iterations.
 FullF1:  Do perturbations    1 to     9.
 SCF Polarizability for W=    0.000000:
                1             2             3 
      1  0.139263D+03
      2 -0.101302D-03  0.110796D+03
      3  0.273619D-03  0.701504D-03  0.110795D+03
 Isotropic polarizability for W=    0.000000      120.28 Bohr**3.
 SCF Polarizability for W=    0.105471:
                1             2             3 
      1  0.154457D+03
      2 -0.111478D-03  0.116487D+03
      3  0.377964D-03  0.987802D-03  0.116486D+03
 Isotropic polarizability for W=    0.105471      129.14 Bohr**3.
 SCF Polarizability for W=    0.210941:
                1             2             3 
      1  0.325574D+03
      2 -0.725110D-03  0.131415D+03
      3  0.231567D-02  0.518951D-03  0.131400D+03
 Isotropic polarizability for W=    0.210941      196.13 Bohr**3.
 SCF Static Hyperpolarizability:
 K=  1 block:
                1 
      1  0.318985D-02
 K=  2 block:
                1             2 
      1 -0.402069D+01
      2 -0.111297D-03 -0.549261D+01
 K=  3 block:
                1             2             3 
      1  0.263629D-01
      2 -0.148379D-02 -0.214468D-01
      3  0.858604D-03 -0.186621D+01  0.471106D-01
 SCF Beta(-W,W;0) for W=    0.105471:
 K=  1 block:
                1             2             3 
      1  0.465926D-02
      2 -0.644427D+01 -0.779119D-03
      3  0.629829D-01 -0.243374D-02  0.123920D-02
 K=  2 block:
                1             2             3 
      1 -0.702045D+01
      2 -0.424815D-03 -0.792185D+01
      3 -0.431409D-02 -0.321116D-01 -0.270012D+01
 K=  3 block:
                1             2             3 
      1  0.556950D-01
      2 -0.905480D-03 -0.299703D-01
      3  0.154026D-02 -0.268708D+01  0.460820D-01
 SCF Beta(W,W;-2W) for W=    0.105471:
 K=  1 block:
                1             2             3 
      1  0.419492D-01
      2 -0.337666D+02  0.164865D-01
      3  0.735564D-01 -0.378944D-02  0.127246D-03
 K=  2 block:
                1             2             3 
      1 -0.609126D+01
      2 -0.132189D-01 -0.116549D+02
      3 -0.238670D+00  0.601083D+00  0.242443D+02
 K=  3 block:
                1             2             3 
      1 -0.341126D+00
      2  0.214062D+00  0.868308D+00
      3  0.142981D-01 -0.208799D+02 -0.782666D+00
 SCF Beta(-W,W;0) for W=    0.210941:
 K=  1 block:
                1             2             3 
      1  0.119437D+00
      2 -0.144389D+03  0.183004D+00
      3  0.669579D+00  0.209705D+00 -0.268773D+00
 K=  2 block:
                1             2             3 
      1 -0.215825D+03
      2  0.105282D+00 -0.381860D+03
      3  0.286442D+00 -0.493466D+02 -0.506921D+02
 K=  3 block:
                1             2             3 
      1  0.191872D+01
      2 -0.370846D-01 -0.486851D+02
      3 -0.933537D-01 -0.105924D+02  0.446113D+02
 End of Minotr F.D. properties on file   721 Mask=      31 NFrqRd=     2 NDeriv=     1 ND12= 1 LenFil=      94:
 Frequencies=    0.000000    0.105471
 Property number 1 -- Alpha(-w,w) frequency  1    0.000000:
                 1             2             3 
      1   0.139263D+03 -0.101302D-03  0.273619D-03
      2  -0.101302D-03  0.110796D+03  0.701504D-03
      3   0.273619D-03  0.701504D-03  0.110795D+03
 Property number 1 -- Alpha(-w,w) frequency  2    0.105471:
                 1             2             3 
      1   0.154457D+03 -0.111478D-03  0.377964D-03
      2  -0.111478D-03  0.116487D+03  0.987802D-03
      3   0.377964D-03  0.987802D-03  0.116486D+03
 Property number 5 -- Beta(-w,w,0) frequency  1    0.000000:
                 1 
      1   0.318985D-02
      2  -0.402069D+01
      3  -0.111297D-03
      4   0.263629D-01
      5  -0.148379D-02
      6   0.858604D-03
      7  -0.402069D+01
      8  -0.111297D-03
      9  -0.549261D+01
     10  -0.148379D-02
     11  -0.214468D-01
     12  -0.186621D+01
     13   0.263629D-01
     14  -0.148379D-02
     15  -0.214468D-01
     16   0.858604D-03
     17  -0.186621D+01
     18   0.471106D-01
 Property number 5 -- Beta(-w,w,0) frequency  2    0.105471:
                 1 
      1   0.465926D-02
      2  -0.644427D+01
      3  -0.779119D-03
      4   0.629829D-01
      5  -0.243374D-02
      6   0.123920D-02
      7  -0.702045D+01
      8  -0.424815D-03
      9  -0.792185D+01
     10  -0.431409D-02
     11  -0.321116D-01
     12  -0.270012D+01
     13   0.556950D-01
     14  -0.905480D-03
     15  -0.299703D-01
     16   0.154026D-02
     17  -0.268708D+01
     18   0.460820D-01
 Property number 6 -- Beta(w,w,-2w) frequency  1    0.000000:
                 1 
      1   0.318985D-02
      2  -0.402069D+01
      3  -0.111297D-03
      4   0.263629D-01
      5  -0.148379D-02
      6   0.858604D-03
      7  -0.402069D+01
      8  -0.111297D-03
      9  -0.549261D+01
     10  -0.148379D-02
     11  -0.214468D-01
     12  -0.186621D+01
     13   0.263629D-01
     14  -0.148379D-02
     15  -0.214468D-01
     16   0.858604D-03
     17  -0.186621D+01
     18   0.471106D-01
 Property number 6 -- Beta(w,w,-2w) frequency  2    0.105471:
                 1 
      1   0.419492D-01
      2  -0.337666D+02
      3   0.164865D-01
      4   0.735564D-01
      5  -0.378944D-02
      6   0.127246D-03
      7  -0.609126D+01
      8  -0.132189D-01
      9  -0.116549D+02
     10  -0.238670D+00
     11   0.601083D+00
     12   0.242443D+02
     13  -0.341126D+00
     14   0.214062D+00
     15   0.868308D+00
     16   0.142981D-01
     17  -0.208799D+02
     18  -0.782666D+00
 End of Minotr F.D. properties file   722 does not exist.
 End of Minotr F.D. properties file   788 does not exist.
 Leave Link 1002 at Sun Apr 11 18:41:07 2021, MaxMem=  1048576000 cpu:     28633.7
 (Enter /usr/local/g09/l601.exe)
 Copying SCF densities to generalized density rwf, IOpCl= 0 IROHF=0.

 **********************************************************************

            Population analysis using the SCF density.

 **********************************************************************

 Alpha  occ. eigenvalues -- -256.33215 -30.10131 -25.93988 -25.92057 -25.92057
 Alpha  occ. eigenvalues --  -10.22797 -10.22797 -10.22761 -10.22760 -10.22752
 Alpha  occ. eigenvalues --  -10.22752 -10.22707 -10.22707 -10.22683 -10.22683
 Alpha  occ. eigenvalues --   -3.44961  -2.23693  -2.19175  -2.19175  -0.92203
 Alpha  occ. eigenvalues --   -0.90474  -0.73481  -0.73481  -0.73382  -0.73382
 Alpha  occ. eigenvalues --   -0.56420  -0.56400  -0.55516  -0.55496  -0.55477
 Alpha  occ. eigenvalues --   -0.54034  -0.43035  -0.42107  -0.42106  -0.41176
 Alpha  occ. eigenvalues --   -0.41175  -0.39326  -0.39318  -0.38820  -0.38814
 Alpha  occ. eigenvalues --   -0.37604  -0.28076  -0.28076  -0.26258  -0.26257
 Alpha  occ. eigenvalues --   -0.24481  -0.21459  -0.21458
 Alpha virt. eigenvalues --    0.00196   0.00196   0.01310   0.02712   0.02725
 Alpha virt. eigenvalues --    0.03492   0.04109   0.04139   0.04970   0.05693
 Alpha virt. eigenvalues --    0.05705   0.05834   0.05855   0.06203   0.06241
 Alpha virt. eigenvalues --    0.08954   0.09135   0.09153   0.09965   0.09968
 Alpha virt. eigenvalues --    0.11209   0.11214   0.13593   0.13599   0.13913
 Alpha virt. eigenvalues --    0.13914   0.14125   0.14562   0.14566   0.17310
 Alpha virt. eigenvalues --    0.17377   0.17958   0.17960   0.18225   0.18259
 Alpha virt. eigenvalues --    0.18343   0.19062   0.19076   0.19222   0.19257
 Alpha virt. eigenvalues --    0.19649   0.21032   0.21357   0.21848   0.21852
 Alpha virt. eigenvalues --    0.23263   0.23296   0.24054   0.24055   0.25318
 Alpha virt. eigenvalues --    0.26002   0.26738   0.26741   0.26760   0.26761
 Alpha virt. eigenvalues --    0.29100   0.29151   0.30697   0.31268   0.31293
 Alpha virt. eigenvalues --    0.34623   0.34623   0.35879   0.35886   0.38917
 Alpha virt. eigenvalues --    0.40184   0.40212   0.40676   0.40680   0.41911
 Alpha virt. eigenvalues --    0.41919   0.43762   0.44514   0.45679   0.48075
 Alpha virt. eigenvalues --    0.48344   0.52534   0.52536   0.55989   0.55990
 Alpha virt. eigenvalues --    0.56239   0.56240   0.58922   0.58968   0.61442
 Alpha virt. eigenvalues --    0.61472   0.61476   0.61480   0.61515   0.61917
 Alpha virt. eigenvalues --    0.64271   0.64283   0.64406   0.64407   0.65757
 Alpha virt. eigenvalues --    0.65757   0.67121   0.67123   0.69894   0.70240
 Alpha virt. eigenvalues --    0.70277   0.70301   0.70383   0.71960   0.72007
 Alpha virt. eigenvalues --    0.72250   0.72349   0.72361   0.73420   0.74504
 Alpha virt. eigenvalues --    0.74538   0.75757   0.78647   0.78648   0.82065
 Alpha virt. eigenvalues --    0.86804   0.86806   0.87162   0.87163   0.87546
 Alpha virt. eigenvalues --    0.88979   0.88987   0.97115   0.97530   0.98208
 Alpha virt. eigenvalues --    0.98251   1.01073   1.01073   1.02646   1.02660
 Alpha virt. eigenvalues --    1.09199   1.09229   1.09796   1.09797   1.12375
 Alpha virt. eigenvalues --    1.12375   1.16824   1.16835   1.19362   1.25622
 Alpha virt. eigenvalues --    1.25627   1.25689   1.27085   1.27094   1.27279
 Alpha virt. eigenvalues --    1.27279   1.28829   1.28832   1.30548   1.30579
 Alpha virt. eigenvalues --    1.33067   1.34068   1.34069   1.34466   1.39887
 Alpha virt. eigenvalues --    1.41881   1.41883   1.41957   1.41959   1.42236
 Alpha virt. eigenvalues --    1.42257   1.43416   1.43472   1.45704   1.46928
 Alpha virt. eigenvalues --    1.46942   1.49158   1.49166   1.49585   1.53891
 Alpha virt. eigenvalues --    1.55326   1.58598   1.58599   1.60036   1.60080
 Alpha virt. eigenvalues --    1.60390   1.60415   1.65082   1.65083   1.68967
 Alpha virt. eigenvalues --    1.78618   1.78618   1.81433   1.81433   1.95417
 Alpha virt. eigenvalues --    1.95417   2.01924   2.12526   2.12576   2.13993
 Alpha virt. eigenvalues --    2.14056   2.16263   2.16290   2.16721   2.16747
 Alpha virt. eigenvalues --    2.28291   2.28292   2.30841   2.32426   2.46385
 Alpha virt. eigenvalues --    2.46388   2.49325   2.51847   2.54559   2.54560
 Alpha virt. eigenvalues --    2.65350   2.65352   2.65604   2.65605   2.67425
 Alpha virt. eigenvalues --    2.72823   2.72879   2.73340   2.79907   2.82266
 Alpha virt. eigenvalues --    2.82267   2.84209   2.86020   2.86068   2.89165
 Alpha virt. eigenvalues --    2.89166   2.94278   2.94295   3.00972   3.00981
 Alpha virt. eigenvalues --    3.01397   3.01398   3.09394   3.09396   3.10193
 Alpha virt. eigenvalues --    3.10195   3.10704   3.10719   3.15560   3.20906
 Alpha virt. eigenvalues --    3.20916   3.22874   3.22891   3.23185   3.23186
 Alpha virt. eigenvalues --    3.25093   3.25094   3.35590   3.36916   3.36921
 Alpha virt. eigenvalues --    3.37007   3.43052   3.43052   3.44816   3.44824
 Alpha virt. eigenvalues --    3.48094   3.54273   3.54292   3.55530   3.55531
 Alpha virt. eigenvalues --    3.57486   3.57487   3.59893   3.59906   3.62587
 Alpha virt. eigenvalues --    3.62612   3.63419   3.64467   3.64474   3.64499
 Alpha virt. eigenvalues --    3.68046   3.68233   3.68740   3.68740   3.69249
 Alpha virt. eigenvalues --    3.69250   3.76837   3.76838   3.78020   3.78039
 Alpha virt. eigenvalues --    3.79143   3.79145   3.80425   3.80441   3.80447
 Alpha virt. eigenvalues --    3.81373   3.81884   3.81891   3.84040   3.85344
 Alpha virt. eigenvalues --    3.85344   3.86476   3.96184   3.96193   4.00116
 Alpha virt. eigenvalues --    4.00148   4.01058   4.06856   4.06858   4.10467
 Alpha virt. eigenvalues --    4.12955   4.12956   4.27594   4.27595   4.29602
 Alpha virt. eigenvalues --    4.29628   4.36550   4.56877   4.56878   4.61193
 Alpha virt. eigenvalues --    4.61212   4.74549   4.74562   4.75823   4.75826
 Alpha virt. eigenvalues --    4.85945   4.85946   4.87570   4.87571   5.07373
 Alpha virt. eigenvalues --    5.15163   5.15397  23.90686  24.01227  24.09365
 Alpha virt. eigenvalues --   24.09390  24.14507  24.14537  24.25967  24.25968
 Alpha virt. eigenvalues --   24.37779  24.37780
 Electronic spatial extent (au):  <R**2>=           1342.4553
 Charge=              0.0000 electrons
 Dipole moment (field-independent basis, Debye):
    X=              0.0000    Y=              0.0936    Z=              0.0004  Tot=              0.0936
 Quadrupole moment (field-independent basis, Debye-Ang):
   XX=            -81.1151   YY=            -67.0487   ZZ=            -67.0498
   XY=             -0.0001   XZ=             -0.0002   YZ=              0.0003
 Traceless Quadrupole moment (field-independent basis, Debye-Ang):
   XX=             -9.3773   YY=              4.6891   ZZ=              4.6881
   XY=             -0.0001   XZ=             -0.0002   YZ=              0.0003
 Octapole moment (field-independent basis, Debye-Ang**2):
  XXX=             -0.0002  YYY=              0.5004  ZZZ=              0.0002  XYY=             -0.0008
  XXY=              0.3522  XXZ=             -0.0057  XZZ=              0.0006  YZZ=              0.1677
  YYZ=             -0.0006  XYZ=             -0.0007
 Hexadecapole moment (field-independent basis, Debye-Ang**3):
 XXXX=          -1183.1251 YYYY=           -378.5922 ZZZZ=           -378.5961 XXXY=             -0.0010
 XXXZ=             -0.0024 YYYX=             -0.0002 YYYZ=              0.0386 ZZZX=             -0.0011
 ZZZY=             -0.0389 XXYY=           -239.1694 XXZZ=           -239.1697 YYZZ=           -126.2894
 XXYZ=             -0.0027 YYXZ=             -0.0003 ZZXY=             -0.0009
 N-N= 9.192345822002D+02 E-N=-5.744136693879D+03  KE= 1.646810491797D+03
  Exact polarizability: 139.263   0.000 110.796   0.000   0.001 110.795
 Approx polarizability: 216.992   0.000 182.958   0.000   0.000 182.959
 No NMR shielding tensors so no spin-rotation constants.
 Leave Link  601 at Sun Apr 11 18:41:07 2021, MaxMem=  1048576000 cpu:         5.3
 (Enter /usr/local/g09/l106.exe)
 NDeriv=   3 NFrqRd=  2 NDerD0=   0 MskFDP=      31 MskDFD=      31 MskDF0=       0
 Re-enter D2Numr: IAtom=  0 IXYZ=2 IStep= 3.
 Leave Link  106 at Sun Apr 11 18:41:08 2021, MaxMem=  1048576000 cpu:         3.9
 (Enter /usr/local/g09/l301.exe)
 Basis read from rwf:  (5D, 7F)
 Pseudo-potential data read from rwf file.
 The following finite field(s) will be applied:
 An electric field of              0.0000 -0.0007  0.0000
   375 basis functions,   602 primitive gaussians,   402 cartesian basis functions
    48 alpha electrons       48 beta electrons
       nuclear repulsion energy       919.2345822002 Hartrees.
 IExCor= 1009 DFT=T Ex+Corr=PBE1PBE ExCW=0 ScaHFX=  0.250000
 ScaDFX=  0.750000  0.750000  1.000000  1.000000 ScalE2=  1.000000  1.000000
 IRadAn=      0 IRanWt=     -1 IRanGd=            0 ICorTp=0 IEmpDi=  4
 NAtoms=   21 NActive=   21 NUniq=   21 SFac= 1.00D+00 NAtFMM=   60 NAOKFM=F Big=F
 Integral buffers will be    131072 words long.
 Raffenetti 2 integral format.
 Two-electron integral symmetry is turned off.
 No density basis found on file   724.
 Leave Link  301 at Sun Apr 11 18:41:08 2021, MaxMem=  1048576000 cpu:         1.5
 (Enter /usr/local/g09/l302.exe)
 NPDir=0 NMtPBC=     1 NCelOv=     1 NCel=       1 NClECP=     1 NCelD=      1
         NCelK=      1 NCelE2=     1 NClLst=     1 CellRange=     0.0.
 One-electron integrals computed using PRISM.
   1 Symmetry operations used in ECPInt.
 ECPInt:  NShTT=    7875 NPrTT=   28235 LenC2=    7866 LenP2D=   21150.
 LDataN:  DoStor=T MaxTD1= 6 Len=  172
 NBasis=   375 RedAO= T EigKep=  3.67D-06  NBF=   375
 NBsUse=   375 1.00D-06 EigRej= -1.00D+00 NBFU=   375
 Precomputing XC quadrature grid using
 IXCGrd= 4 IRadAn=           0 IRanWt=          -1 IRanGd=           0 AccXCQ= 0.00D+00.
 Generated NRdTot=       0 NPtTot=           0 NUsed=           0 NTot=          32
 NSgBfM=   402   402   402   402   402 MxSgAt=    21 MxSgA2=    21.
 Leave Link  302 at Sun Apr 11 18:41:08 2021, MaxMem=  1048576000 cpu:         8.9
 (Enter /usr/local/g09/l303.exe)
 DipDrv:  MaxL=1.
 The nuclear repulsion energy is now       919.2345822002 hartrees.
 Leave Link  303 at Sun Apr 11 18:41:08 2021, MaxMem=  1048576000 cpu:         2.0
 (Enter /usr/local/g09/l401.exe)
 Initial guess from the checkpoint file:  "ferr_pbe0.chk"
 B after Tr=     0.000000    0.000000    0.000000
         Rot=    1.000000    0.000000    0.000000    0.000000 Ang=   0.00 deg.
 Guess basis will be translated and rotated to current coordinates.
 JPrj=2 DoOrth=T DoCkMO=T.
 Leave Link  401 at Sun Apr 11 18:41:08 2021, MaxMem=  1048576000 cpu:         6.6
 (Enter /usr/local/g09/l502.exe)
 Closed shell SCF:
 Using DIIS extrapolation, IDIIS=  1040.
 Two-electron integral symmetry not used.
 IVT=      515866 IEndB=      515866 NGot=  1048576000 MDV=  1048238781
 LenX=  1048238781 LenY=  1048076736
 Requested convergence on RMS density matrix=1.00D-10 within 128 cycles.
 Requested convergence on MAX density matrix=1.00D-08.
 Requested convergence on             energy=1.00D-08.
 No special actions if energy rises.
 Fock matrices will be formed incrementally for  20 cycles.

 Cycle   1  Pass 1  IDiag  1:
 FoFJK:  IHMeth= 1 ICntrl=       0 DoSepK=F KAlg= 0 I1Cent=   0 FoldK=F
 IRaf= 980000000 NMat=   1 IRICut=       1 DoRegI=T DoRafI=F ISym2E= 0.
 FoFCou: FMM=F IPFlag=           0 FMFlag=      100000 FMFlg1=           0
         NFxFlg=           0 DoJE=F BraDBF=F KetDBF=F FulRan=T
         wScrn=  0.000000 ICntrl=       0 IOpCl=  0 I1Cent=           0 NGrid=           0
         NMat0=    1 NMatS0=      1 NMatT0=    0 NMatD0=    1 NMtDS0=    0 NMtDT0=    0
 Symmetry not used in FoFCou.
 E= -1650.24296278118    
 DIIS: error= 1.34D-04 at cycle   1 NSaved=   1.
 NSaved= 1 IEnMin= 1 EnMin= -1650.24296278118     IErMin= 1 ErrMin= 1.34D-04
 ErrMax= 1.34D-04  0.00D+00 EMaxC= 1.00D-01 BMatC= 2.81D-06 BMatP= 2.81D-06
 IDIUse=3 WtCom= 9.99D-01 WtEn= 1.34D-03
 Coeff-Com:  0.100D+01
 Coeff-En:   0.100D+01
 Coeff:      0.100D+01
 Gap=     0.451 Goal=   None    Shift=    0.000
 RMSDP=1.66D-04 MaxDP=9.43D-03              OVMax= 1.34D-03

 Cycle   2  Pass 1  IDiag  1:
 RMSU=  1.66D-04    CP:  1.00D+00
 E= -1650.24296334497     Delta-E=       -0.000000563790 Rises=F Damp=F
 DIIS: error= 1.68D-04 at cycle   2 NSaved=   2.
 NSaved= 2 IEnMin= 2 EnMin= -1650.24296334497     IErMin= 1 ErrMin= 1.34D-04
 ErrMax= 1.68D-04  0.00D+00 EMaxC= 1.00D-01 BMatC= 5.05D-06 BMatP= 2.81D-06
 IDIUse=3 WtCom= 4.35D-01 WtEn= 5.65D-01
 Coeff-Com:  0.583D+00 0.417D+00
 Coeff-En:   0.471D+00 0.529D+00
 Coeff:      0.520D+00 0.480D+00
 Gap=     0.217 Goal=   None    Shift=    0.000
 RMSDP=8.23D-05 MaxDP=4.10D-03 DE=-5.64D-07 OVMax= 7.32D-04

 Cycle   3  Pass 1  IDiag  1:
 RMSU=  3.04D-05    CP:  1.00D+00  5.40D-01
 E= -1650.24296828618     Delta-E=       -0.000004941213 Rises=F Damp=F
 DIIS: error= 4.24D-05 at cycle   3 NSaved=   3.
 NSaved= 3 IEnMin= 3 EnMin= -1650.24296828618     IErMin= 3 ErrMin= 4.24D-05
 ErrMax= 4.24D-05  0.00D+00 EMaxC= 1.00D-01 BMatC= 7.44D-07 BMatP= 2.81D-06
 IDIUse=1 WtCom= 1.00D+00 WtEn= 0.00D+00
 Coeff-Com:  0.183D+00 0.283D+00 0.534D+00
 Coeff:      0.183D+00 0.283D+00 0.534D+00
 Gap=     0.217 Goal=   None    Shift=    0.000
 RMSDP=8.58D-06 MaxDP=5.04D-04 DE=-4.94D-06 OVMax= 1.61D-04

 Cycle   4  Pass 1  IDiag  1:
 RMSU=  3.75D-06    CP:  1.00D+00  5.83D-01  9.00D-01
 E= -1650.24296893289     Delta-E=       -0.000000646708 Rises=F Damp=F
 DIIS: error= 5.20D-06 at cycle   4 NSaved=   4.
 NSaved= 4 IEnMin= 4 EnMin= -1650.24296893289     IErMin= 4 ErrMin= 5.20D-06
 ErrMax= 5.20D-06  0.00D+00 EMaxC= 1.00D-01 BMatC= 4.99D-09 BMatP= 7.44D-07
 IDIUse=1 WtCom= 1.00D+00 WtEn= 0.00D+00
 Coeff-Com:  0.173D-01 0.403D-01 0.102D+00 0.840D+00
 Coeff:      0.173D-01 0.403D-01 0.102D+00 0.840D+00
 Gap=     0.217 Goal=   None    Shift=    0.000
 RMSDP=1.33D-06 MaxDP=7.73D-05 DE=-6.47D-07 OVMax= 4.78D-05

 Cycle   5  Pass 1  IDiag  1:
 RMSU=  1.11D-06    CP:  1.00D+00  5.86D-01  9.07D-01  9.48D-01
 E= -1650.24296890969     Delta-E=        0.000000023194 Rises=F Damp=F
 DIIS: error= 2.06D-05 at cycle   5 NSaved=   5.
 NSaved= 5 IEnMin= 4 EnMin= -1650.24296893289     IErMin= 4 ErrMin= 5.20D-06
 ErrMax= 2.06D-05  0.00D+00 EMaxC= 1.00D-01 BMatC= 5.74D-08 BMatP= 4.99D-09
 IDIUse=1 WtCom= 1.00D+00 WtEn= 0.00D+00
 Coeff-Com:  0.510D-02 0.200D-01 0.590D-01 0.749D+00 0.167D+00
 Coeff:      0.510D-02 0.200D-01 0.590D-01 0.749D+00 0.167D+00
 Gap=     0.217 Goal=   None    Shift=    0.000
 RMSDP=8.45D-07 MaxDP=4.35D-05 DE= 2.32D-08 OVMax= 3.87D-05

 Cycle   6  Pass 1  IDiag  1:
 RMSU=  5.84D-07    CP:  1.00D+00  5.87D-01  9.08D-01  9.60D-01  5.00D-01
 E= -1650.24296893577     Delta-E=       -0.000000026075 Rises=F Damp=F
 DIIS: error= 2.71D-06 at cycle   6 NSaved=   6.
 NSaved= 6 IEnMin= 6 EnMin= -1650.24296893577     IErMin= 6 ErrMin= 2.71D-06
 ErrMax= 2.71D-06  0.00D+00 EMaxC= 1.00D-01 BMatC= 1.19D-09 BMatP= 4.99D-09
 IDIUse=1 WtCom= 1.00D+00 WtEn= 0.00D+00
 Coeff-Com: -0.217D-02 0.651D-03 0.843D-03 0.185D+00 0.127D+00 0.689D+00
 Coeff:     -0.217D-02 0.651D-03 0.843D-03 0.185D+00 0.127D+00 0.689D+00
 Gap=     0.217 Goal=   None    Shift=    0.000
 RMSDP=2.54D-07 MaxDP=1.27D-05 DE=-2.61D-08 OVMax= 7.93D-06

 Cycle   7  Pass 1  IDiag  1:
 RMSU=  9.59D-08    CP:  1.00D+00  5.86D-01  9.13D-01  9.81D-01  5.42D-01
                    CP:  8.48D-01
 E= -1650.24296893646     Delta-E=       -0.000000000691 Rises=F Damp=F
 DIIS: error= 2.17D-07 at cycle   7 NSaved=   7.
 NSaved= 7 IEnMin= 7 EnMin= -1650.24296893646     IErMin= 7 ErrMin= 2.17D-07
 ErrMax= 2.17D-07  0.00D+00 EMaxC= 1.00D-01 BMatC= 1.18D-11 BMatP= 1.19D-09
 IDIUse=1 WtCom= 1.00D+00 WtEn= 0.00D+00
 Coeff-Com: -0.396D-03-0.307D-03-0.898D-03 0.294D-02 0.214D-01 0.172D+00
 Coeff-Com:  0.805D+00
 Coeff:     -0.396D-03-0.307D-03-0.898D-03 0.294D-02 0.214D-01 0.172D+00
 Coeff:      0.805D+00
 Gap=     0.217 Goal=   None    Shift=    0.000
 RMSDP=8.45D-08 MaxDP=4.06D-06 DE=-6.91D-10 OVMax= 1.57D-06

 Cycle   8  Pass 1  IDiag  1:
 RMSU=  2.45D-08    CP:  1.00D+00  5.86D-01  9.12D-01  9.81D-01  5.54D-01
                    CP:  8.91D-01  9.97D-01
 E= -1650.24296893646     Delta-E=       -0.000000000002 Rises=F Damp=F
 DIIS: error= 6.12D-08 at cycle   8 NSaved=   8.
 NSaved= 8 IEnMin= 8 EnMin= -1650.24296893646     IErMin= 8 ErrMin= 6.12D-08
 ErrMax= 6.12D-08  0.00D+00 EMaxC= 1.00D-01 BMatC= 3.30D-13 BMatP= 1.18D-11
 IDIUse=1 WtCom= 1.00D+00 WtEn= 0.00D+00
 Coeff-Com:  0.214D-04-0.140D-03 0.372D-04-0.637D-02-0.364D-02-0.216D-01
 Coeff-Com:  0.128D-01 0.102D+01
 Coeff:      0.214D-04-0.140D-03 0.372D-04-0.637D-02-0.364D-02-0.216D-01
 Coeff:      0.128D-01 0.102D+01
 Gap=     0.217 Goal=   None    Shift=    0.000
 RMSDP=1.46D-08 MaxDP=7.53D-07 DE=-1.82D-12 OVMax= 8.28D-07

 Cycle   9  Pass 1  IDiag  1:
 RMSU=  9.20D-09    CP:  1.00D+00  5.86D-01  9.12D-01  9.80D-01  5.59D-01
                    CP:  8.95D-01  1.07D+00  1.19D+00
 E= -1650.24296893649     Delta-E=       -0.000000000031 Rises=F Damp=F
 DIIS: error= 2.64D-08 at cycle   9 NSaved=   9.
 NSaved= 9 IEnMin= 9 EnMin= -1650.24296893649     IErMin= 9 ErrMin= 2.64D-08
 ErrMax= 2.64D-08  0.00D+00 EMaxC= 1.00D-01 BMatC= 1.11D-13 BMatP= 3.30D-13
 IDIUse=1 WtCom= 1.00D+00 WtEn= 0.00D+00
 Coeff-Com:  0.352D-04-0.522D-04 0.103D-03-0.254D-02-0.326D-02-0.204D-01
 Coeff-Com: -0.534D-01 0.388D+00 0.692D+00
 Coeff:      0.352D-04-0.522D-04 0.103D-03-0.254D-02-0.326D-02-0.204D-01
 Coeff:     -0.534D-01 0.388D+00 0.692D+00
 Gap=     0.217 Goal=   None    Shift=    0.000
 RMSDP=6.84D-09 MaxDP=3.81D-07 DE=-3.14D-11 OVMax= 2.32D-07

 Cycle  10  Pass 1  IDiag  1:
 RMSU=  3.38D-09    CP:  1.00D+00  5.86D-01  9.12D-01  9.80D-01  5.57D-01
                    CP:  9.00D-01  1.07D+00  1.32D+00  6.80D-01
 E= -1650.24296893651     Delta-E=       -0.000000000017 Rises=F Damp=F
 DIIS: error= 1.07D-08 at cycle  10 NSaved=  10.
 NSaved=10 IEnMin=10 EnMin= -1650.24296893651     IErMin=10 ErrMin= 1.07D-08
 ErrMax= 1.07D-08  0.00D+00 EMaxC= 1.00D-01 BMatC= 1.81D-14 BMatP= 1.11D-13
 IDIUse=1 WtCom= 1.00D+00 WtEn= 0.00D+00
 Coeff-Com:  0.107D-04 0.421D-05 0.473D-04 0.452D-03-0.358D-03-0.381D-02
 Coeff-Com: -0.257D-01-0.755D-01 0.283D+00 0.822D+00
 Coeff:      0.107D-04 0.421D-05 0.473D-04 0.452D-03-0.358D-03-0.381D-02
 Coeff:     -0.257D-01-0.755D-01 0.283D+00 0.822D+00
 Gap=     0.217 Goal=   None    Shift=    0.000
 RMSDP=2.87D-09 MaxDP=1.65D-07 DE=-1.68D-11 OVMax= 1.21D-07

 Cycle  11  Pass 1  IDiag  1:
 RMSU=  4.12D-10    CP:  1.00D+00  5.86D-01  9.12D-01  9.80D-01  5.58D-01
                    CP:  8.99D-01  1.08D+00  1.35D+00  8.74D-01  9.07D-01
 E= -1650.24296893648     Delta-E=        0.000000000026 Rises=F Damp=F
 DIIS: error= 7.32D-10 at cycle  11 NSaved=  11.
 NSaved=11 IEnMin=10 EnMin= -1650.24296893651     IErMin=11 ErrMin= 7.32D-10
 ErrMax= 7.32D-10  0.00D+00 EMaxC= 1.00D-01 BMatC= 8.99D-17 BMatP= 1.81D-14
 IDIUse=1 WtCom= 1.00D+00 WtEn= 0.00D+00
 Coeff-Com: -0.585D-06 0.257D-05-0.735D-06 0.117D-03 0.680D-04 0.372D-03
 Coeff-Com: -0.391D-03-0.183D-01 0.209D-02 0.702D-01 0.946D+00
 Coeff:     -0.585D-06 0.257D-05-0.735D-06 0.117D-03 0.680D-04 0.372D-03
 Coeff:     -0.391D-03-0.183D-01 0.209D-02 0.702D-01 0.946D+00
 Gap=     0.217 Goal=   None    Shift=    0.000
 RMSDP=4.84D-10 MaxDP=2.87D-08 DE= 2.64D-11 OVMax= 1.11D-08

 Cycle  12  Pass 1  IDiag  1:
 RMSU=  1.49D-10    CP:  1.00D+00  5.86D-01  9.12D-01  9.80D-01  5.58D-01
                    CP:  8.99D-01  1.08D+00  1.36D+00  8.79D-01  9.29D-01
                    CP:  9.40D-01
 E= -1650.24296893650     Delta-E=       -0.000000000014 Rises=F Damp=F
 DIIS: error= 3.53D-10 at cycle  12 NSaved=  12.
 NSaved=12 IEnMin=10 EnMin= -1650.24296893651     IErMin=12 ErrMin= 3.53D-10
 ErrMax= 3.53D-10  0.00D+00 EMaxC= 1.00D-01 BMatC= 3.28D-17 BMatP= 8.99D-17
 IDIUse=1 WtCom= 1.00D+00 WtEn= 0.00D+00
 Coeff-Com: -0.521D-06 0.125D-05-0.147D-05 0.473D-04 0.444D-04 0.275D-03
 Coeff-Com:  0.503D-03-0.730D-02-0.660D-02 0.136D-01 0.477D+00 0.523D+00
 Coeff:     -0.521D-06 0.125D-05-0.147D-05 0.473D-04 0.444D-04 0.275D-03
 Coeff:      0.503D-03-0.730D-02-0.660D-02 0.136D-01 0.477D+00 0.523D+00
 Gap=     0.217 Goal=   None    Shift=    0.000
 RMSDP=1.25D-10 MaxDP=6.41D-09 DE=-1.36D-11 OVMax= 1.76D-09

 Cycle  13  Pass 1  IDiag  1:
 RMSU=  4.11D-11    CP:  1.00D+00  5.86D-01  9.12D-01  9.80D-01  5.58D-01
                    CP:  8.99D-01  1.08D+00  1.36D+00  8.78D-01  9.30D-01
                    CP:  1.02D+00  2.44D-01
 E= -1650.24296893654     Delta-E=       -0.000000000041 Rises=F Damp=F
 DIIS: error= 1.12D-10 at cycle  13 NSaved=  13.
 NSaved=13 IEnMin=13 EnMin= -1650.24296893654     IErMin=13 ErrMin= 1.12D-10
 ErrMax= 1.12D-10  0.00D+00 EMaxC= 1.00D-01 BMatC= 3.93D-18 BMatP= 3.28D-17
 IDIUse=1 WtCom= 1.00D+00 WtEn= 0.00D+00
 Coeff-Com: -0.173D-06 0.342D-06-0.686D-06 0.864D-05 0.137D-04 0.901D-04
 Coeff-Com:  0.347D-03-0.125D-02-0.406D-02-0.335D-02 0.119D+00 0.283D+00
 Coeff-Com:  0.606D+00
 Coeff:     -0.173D-06 0.342D-06-0.686D-06 0.864D-05 0.137D-04 0.901D-04
 Coeff:      0.347D-03-0.125D-02-0.406D-02-0.335D-02 0.119D+00 0.283D+00
 Coeff:      0.606D+00
 Gap=     0.217 Goal=   None    Shift=    0.000
 RMSDP=4.50D-11 MaxDP=2.63D-09 DE=-4.09D-11 OVMax= 5.04D-10

 SCF Done:  E(RPBE1PBE) =  -1650.24296894     A.U. after   13 cycles
            NFock= 13  Conv=0.45D-10     -V/T= 2.0021
 KE= 1.646810485068D+03 PE=-5.744136540330D+03 EE= 1.527848504125D+03
 Leave Link  502 at Sun Apr 11 18:41:59 2021, MaxMem=  1048576000 cpu:      1264.6
 (Enter /usr/local/g09/l801.exe)
 DoSCS=F DFT=T ScalE2(SS,OS)=  1.000000  1.000000
 Range of M.O.s used for correlation:     1   375
 NBasis=   375 NAE=    48 NBE=    48 NFC=     0 NFV=     0
 NROrb=    375 NOA=    48 NOB=    48 NVA=   327 NVB=   327

 **** Warning!!: The largest alpha MO coefficient is  0.10983362D+03

 Leave Link  801 at Sun Apr 11 18:41:59 2021, MaxMem=  1048576000 cpu:         0.9
 (Enter /usr/local/g09/l1002.exe)
 Minotr:  Closed shell wavefunction.
          Direct CPHF calculation.
          Differentiating once with respect to electric field.
                with respect to dipole field.
          Electric field/nuclear overlap derivatives assumed to be zero.
          Requested convergence is 1.0D-10 RMS, and 1.0D-09 maximum.
          NewPWx=F KeepS1=T KeepF1=T KeepIn=T MapXYZ=F SortEE=F KeepMc=T.
          MDV=    1048575453 using IRadAn=       1.
 Generate precomputed XC quadrature information.
          Solving linear equations separately, MaxMat=       0.
          Doing perturbations at frequencies    0.000000    0.105471    0.210941
          There are     9 degrees of freedom in the 1st order CPHF.  IDoFFX=0 NUNeed=     9.
 LinEq1:  Iter=  0 NonCon=     9 RMS=2.93D-01 Max=2.76D+01 NDo=     9
 AX will form     9 AO Fock derivatives at one time.
 FoFJK:  IHMeth= 1 ICntrl=       0 DoSepK=F KAlg= 0 I1Cent=   0 FoldK=F
 IRaf= 980000000 NMat=  18 IRICut=      22 DoRegI=T DoRafI=T ISym2E= 0.
 FoFCou: FMM=F IPFlag=           0 FMFlag=      100000 FMFlg1=           0
         NFxFlg=           0 DoJE=F BraDBF=F KetDBF=F FulRan=T
         wScrn=  0.000000 ICntrl=       0 IOpCl=  0 I1Cent=           0 NGrid=           0
         NMat0=   18 NMatS0=      9 NMatT0=    0 NMatD0=   18 NMtDS0=    0 NMtDT0=    0
 Symmetry not used in FoFCou.
 LinEq1:  Iter=  1 NonCon=     9 RMS=1.70D-01 Max=6.61D+00 NDo=     9
 LinEq1:  Iter=  2 NonCon=     9 RMS=6.27D-01 Max=7.89D+01 NDo=     9
 LinEq1:  Iter=  3 NonCon=     9 RMS=1.92D+00 Max=7.43D+01 NDo=     9
 LinEq1:  Iter=  4 NonCon=     9 RMS=5.24D+00 Max=6.61D+02 NDo=     9
 LinEq1:  Iter=  5 NonCon=     9 RMS=2.53D+01 Max=1.59D+03 NDo=     9
 LinEq1:  Iter=  6 NonCon=     9 RMS=1.26D+02 Max=1.34D+04 NDo=     9
 LinEq1:  Iter=  7 NonCon=     9 RMS=2.05D+02 Max=2.32D+04 NDo=     9
 LinEq1:  Iter=  8 NonCon=     9 RMS=2.72D+02 Max=3.26D+04 NDo=     9
 LinEq1:  Iter=  9 NonCon=     9 RMS=2.00D+03 Max=2.78D+05 NDo=     9
 LinEq1:  Iter= 10 NonCon=     9 RMS=3.01D+03 Max=2.40D+05 NDo=     9
 LinEq1:  Iter= 11 NonCon=     9 RMS=2.25D+04 Max=2.37D+06 NDo=     9
 LinEq1:  Iter= 12 NonCon=     9 RMS=2.03D+04 Max=8.61D+05 NDo=     9
 LinEq1:  Iter= 13 NonCon=     9 RMS=1.58D+04 Max=1.52D+06 NDo=     9
 LinEq1:  Iter= 14 NonCon=     9 RMS=2.45D+04 Max=1.51D+06 NDo=     9
 LinEq1:  Iter= 15 NonCon=     9 RMS=2.58D+04 Max=2.01D+06 NDo=     9
 LinEq1:  Iter= 16 NonCon=     9 RMS=2.94D+04 Max=2.64D+06 NDo=     9
 LinEq1:  Iter= 17 NonCon=     9 RMS=4.06D+04 Max=4.63D+06 NDo=     9
 LinEq1:  Iter= 18 NonCon=     9 RMS=3.46D+04 Max=2.04D+06 NDo=     9
 LinEq1:  Iter= 19 NonCon=     9 RMS=3.61D+04 Max=1.81D+06 NDo=     9
 LinEq1:  Iter= 20 NonCon=     9 RMS=2.61D+04 Max=2.14D+06 NDo=     9
 LinEq1:  Iter= 21 NonCon=     9 RMS=2.99D+04 Max=2.27D+06 NDo=     9
 LinEq1:  Iter= 22 NonCon=     9 RMS=5.79D+04 Max=5.85D+06 NDo=     9
 LinEq1:  Iter= 23 NonCon=     9 RMS=4.85D+04 Max=3.51D+06 NDo=     9
 LinEq1:  Iter= 24 NonCon=     9 RMS=2.43D+04 Max=1.35D+06 NDo=     9
 LinEq1:  Iter= 25 NonCon=     9 RMS=1.89D+04 Max=7.87D+05 NDo=     9
 LinEq1:  Iter= 26 NonCon=     6 RMS=1.05D+04 Max=7.19D+05 NDo=     9
 LinEq1:  Iter= 27 NonCon=     6 RMS=7.59D+03 Max=3.08D+05 NDo=     6
 LinEq1:  Iter= 28 NonCon=     6 RMS=4.23D+03 Max=1.94D+05 NDo=     6
 LinEq1:  Iter= 29 NonCon=     6 RMS=1.74D+03 Max=1.13D+05 NDo=     6
 LinEq1:  Iter= 30 NonCon=     6 RMS=9.24D+02 Max=4.44D+04 NDo=     6
 LinEq1:  Iter= 31 NonCon=     6 RMS=3.70D+02 Max=2.41D+04 NDo=     6
 LinEq1:  Iter= 32 NonCon=     6 RMS=3.48D+02 Max=1.54D+04 NDo=     6
 LinEq1:  Iter= 33 NonCon=     5 RMS=2.06D+02 Max=1.29D+04 NDo=     6
 LinEq1:  Iter= 34 NonCon=     3 RMS=9.72D+01 Max=5.50D+03 NDo=     5
 LinEq1:  Iter= 35 NonCon=     3 RMS=5.05D+01 Max=2.57D+03 NDo=     3
 LinEq1:  Iter= 36 NonCon=     3 RMS=2.36D+01 Max=1.44D+03 NDo=     3
 LinEq1:  Iter= 37 NonCon=     3 RMS=1.36D+01 Max=5.82D+02 NDo=     3
 LinEq1:  Iter= 38 NonCon=     3 RMS=1.02D+01 Max=7.17D+02 NDo=     3
 LinEq1:  Iter= 39 NonCon=     3 RMS=6.75D+00 Max=3.88D+02 NDo=     3
 LinEq1:  Iter= 40 NonCon=     3 RMS=7.07D+00 Max=3.90D+02 NDo=     3
 LinEq1:  Iter= 41 NonCon=     3 RMS=4.44D+00 Max=1.98D+02 NDo=     3
 LinEq1:  Iter= 42 NonCon=     3 RMS=1.55D+00 Max=6.31D+01 NDo=     3
 LinEq1:  Iter= 43 NonCon=     3 RMS=6.98D-01 Max=4.89D+01 NDo=     3
 LinEq1:  Iter= 44 NonCon=     3 RMS=2.60D-01 Max=1.08D+01 NDo=     3
 LinEq1:  Iter= 45 NonCon=     3 RMS=1.26D-01 Max=4.21D+00 NDo=     3
 LinEq1:  Iter= 46 NonCon=     3 RMS=5.99D-02 Max=3.66D+00 NDo=     3
 LinEq1:  Iter= 47 NonCon=     3 RMS=2.73D-02 Max=1.53D+00 NDo=     3
 LinEq1:  Iter= 48 NonCon=     3 RMS=1.08D-02 Max=6.95D-01 NDo=     3
 LinEq1:  Iter= 49 NonCon=     3 RMS=9.97D-03 Max=7.00D-01 NDo=     3
 LinEq1:  Iter= 50 NonCon=     3 RMS=3.70D-03 Max=1.78D-01 NDo=     3
 LinEq1:  Iter= 51 NonCon=     3 RMS=1.35D-03 Max=4.59D-02 NDo=     3
 LinEq1:  Iter= 52 NonCon=     3 RMS=6.04D-04 Max=3.57D-02 NDo=     3
 LinEq1:  Iter= 53 NonCon=     3 RMS=2.58D-04 Max=1.47D-02 NDo=     3
 LinEq1:  Iter= 54 NonCon=     3 RMS=8.65D-05 Max=3.73D-03 NDo=     3
 LinEq1:  Iter= 55 NonCon=     3 RMS=3.40D-05 Max=1.85D-03 NDo=     3
 LinEq1:  Iter= 56 NonCon=     3 RMS=9.33D-06 Max=5.52D-04 NDo=     3
 LinEq1:  Iter= 57 NonCon=     3 RMS=2.49D-06 Max=1.49D-04 NDo=     3
 LinEq1:  Iter= 58 NonCon=     3 RMS=1.09D-06 Max=6.48D-05 NDo=     3
 LinEq1:  Iter= 59 NonCon=     3 RMS=4.99D-07 Max=4.45D-05 NDo=     3
 LinEq1:  Iter= 60 NonCon=     3 RMS=2.12D-07 Max=1.95D-05 NDo=     3
 LinEq1:  Iter= 61 NonCon=     3 RMS=7.08D-08 Max=2.77D-06 NDo=     3
 LinEq1:  Iter= 62 NonCon=     3 RMS=2.59D-08 Max=8.79D-07 NDo=     3
 LinEq1:  Iter= 63 NonCon=     3 RMS=8.68D-09 Max=6.77D-07 NDo=     3
 LinEq1:  Iter= 64 NonCon=     3 RMS=4.02D-09 Max=1.63D-07 NDo=     3
 LinEq1:  Iter= 65 NonCon=     3 RMS=1.15D-09 Max=5.29D-08 NDo=     3
 LinEq1:  Iter= 66 NonCon=     3 RMS=4.45D-10 Max=2.36D-08 NDo=     3
 LinEq1:  Iter= 67 NonCon=     3 RMS=1.96D-10 Max=5.34D-09 NDo=     3
 LinEq1:  Iter= 68 NonCon=     2 RMS=5.94D-11 Max=2.49D-09 NDo=     3
 LinEq1:  Iter= 69 NonCon=     2 RMS=2.03D-11 Max=1.16D-09 NDo=     2
 LinEq1:  Iter= 70 NonCon=     0 RMS=1.06D-11 Max=3.67D-10 NDo=     2
 Linear equations converged to 1.000D-10 1.000D-09 after    70 iterations.
 FullF1:  Do perturbations    1 to     9.
 SCF Polarizability for W=    0.000000:
                1             2             3 
      1  0.139265D+03
      2 -0.101256D-03  0.110798D+03
      3  0.274115D-03  0.703956D-03  0.110796D+03
 Isotropic polarizability for W=    0.000000      120.29 Bohr**3.
 SCF Polarizability for W=    0.105471:
                1             2             3 
      1  0.154461D+03
      2 -0.111331D-03  0.116491D+03
      3  0.379384D-03  0.989643D-03  0.116488D+03
 Isotropic polarizability for W=    0.105471      129.15 Bohr**3.
 SCF Polarizability for W=    0.210941:
                1             2             3 
      1  0.325681D+03
      2 -0.789780D-03  0.131607D+03
      3  0.222874D-02  0.332549D-01  0.131397D+03
 Isotropic polarizability for W=    0.210941      196.23 Bohr**3.
 SCF Static Hyperpolarizability:
 K=  1 block:
                1 
      1  0.320837D-02
 K=  2 block:
                1             2 
      1 -0.815420D+01
      2 -0.155317D-03 -0.109605D+02
 K=  3 block:
                1             2             3 
      1  0.259594D-01
      2 -0.150509D-02 -0.183438D-01
      3  0.867651D-03 -0.369543D+01  0.441743D-01
 SCF Beta(-W,W;0) for W=    0.105471:
 K=  1 block:
                1             2             3 
      1  0.470336D-02
      2 -0.130538D+02 -0.835648D-03
      3  0.623180D-01 -0.247767D-02  0.123569D-02
 K=  2 block:
                1             2             3 
      1 -0.142247D+02
      2 -0.494289D-03 -0.157923D+02
      3 -0.436479D-02 -0.267398D-01 -0.534401D+01
 K=  3 block:
                1             2             3 
      1  0.550061D-01
      2 -0.944513D-03 -0.245999D-01
      3  0.154757D-02 -0.531761D+01  0.404378D-01
 SCF Beta(W,W;-2W) for W=    0.105471:
 K=  1 block:
                1             2             3 
      1  0.430772D-01
      2 -0.689798D+02  0.164561D-01
      3  0.890051D-01 -0.448189D-02 -0.783888D-03
 K=  2 block:
                1             2             3 
      1 -0.139105D+02
      2 -0.159998D-01 -0.250931D+02
      3 -0.240562D+00  0.248175D+01  0.424923D+02
 K=  3 block:
                1             2             3 
      1 -0.545790D+00
      2  0.219265D+00  0.244698D+01
      3  0.189472D-01 -0.437918D+02 -0.300932D+01
 SCF Beta(-W,W;0) for W=    0.210941:
 K=  1 block:
                1             2             3 
      1  0.121175D+00
      2 -0.283175D+03  0.171850D+00
      3  0.160947D+01  0.204846D+00 -0.285244D+00
 K=  2 block:
                1             2             3 
      1 -0.434025D+03
      2  0.547357D-01 -0.766191D+03
      3  0.230776D+00 -0.156077D+03  0.111231D+03
 K=  3 block:
                1             2             3 
      1  0.205540D+01
      2 -0.205471D-01 -0.157484D+03
      3 -0.289624D-01  0.107525D+03  0.164090D+03
 End of Minotr F.D. properties on file   721 Mask=      31 NFrqRd=     2 NDeriv=     1 ND12= 1 LenFil=      94:
 Frequencies=    0.000000    0.105471
 Property number 1 -- Alpha(-w,w) frequency  1    0.000000:
                 1             2             3 
      1   0.139265D+03 -0.101256D-03  0.274115D-03
      2  -0.101256D-03  0.110798D+03  0.703956D-03
      3   0.274115D-03  0.703956D-03  0.110796D+03
 Property number 1 -- Alpha(-w,w) frequency  2    0.105471:
                 1             2             3 
      1   0.154461D+03 -0.111331D-03  0.379384D-03
      2  -0.111331D-03  0.116491D+03  0.989643D-03
      3   0.379384D-03  0.989643D-03  0.116488D+03
 Property number 5 -- Beta(-w,w,0) frequency  1    0.000000:
                 1 
      1   0.320837D-02
      2  -0.815420D+01
      3  -0.155317D-03
      4   0.259594D-01
      5  -0.150509D-02
      6   0.867651D-03
      7  -0.815420D+01
      8  -0.155317D-03
      9  -0.109605D+02
     10  -0.150509D-02
     11  -0.183438D-01
     12  -0.369543D+01
     13   0.259594D-01
     14  -0.150509D-02
     15  -0.183438D-01
     16   0.867651D-03
     17  -0.369543D+01
     18   0.441743D-01
 Property number 5 -- Beta(-w,w,0) frequency  2    0.105471:
                 1 
      1   0.470336D-02
      2  -0.130538D+02
      3  -0.835648D-03
      4   0.623180D-01
      5  -0.247767D-02
      6   0.123569D-02
      7  -0.142247D+02
      8  -0.494289D-03
      9  -0.157923D+02
     10  -0.436479D-02
     11  -0.267398D-01
     12  -0.534401D+01
     13   0.550061D-01
     14  -0.944513D-03
     15  -0.245999D-01
     16   0.154757D-02
     17  -0.531761D+01
     18   0.404378D-01
 Property number 6 -- Beta(w,w,-2w) frequency  1    0.000000:
                 1 
      1   0.320837D-02
      2  -0.815420D+01
      3  -0.155317D-03
      4   0.259594D-01
      5  -0.150509D-02
      6   0.867651D-03
      7  -0.815420D+01
      8  -0.155317D-03
      9  -0.109605D+02
     10  -0.150509D-02
     11  -0.183438D-01
     12  -0.369543D+01
     13   0.259594D-01
     14  -0.150509D-02
     15  -0.183438D-01
     16   0.867651D-03
     17  -0.369543D+01
     18   0.441743D-01
 Property number 6 -- Beta(w,w,-2w) frequency  2    0.105471:
                 1 
      1   0.430772D-01
      2  -0.689798D+02
      3   0.164561D-01
      4   0.890051D-01
      5  -0.448189D-02
      6  -0.783888D-03
      7  -0.139105D+02
      8  -0.159998D-01
      9  -0.250931D+02
     10  -0.240562D+00
     11   0.248175D+01
     12   0.424923D+02
     13  -0.545790D+00
     14   0.219265D+00
     15   0.244698D+01
     16   0.189472D-01
     17  -0.437918D+02
     18  -0.300932D+01
 End of Minotr F.D. properties file   722 does not exist.
 End of Minotr F.D. properties file   788 does not exist.
 Leave Link 1002 at Sun Apr 11 19:01:20 2021, MaxMem=  1048576000 cpu:     29022.9
 (Enter /usr/local/g09/l601.exe)
 Copying SCF densities to generalized density rwf, IOpCl= 0 IROHF=0.

 **********************************************************************

            Population analysis using the SCF density.

 **********************************************************************

 Alpha  occ. eigenvalues -- -256.33215 -30.10132 -25.93988 -25.92058 -25.92057
 Alpha  occ. eigenvalues --  -10.22813 -10.22813 -10.22770 -10.22770 -10.22742
 Alpha  occ. eigenvalues --  -10.22742 -10.22710 -10.22709 -10.22666 -10.22666
 Alpha  occ. eigenvalues --   -3.44961  -2.23693  -2.19176  -2.19175  -0.92203
 Alpha  occ. eigenvalues --   -0.90475  -0.73481  -0.73481  -0.73382  -0.73382
 Alpha  occ. eigenvalues --   -0.56430  -0.56390  -0.55527  -0.55486  -0.55477
 Alpha  occ. eigenvalues --   -0.54034  -0.43035  -0.42107  -0.42106  -0.41176
 Alpha  occ. eigenvalues --   -0.41176  -0.39330  -0.39314  -0.38823  -0.38810
 Alpha  occ. eigenvalues --   -0.37604  -0.28076  -0.28076  -0.26258  -0.26257
 Alpha  occ. eigenvalues --   -0.24482  -0.21460  -0.21457
 Alpha virt. eigenvalues --    0.00194   0.00196   0.01275   0.02690   0.02738
 Alpha virt. eigenvalues --    0.03476   0.04109   0.04169   0.04967   0.05617
 Alpha virt. eigenvalues --    0.05651   0.05889   0.05931   0.06184   0.06260
 Alpha virt. eigenvalues --    0.08952   0.09126   0.09162   0.09961   0.09967
 Alpha virt. eigenvalues --    0.11207   0.11214   0.13586   0.13597   0.13912
 Alpha virt. eigenvalues --    0.13916   0.14132   0.14562   0.14568   0.17276
 Alpha virt. eigenvalues --    0.17413   0.17955   0.17961   0.18213   0.18280
 Alpha virt. eigenvalues --    0.18326   0.18998   0.19041   0.19264   0.19327
 Alpha virt. eigenvalues --    0.19640   0.21029   0.21359   0.21841   0.21855
 Alpha virt. eigenvalues --    0.23252   0.23324   0.24056   0.24059   0.25313
 Alpha virt. eigenvalues --    0.26002   0.26738   0.26749   0.26760   0.26761
 Alpha virt. eigenvalues --    0.29076   0.29179   0.30697   0.31258   0.31307
 Alpha virt. eigenvalues --    0.34624   0.34625   0.35877   0.35888   0.38916
 Alpha virt. eigenvalues --    0.40170   0.40227   0.40676   0.40680   0.41906
 Alpha virt. eigenvalues --    0.41924   0.43763   0.44514   0.45679   0.48075
 Alpha virt. eigenvalues --    0.48344   0.52533   0.52536   0.55988   0.55991
 Alpha virt. eigenvalues --    0.56239   0.56240   0.58900   0.58990   0.61405
 Alpha virt. eigenvalues --    0.61470   0.61474   0.61479   0.61550   0.61916
 Alpha virt. eigenvalues --    0.64263   0.64281   0.64412   0.64415   0.65756
 Alpha virt. eigenvalues --    0.65758   0.67121   0.67122   0.69894   0.70221
 Alpha virt. eigenvalues --    0.70261   0.70295   0.70423   0.71937   0.72030
 Alpha virt. eigenvalues --    0.72251   0.72346   0.72366   0.73420   0.74486
 Alpha virt. eigenvalues --    0.74555   0.75758   0.78648   0.78649   0.82064
 Alpha virt. eigenvalues --    0.86803   0.86805   0.87162   0.87163   0.87546
 Alpha virt. eigenvalues --    0.88971   0.88995   0.97115   0.97530   0.98179
 Alpha virt. eigenvalues --    0.98281   1.01073   1.01073   1.02638   1.02667
 Alpha virt. eigenvalues --    1.09186   1.09241   1.09795   1.09796   1.12375
 Alpha virt. eigenvalues --    1.12375   1.16816   1.16842   1.19361   1.25611
 Alpha virt. eigenvalues --    1.25626   1.25699   1.27079   1.27100   1.27279
 Alpha virt. eigenvalues --    1.27279   1.28829   1.28832   1.30529   1.30596
 Alpha virt. eigenvalues --    1.33067   1.34068   1.34070   1.34466   1.39887
 Alpha virt. eigenvalues --    1.41880   1.41882   1.41957   1.41959   1.42222
 Alpha virt. eigenvalues --    1.42271   1.43388   1.43501   1.45704   1.46921
 Alpha virt. eigenvalues --    1.46948   1.49154   1.49170   1.49585   1.53891
 Alpha virt. eigenvalues --    1.55326   1.58598   1.58599   1.60011   1.60105
 Alpha virt. eigenvalues --    1.60382   1.60423   1.65082   1.65083   1.68967
 Alpha virt. eigenvalues --    1.78618   1.78618   1.81433   1.81433   1.95417
 Alpha virt. eigenvalues --    1.95417   2.01924   2.12498   2.12604   2.13966
 Alpha virt. eigenvalues --    2.14083   2.16248   2.16304   2.16708   2.16761
 Alpha virt. eigenvalues --    2.28291   2.28292   2.30841   2.32426   2.46384
 Alpha virt. eigenvalues --    2.46387   2.49324   2.51847   2.54559   2.54560
 Alpha virt. eigenvalues --    2.65350   2.65352   2.65603   2.65605   2.67425
 Alpha virt. eigenvalues --    2.72793   2.72909   2.73340   2.79907   2.82266
 Alpha virt. eigenvalues --    2.82267   2.84209   2.85994   2.86093   2.89165
 Alpha virt. eigenvalues --    2.89166   2.94271   2.94302   3.00967   3.00986
 Alpha virt. eigenvalues --    3.01397   3.01398   3.09392   3.09397   3.10193
 Alpha virt. eigenvalues --    3.10195   3.10698   3.10725   3.15560   3.20905
 Alpha virt. eigenvalues --    3.20917   3.22866   3.22899   3.23185   3.23186
 Alpha virt. eigenvalues --    3.25092   3.25094   3.35589   3.36913   3.36923
 Alpha virt. eigenvalues --    3.37006   3.43052   3.43052   3.44813   3.44826
 Alpha virt. eigenvalues --    3.48094   3.54265   3.54300   3.55530   3.55531
 Alpha virt. eigenvalues --    3.57486   3.57487   3.59885   3.59915   3.62575
 Alpha virt. eigenvalues --    3.62623   3.63419   3.64461   3.64467   3.64512
 Alpha virt. eigenvalues --    3.68045   3.68233   3.68741   3.68741   3.69249
 Alpha virt. eigenvalues --    3.69250   3.76837   3.76838   3.78011   3.78048
 Alpha virt. eigenvalues --    3.79143   3.79145   3.80416   3.80447   3.80450
 Alpha virt. eigenvalues --    3.81374   3.81882   3.81892   3.84040   3.85344
 Alpha virt. eigenvalues --    3.85344   3.86476   3.96173   3.96204   4.00107
 Alpha virt. eigenvalues --    4.00157   4.01058   4.06856   4.06857   4.10467
 Alpha virt. eigenvalues --    4.12955   4.12956   4.27591   4.27597   4.29591
 Alpha virt. eigenvalues --    4.29639   4.36549   4.56877   4.56877   4.61180
 Alpha virt. eigenvalues --    4.61225   4.74541   4.74569   4.75823   4.75826
 Alpha virt. eigenvalues --    4.85945   4.85946   4.87570   4.87571   5.07373
 Alpha virt. eigenvalues --    5.15163   5.15397  23.90685  24.01226  24.09353
 Alpha virt. eigenvalues --   24.09402  24.14494  24.14549  24.25967  24.25968
 Alpha virt. eigenvalues --   24.37779  24.37780
 Electronic spatial extent (au):  <R**2>=           1342.4561
 Charge=              0.0000 electrons
 Dipole moment (field-independent basis, Debye):
    X=              0.0000    Y=              0.1874    Z=              0.0004  Tot=              0.1874
 Quadrupole moment (field-independent basis, Debye-Ang):
   XX=            -81.1153   YY=            -67.0495   ZZ=            -67.0499
   XY=             -0.0001   XZ=             -0.0002   YZ=              0.0003
 Traceless Quadrupole moment (field-independent basis, Debye-Ang):
   XX=             -9.3771   YY=              4.6888   ZZ=              4.6883
   XY=             -0.0001   XZ=             -0.0002   YZ=              0.0003
 Octapole moment (field-independent basis, Debye-Ang**2):
  XXX=             -0.0002  YYY=              1.0002  ZZZ=              0.0003  XYY=             -0.0008
  XXY=              0.6935  XXZ=             -0.0057  XZZ=              0.0006  YZZ=              0.3345
  YYZ=             -0.0007  XYZ=             -0.0007
 Hexadecapole moment (field-independent basis, Debye-Ang**3):
 XXXX=          -1183.1292 YYYY=           -378.5330 ZZZZ=           -378.5288 XXXY=             -0.0010
 XXXZ=             -0.0024 YYYX=             -0.0002 YYYZ=              0.0776 ZZZX=             -0.0011
 ZZZY=             -0.0779 XXYY=           -239.1729 XXZZ=           -239.1705 YYZZ=           -126.3598
 XXYZ=             -0.0028 YYXZ=             -0.0003 ZZXY=             -0.0009
 N-N= 9.192345822002D+02 E-N=-5.744136540340D+03  KE= 1.646810485068D+03
  Exact polarizability: 139.265   0.000 110.798   0.000   0.001 110.796
 Approx polarizability: 216.994   0.000 182.962   0.000   0.000 182.960
 No NMR shielding tensors so no spin-rotation constants.
 Leave Link  601 at Sun Apr 11 19:01:20 2021, MaxMem=  1048576000 cpu:         5.4
 (Enter /usr/local/g09/l106.exe)
 NDeriv=   3 NFrqRd=  2 NDerD0=   0 MskFDP=      31 MskDFD=      31 MskDF0=       0
 Re-enter D2Numr: IAtom=  0 IXYZ=2 IStep= 4.
 Leave Link  106 at Sun Apr 11 19:01:21 2021, MaxMem=  1048576000 cpu:         4.0
 (Enter /usr/local/g09/l301.exe)
 Basis read from rwf:  (5D, 7F)
 Pseudo-potential data read from rwf file.
 The following finite field(s) will be applied:
 An electric field of              0.0000  0.0000  0.0003
   375 basis functions,   602 primitive gaussians,   402 cartesian basis functions
    48 alpha electrons       48 beta electrons
       nuclear repulsion energy       919.2345822002 Hartrees.
 IExCor= 1009 DFT=T Ex+Corr=PBE1PBE ExCW=0 ScaHFX=  0.250000
 ScaDFX=  0.750000  0.750000  1.000000  1.000000 ScalE2=  1.000000  1.000000
 IRadAn=      0 IRanWt=     -1 IRanGd=            0 ICorTp=0 IEmpDi=  4
 NAtoms=   21 NActive=   21 NUniq=   21 SFac= 1.00D+00 NAtFMM=   60 NAOKFM=F Big=F
 Integral buffers will be    131072 words long.
 Raffenetti 2 integral format.
 Two-electron integral symmetry is turned off.
 No density basis found on file   724.
 Leave Link  301 at Sun Apr 11 19:01:21 2021, MaxMem=  1048576000 cpu:         1.5
 (Enter /usr/local/g09/l302.exe)
 NPDir=0 NMtPBC=     1 NCelOv=     1 NCel=       1 NClECP=     1 NCelD=      1
         NCelK=      1 NCelE2=     1 NClLst=     1 CellRange=     0.0.
 One-electron integrals computed using PRISM.
   1 Symmetry operations used in ECPInt.
 ECPInt:  NShTT=    7875 NPrTT=   28235 LenC2=    7866 LenP2D=   21150.
 LDataN:  DoStor=T MaxTD1= 6 Len=  172
 NBasis=   375 RedAO= T EigKep=  3.67D-06  NBF=   375
 NBsUse=   375 1.00D-06 EigRej= -1.00D+00 NBFU=   375
 Precomputing XC quadrature grid using
 IXCGrd= 4 IRadAn=           0 IRanWt=          -1 IRanGd=           0 AccXCQ= 0.00D+00.
 Generated NRdTot=       0 NPtTot=           0 NUsed=           0 NTot=          32
 NSgBfM=   402   402   402   402   402 MxSgAt=    21 MxSgA2=    21.
 Leave Link  302 at Sun Apr 11 19:01:21 2021, MaxMem=  1048576000 cpu:        12.5
 (Enter /usr/local/g09/l303.exe)
 DipDrv:  MaxL=1.
 The nuclear repulsion energy is now       919.2345822002 hartrees.
 Leave Link  303 at Sun Apr 11 19:01:21 2021, MaxMem=  1048576000 cpu:         1.5
 (Enter /usr/local/g09/l401.exe)
 Initial guess from the checkpoint file:  "ferr_pbe0.chk"
 B after Tr=     0.000000    0.000000    0.000000
         Rot=    1.000000    0.000000    0.000000    0.000000 Ang=   0.00 deg.
 Guess basis will be translated and rotated to current coordinates.
 JPrj=2 DoOrth=T DoCkMO=T.
 Leave Link  401 at Sun Apr 11 19:01:21 2021, MaxMem=  1048576000 cpu:         6.6
 (Enter /usr/local/g09/l502.exe)
 Closed shell SCF:
 Using DIIS extrapolation, IDIIS=  1040.
 Two-electron integral symmetry not used.
 IVT=      515866 IEndB=      515866 NGot=  1048576000 MDV=  1048238781
 LenX=  1048238781 LenY=  1048076736
 Requested convergence on RMS density matrix=1.00D-10 within 128 cycles.
 Requested convergence on MAX density matrix=1.00D-08.
 Requested convergence on             energy=1.00D-08.
 No special actions if energy rises.
 Fock matrices will be formed incrementally for  20 cycles.

 Cycle   1  Pass 1  IDiag  1:
 FoFJK:  IHMeth= 1 ICntrl=       0 DoSepK=F KAlg= 0 I1Cent=   0 FoldK=F
 IRaf= 980000000 NMat=   1 IRICut=       1 DoRegI=T DoRafI=F ISym2E= 0.
 FoFCou: FMM=F IPFlag=           0 FMFlag=      100000 FMFlg1=           0
         NFxFlg=           0 DoJE=F BraDBF=F KetDBF=F FulRan=T
         wScrn=  0.000000 ICntrl=       0 IOpCl=  0 I1Cent=           0 NGrid=           0
         NMat0=    1 NMatS0=      1 NMatT0=    0 NMatD0=    1 NMtDS0=    0 NMtDT0=    0
 Symmetry not used in FoFCou.
 E= -1650.24294434829    
 DIIS: error= 1.34D-04 at cycle   1 NSaved=   1.
 NSaved= 1 IEnMin= 1 EnMin= -1650.24294434829     IErMin= 1 ErrMin= 1.34D-04
 ErrMax= 1.34D-04  0.00D+00 EMaxC= 1.00D-01 BMatC= 2.81D-06 BMatP= 2.81D-06
 IDIUse=3 WtCom= 9.99D-01 WtEn= 1.34D-03
 Coeff-Com:  0.100D+01
 Coeff-En:   0.100D+01
 Coeff:      0.100D+01
 Gap=     0.451 Goal=   None    Shift=    0.000
 RMSDP=1.66D-04 MaxDP=9.63D-03              OVMax= 1.31D-03

 Cycle   2  Pass 1  IDiag  1:
 RMSU=  1.66D-04    CP:  1.00D+00
 E= -1650.24294491225     Delta-E=       -0.000000563959 Rises=F Damp=F
 DIIS: error= 1.68D-04 at cycle   2 NSaved=   2.
 NSaved= 2 IEnMin= 2 EnMin= -1650.24294491225     IErMin= 1 ErrMin= 1.34D-04
 ErrMax= 1.68D-04  0.00D+00 EMaxC= 1.00D-01 BMatC= 5.05D-06 BMatP= 2.81D-06
 IDIUse=3 WtCom= 4.35D-01 WtEn= 5.65D-01
 Coeff-Com:  0.583D+00 0.417D+00
 Coeff-En:   0.471D+00 0.529D+00
 Coeff:      0.520D+00 0.480D+00
 Gap=     0.217 Goal=   None    Shift=    0.000
 RMSDP=8.23D-05 MaxDP=4.08D-03 DE=-5.64D-07 OVMax= 7.32D-04

 Cycle   3  Pass 1  IDiag  1:
 RMSU=  3.04D-05    CP:  1.00D+00  5.40D-01
 E= -1650.24294985346     Delta-E=       -0.000004941216 Rises=F Damp=F
 DIIS: error= 4.24D-05 at cycle   3 NSaved=   3.
 NSaved= 3 IEnMin= 3 EnMin= -1650.24294985346     IErMin= 3 ErrMin= 4.24D-05
 ErrMax= 4.24D-05  0.00D+00 EMaxC= 1.00D-01 BMatC= 7.44D-07 BMatP= 2.81D-06
 IDIUse=1 WtCom= 1.00D+00 WtEn= 0.00D+00
 Coeff-Com:  0.183D+00 0.283D+00 0.534D+00
 Coeff:      0.183D+00 0.283D+00 0.534D+00
 Gap=     0.217 Goal=   None    Shift=    0.000
 RMSDP=8.57D-06 MaxDP=5.04D-04 DE=-4.94D-06 OVMax= 1.61D-04

 Cycle   4  Pass 1  IDiag  1:
 RMSU=  3.75D-06    CP:  1.00D+00  5.82D-01  9.00D-01
 E= -1650.24295050091     Delta-E=       -0.000000647448 Rises=F Damp=F
 DIIS: error= 2.43D-06 at cycle   4 NSaved=   4.
 NSaved= 4 IEnMin= 4 EnMin= -1650.24295050091     IErMin= 4 ErrMin= 2.43D-06
 ErrMax= 2.43D-06  0.00D+00 EMaxC= 1.00D-01 BMatC= 3.08D-09 BMatP= 7.44D-07
 IDIUse=1 WtCom= 1.00D+00 WtEn= 0.00D+00
 Coeff-Com:  0.100D-01 0.294D-01 0.820D-01 0.879D+00
 Coeff:      0.100D-01 0.294D-01 0.820D-01 0.879D+00
 Gap=     0.217 Goal=   None    Shift=    0.000
 RMSDP=1.16D-06 MaxDP=5.45D-05 DE=-6.47D-07 OVMax= 2.55D-05

 Cycle   5  Pass 1  IDiag  1:
 RMSU=  8.70D-07    CP:  1.00D+00  5.87D-01  9.07D-01  9.53D-01
 E= -1650.24295049839     Delta-E=        0.000000002523 Rises=F Damp=F
 DIIS: error= 8.86D-06 at cycle   5 NSaved=   5.
 NSaved= 5 IEnMin= 4 EnMin= -1650.24295050091     IErMin= 4 ErrMin= 2.43D-06
 ErrMax= 8.86D-06  0.00D+00 EMaxC= 1.00D-01 BMatC= 1.09D-08 BMatP= 3.08D-09
 IDIUse=1 WtCom= 1.00D+00 WtEn= 0.00D+00
 Coeff-Com:  0.419D-02 0.178D-01 0.521D-01 0.692D+00 0.234D+00
 Coeff:      0.419D-02 0.178D-01 0.521D-01 0.692D+00 0.234D+00
 Gap=     0.217 Goal=   None    Shift=    0.000
 RMSDP=5.32D-07 MaxDP=2.75D-05 DE= 2.52D-09 OVMax= 2.48D-05

 Cycle   6  Pass 1  IDiag  1:
 RMSU=  4.65D-07    CP:  1.00D+00  5.87D-01  9.09D-01  9.63D-01  7.72D-01
 E= -1650.24295050136     Delta-E=       -0.000000002975 Rises=F Damp=F
 DIIS: error= 5.80D-06 at cycle   6 NSaved=   6.
 NSaved= 6 IEnMin= 6 EnMin= -1650.24295050136     IErMin= 4 ErrMin= 2.43D-06
 ErrMax= 5.80D-06  0.00D+00 EMaxC= 1.00D-01 BMatC= 4.67D-09 BMatP= 3.08D-09
 IDIUse=1 WtCom= 1.00D+00 WtEn= 0.00D+00
 Coeff-Com: -0.217D-02 0.649D-03 0.835D-03 0.186D+00 0.343D+00 0.472D+00
 Coeff:     -0.217D-02 0.649D-03 0.835D-03 0.186D+00 0.343D+00 0.472D+00
 Gap=     0.217 Goal=   None    Shift=    0.000
 RMSDP=2.94D-07 MaxDP=1.74D-05 DE=-2.98D-09 OVMax= 1.25D-05

 Cycle   7  Pass 1  IDiag  1:
 RMSU=  9.51D-08    CP:  1.00D+00  5.86D-01  9.13D-01  9.82D-01  8.31D-01
                    CP:  5.88D-01
 E= -1650.24295050361     Delta-E=       -0.000000002253 Rises=F Damp=F
 DIIS: error= 2.03D-07 at cycle   7 NSaved=   7.
 NSaved= 7 IEnMin= 7 EnMin= -1650.24295050361     IErMin= 7 ErrMin= 2.03D-07
 ErrMax= 2.03D-07  0.00D+00 EMaxC= 1.00D-01 BMatC= 1.25D-11 BMatP= 3.08D-09
 IDIUse=1 WtCom= 1.00D+00 WtEn= 0.00D+00
 Coeff-Com: -0.394D-03-0.307D-03-0.896D-03 0.279D-02 0.724D-01 0.122D+00
 Coeff-Com:  0.804D+00
 Coeff:     -0.394D-03-0.307D-03-0.896D-03 0.279D-02 0.724D-01 0.122D+00
 Coeff:      0.804D+00
 Gap=     0.217 Goal=   None    Shift=    0.000
 RMSDP=8.39D-08 MaxDP=3.93D-06 DE=-2.25D-09 OVMax= 1.62D-06

 Cycle   8  Pass 1  IDiag  1:
 RMSU=  2.36D-08    CP:  1.00D+00  5.86D-01  9.12D-01  9.81D-01  8.58D-01
                    CP:  6.22D-01  1.00D+00
 E= -1650.24295050364     Delta-E=       -0.000000000027 Rises=F Damp=F
 DIIS: error= 5.13D-08 at cycle   8 NSaved=   8.
 NSaved= 8 IEnMin= 8 EnMin= -1650.24295050364     IErMin= 8 ErrMin= 5.13D-08
 ErrMax= 5.13D-08  0.00D+00 EMaxC= 1.00D-01 BMatC= 2.75D-13 BMatP= 1.25D-11
 IDIUse=1 WtCom= 1.00D+00 WtEn= 0.00D+00
 Coeff-Com:  0.348D-04-0.134D-03 0.709D-04-0.656D-02-0.133D-01-0.195D-01
 Coeff-Com: -0.179D-01 0.106D+01
 Coeff:      0.348D-04-0.134D-03 0.709D-04-0.656D-02-0.133D-01-0.195D-01
 Coeff:     -0.179D-01 0.106D+01
 Gap=     0.217 Goal=   None    Shift=    0.000
 RMSDP=1.32D-08 MaxDP=6.37D-07 DE=-2.73D-11 OVMax= 8.33D-07

 Cycle   9  Pass 1  IDiag  1:
 RMSU=  6.14D-09    CP:  1.00D+00  5.86D-01  9.12D-01  9.80D-01  8.64D-01
                    CP:  6.25D-01  1.07D+00  1.27D+00
 E= -1650.24295050364     Delta-E=        0.000000000006 Rises=F Damp=F
 DIIS: error= 1.45D-08 at cycle   9 NSaved=   9.
 NSaved= 9 IEnMin= 8 EnMin= -1650.24295050364     IErMin= 9 ErrMin= 1.45D-08
 ErrMax= 1.45D-08  0.00D+00 EMaxC= 1.00D-01 BMatC= 3.55D-14 BMatP= 2.75D-13
 IDIUse=1 WtCom= 1.00D+00 WtEn= 0.00D+00
 Coeff-Com:  0.276D-04-0.212D-04 0.968D-04-0.770D-03-0.614D-02-0.925D-02
 Coeff-Com: -0.506D-01 0.115D+00 0.951D+00
 Coeff:      0.276D-04-0.212D-04 0.968D-04-0.770D-03-0.614D-02-0.925D-02
 Coeff:     -0.506D-01 0.115D+00 0.951D+00
 Gap=     0.217 Goal=   None    Shift=    0.000
 RMSDP=5.38D-09 MaxDP=3.12D-07 DE= 6.37D-12 OVMax= 2.47D-07

 Cycle  10  Pass 1  IDiag  1:
 RMSU=  3.13D-09    CP:  1.00D+00  5.86D-01  9.12D-01  9.80D-01  8.64D-01
                    CP:  6.30D-01  1.08D+00  1.39D+00  9.41D-01
 E= -1650.24295050366     Delta-E=       -0.000000000024 Rises=F Damp=F
 DIIS: error= 8.77D-09 at cycle  10 NSaved=  10.
 NSaved=10 IEnMin=10 EnMin= -1650.24295050366     IErMin=10 ErrMin= 8.77D-09
 ErrMax= 8.77D-09  0.00D+00 EMaxC= 1.00D-01 BMatC= 1.71D-14 BMatP= 3.55D-14
 IDIUse=1 WtCom= 1.00D+00 WtEn= 0.00D+00
 Coeff-Com:  0.102D-04 0.423D-05 0.456D-04 0.447D-03-0.139D-02-0.266D-02
 Coeff-Com: -0.248D-01-0.756D-01 0.507D+00 0.597D+00
 Coeff:      0.102D-04 0.423D-05 0.456D-04 0.447D-03-0.139D-02-0.266D-02
 Coeff:     -0.248D-01-0.756D-01 0.507D+00 0.597D+00
 Gap=     0.217 Goal=   None    Shift=    0.000
 RMSDP=2.30D-09 MaxDP=1.40D-07 DE=-2.36D-11 OVMax= 6.51D-08

 Cycle  11  Pass 1  IDiag  1:
 RMSU=  4.22D-10    CP:  1.00D+00  5.86D-01  9.12D-01  9.80D-01  8.65D-01
                    CP:  6.28D-01  1.09D+00  1.41D+00  1.13D+00  6.24D-01
 E= -1650.24295050366     Delta-E=        0.000000000001 Rises=F Damp=F
 DIIS: error= 6.64D-10 at cycle  11 NSaved=  11.
 NSaved=11 IEnMin=10 EnMin= -1650.24295050366     IErMin=11 ErrMin= 6.64D-10
 ErrMax= 6.64D-10  0.00D+00 EMaxC= 1.00D-01 BMatC= 1.48D-16 BMatP= 1.71D-14
 IDIUse=1 WtCom= 1.00D+00 WtEn= 0.00D+00
 Coeff-Com: -0.664D-06 0.254D-05-0.108D-05 0.114D-03 0.196D-03 0.273D-03
 Coeff-Com: -0.213D-03-0.184D-01 0.114D-01 0.890D-01 0.918D+00
 Coeff:     -0.664D-06 0.254D-05-0.108D-05 0.114D-03 0.196D-03 0.273D-03
 Coeff:     -0.213D-03-0.184D-01 0.114D-01 0.890D-01 0.918D+00
 Gap=     0.217 Goal=   None    Shift=    0.000
 RMSDP=4.90D-10 MaxDP=3.03D-08 DE= 9.09D-13 OVMax= 1.09D-08

 Cycle  12  Pass 1  IDiag  1:
 RMSU=  1.46D-10    CP:  1.00D+00  5.86D-01  9.12D-01  9.80D-01  8.64D-01
                    CP:  6.28D-01  1.09D+00  1.41D+00  1.14D+00  6.65D-01
                    CP:  9.10D-01
 E= -1650.24295050363     Delta-E=        0.000000000032 Rises=F Damp=F
 DIIS: error= 2.74D-10 at cycle  12 NSaved=  12.
 NSaved=12 IEnMin=10 EnMin= -1650.24295050366     IErMin=12 ErrMin= 2.74D-10
 ErrMax= 2.74D-10  0.00D+00 EMaxC= 1.00D-01 BMatC= 2.83D-17 BMatP= 1.48D-16
 IDIUse=1 WtCom= 1.00D+00 WtEn= 0.00D+00
 Coeff-Com: -0.516D-06 0.125D-05-0.145D-05 0.477D-04 0.127D-03 0.190D-03
 Coeff-Com:  0.494D-03-0.754D-02-0.630D-02 0.308D-01 0.462D+00 0.520D+00
 Coeff:     -0.516D-06 0.125D-05-0.145D-05 0.477D-04 0.127D-03 0.190D-03
 Coeff:      0.494D-03-0.754D-02-0.630D-02 0.308D-01 0.462D+00 0.520D+00
 Gap=     0.217 Goal=   None    Shift=    0.000
 RMSDP=1.27D-10 MaxDP=6.56D-09 DE= 3.18D-11 OVMax= 1.72D-09

 Cycle  13  Pass 1  IDiag  1:
 RMSU=  4.42D-11    CP:  1.00D+00  5.86D-01  9.12D-01  9.80D-01  8.64D-01
                    CP:  6.28D-01  1.09D+00  1.41D+00  1.14D+00  6.65D-01
                    CP:  9.86D-01  2.21D-01
 E= -1650.24295050364     Delta-E=       -0.000000000014 Rises=F Damp=F
 DIIS: error= 1.22D-10 at cycle  13 NSaved=  13.
 NSaved=13 IEnMin=10 EnMin= -1650.24295050366     IErMin=13 ErrMin= 1.22D-10
 ErrMax= 1.22D-10  0.00D+00 EMaxC= 1.00D-01 BMatC= 4.45D-18 BMatP= 2.83D-17
 IDIUse=1 WtCom= 1.00D+00 WtEn= 0.00D+00
 Coeff-Com: -0.156D-06 0.305D-06-0.643D-06 0.714D-05 0.369D-04 0.578D-04
 Coeff-Com:  0.341D-03-0.105D-02-0.599D-02 0.152D-02 0.102D+00 0.300D+00
 Coeff-Com:  0.603D+00
 Coeff:     -0.156D-06 0.305D-06-0.643D-06 0.714D-05 0.369D-04 0.578D-04
 Coeff:      0.341D-03-0.105D-02-0.599D-02 0.152D-02 0.102D+00 0.300D+00
 Coeff:      0.603D+00
 Gap=     0.217 Goal=   None    Shift=    0.000
 RMSDP=4.67D-11 MaxDP=3.23D-09 DE=-1.36D-11 OVMax= 5.06D-10

 SCF Done:  E(RPBE1PBE) =  -1650.24295050     A.U. after   13 cycles
            NFock= 13  Conv=0.47D-10     -V/T= 2.0021
 KE= 1.646810491728D+03 PE=-5.744136693466D+03 EE= 1.527848669034D+03
 Leave Link  502 at Sun Apr 11 19:02:15 2021, MaxMem=  1048576000 cpu:      1326.8
 (Enter /usr/local/g09/l801.exe)
 DoSCS=F DFT=T ScalE2(SS,OS)=  1.000000  1.000000
 Range of M.O.s used for correlation:     1   375
 NBasis=   375 NAE=    48 NBE=    48 NFC=     0 NFV=     0
 NROrb=    375 NOA=    48 NOB=    48 NVA=   327 NVB=   327

 **** Warning!!: The largest alpha MO coefficient is  0.11093460D+03

 Leave Link  801 at Sun Apr 11 19:02:15 2021, MaxMem=  1048576000 cpu:         0.9
 (Enter /usr/local/g09/l1002.exe)
 Minotr:  Closed shell wavefunction.
          Direct CPHF calculation.
          Differentiating once with respect to electric field.
                with respect to dipole field.
          Electric field/nuclear overlap derivatives assumed to be zero.
          Requested convergence is 1.0D-10 RMS, and 1.0D-09 maximum.
          NewPWx=F KeepS1=T KeepF1=T KeepIn=T MapXYZ=F SortEE=F KeepMc=T.
          MDV=    1048575453 using IRadAn=       1.
 Generate precomputed XC quadrature information.
          Solving linear equations separately, MaxMat=       0.
          Doing perturbations at frequencies    0.000000    0.105471    0.210941
          There are     9 degrees of freedom in the 1st order CPHF.  IDoFFX=0 NUNeed=     9.
 LinEq1:  Iter=  0 NonCon=     9 RMS=2.92D-01 Max=2.32D+01 NDo=     9
 AX will form     9 AO Fock derivatives at one time.
 FoFJK:  IHMeth= 1 ICntrl=       0 DoSepK=F KAlg= 0 I1Cent=   0 FoldK=F
 IRaf= 980000000 NMat=  18 IRICut=      22 DoRegI=T DoRafI=T ISym2E= 0.
 FoFCou: FMM=F IPFlag=           0 FMFlag=      100000 FMFlg1=           0
         NFxFlg=           0 DoJE=F BraDBF=F KetDBF=F FulRan=T
         wScrn=  0.000000 ICntrl=       0 IOpCl=  0 I1Cent=           0 NGrid=           0
         NMat0=   18 NMatS0=      9 NMatT0=    0 NMatD0=   18 NMtDS0=    0 NMtDT0=    0
 Symmetry not used in FoFCou.
 LinEq1:  Iter=  1 NonCon=     9 RMS=1.68D-01 Max=6.58D+00 NDo=     9
 LinEq1:  Iter=  2 NonCon=     9 RMS=4.25D-01 Max=4.99D+01 NDo=     9
 LinEq1:  Iter=  3 NonCon=     9 RMS=1.86D+00 Max=6.41D+01 NDo=     9
 LinEq1:  Iter=  4 NonCon=     9 RMS=3.67D+00 Max=4.47D+02 NDo=     9
 LinEq1:  Iter=  5 NonCon=     9 RMS=1.39D+01 Max=1.25D+03 NDo=     9
 LinEq1:  Iter=  6 NonCon=     9 RMS=1.12D+02 Max=1.14D+04 NDo=     9
 LinEq1:  Iter=  7 NonCon=     9 RMS=1.29D+02 Max=1.64D+04 NDo=     9
 LinEq1:  Iter=  8 NonCon=     9 RMS=1.26D+02 Max=1.88D+04 NDo=     9
 LinEq1:  Iter=  9 NonCon=     9 RMS=2.59D+02 Max=3.42D+04 NDo=     9
 LinEq1:  Iter= 10 NonCon=     9 RMS=1.84D+03 Max=1.19D+05 NDo=     9
 LinEq1:  Iter= 11 NonCon=     9 RMS=9.87D+03 Max=1.38D+06 NDo=     9
 LinEq1:  Iter= 12 NonCon=     9 RMS=1.30D+04 Max=4.52D+05 NDo=     9
 LinEq1:  Iter= 13 NonCon=     9 RMS=1.21D+04 Max=1.38D+06 NDo=     9
 LinEq1:  Iter= 14 NonCon=     9 RMS=2.06D+04 Max=1.27D+06 NDo=     9
 LinEq1:  Iter= 15 NonCon=     9 RMS=2.30D+04 Max=1.54D+06 NDo=     9
 LinEq1:  Iter= 16 NonCon=     9 RMS=3.06D+04 Max=1.67D+06 NDo=     9
 LinEq1:  Iter= 17 NonCon=     9 RMS=2.39D+04 Max=2.70D+06 NDo=     9
 LinEq1:  Iter= 18 NonCon=     9 RMS=2.68D+04 Max=2.45D+06 NDo=     9
 LinEq1:  Iter= 19 NonCon=     9 RMS=3.64D+04 Max=1.92D+06 NDo=     9
 LinEq1:  Iter= 20 NonCon=     9 RMS=1.90D+04 Max=1.25D+06 NDo=     9
 LinEq1:  Iter= 21 NonCon=     9 RMS=1.60D+04 Max=1.11D+06 NDo=     9
 LinEq1:  Iter= 22 NonCon=     9 RMS=2.94D+04 Max=3.71D+06 NDo=     9
 LinEq1:  Iter= 23 NonCon=     9 RMS=2.93D+04 Max=3.02D+06 NDo=     9
 LinEq1:  Iter= 24 NonCon=     9 RMS=2.61D+04 Max=1.72D+06 NDo=     9
 LinEq1:  Iter= 25 NonCon=     9 RMS=1.61D+04 Max=6.10D+05 NDo=     9
 LinEq1:  Iter= 26 NonCon=     6 RMS=7.11D+03 Max=4.80D+05 NDo=     9
 LinEq1:  Iter= 27 NonCon=     6 RMS=4.32D+03 Max=2.15D+05 NDo=     6
 LinEq1:  Iter= 28 NonCon=     6 RMS=2.86D+03 Max=1.51D+05 NDo=     6
 LinEq1:  Iter= 29 NonCon=     6 RMS=1.22D+03 Max=6.45D+04 NDo=     6
 LinEq1:  Iter= 30 NonCon=     6 RMS=6.40D+02 Max=3.53D+04 NDo=     6
 LinEq1:  Iter= 31 NonCon=     6 RMS=3.18D+02 Max=1.62D+04 NDo=     6
 LinEq1:  Iter= 32 NonCon=     6 RMS=2.75D+02 Max=1.42D+04 NDo=     6
 LinEq1:  Iter= 33 NonCon=     5 RMS=1.64D+02 Max=8.41D+03 NDo=     6
 LinEq1:  Iter= 34 NonCon=     3 RMS=7.37D+01 Max=3.43D+03 NDo=     5
 LinEq1:  Iter= 35 NonCon=     3 RMS=4.16D+01 Max=2.03D+03 NDo=     3
 LinEq1:  Iter= 36 NonCon=     3 RMS=2.05D+01 Max=1.29D+03 NDo=     3
 LinEq1:  Iter= 37 NonCon=     3 RMS=2.00D+01 Max=9.12D+02 NDo=     3
 LinEq1:  Iter= 38 NonCon=     3 RMS=9.68D+00 Max=5.11D+02 NDo=     3
 LinEq1:  Iter= 39 NonCon=     3 RMS=3.94D+00 Max=2.31D+02 NDo=     3
 LinEq1:  Iter= 40 NonCon=     3 RMS=3.53D+00 Max=1.95D+02 NDo=     3
 LinEq1:  Iter= 41 NonCon=     3 RMS=2.32D+00 Max=1.02D+02 NDo=     3
 LinEq1:  Iter= 42 NonCon=     3 RMS=9.64D-01 Max=4.71D+01 NDo=     3
 LinEq1:  Iter= 43 NonCon=     3 RMS=3.74D-01 Max=2.15D+01 NDo=     3
 LinEq1:  Iter= 44 NonCon=     3 RMS=2.11D-01 Max=8.88D+00 NDo=     3
 LinEq1:  Iter= 45 NonCon=     3 RMS=1.08D-01 Max=3.87D+00 NDo=     3
 LinEq1:  Iter= 46 NonCon=     3 RMS=3.58D-02 Max=1.87D+00 NDo=     3
 LinEq1:  Iter= 47 NonCon=     3 RMS=1.43D-02 Max=9.36D-01 NDo=     3
 LinEq1:  Iter= 48 NonCon=     3 RMS=7.19D-03 Max=3.35D-01 NDo=     3
 LinEq1:  Iter= 49 NonCon=     3 RMS=6.24D-03 Max=2.80D-01 NDo=     3
 LinEq1:  Iter= 50 NonCon=     3 RMS=2.16D-03 Max=1.63D-01 NDo=     3
 LinEq1:  Iter= 51 NonCon=     3 RMS=7.31D-04 Max=2.19D-02 NDo=     3
 LinEq1:  Iter= 52 NonCon=     3 RMS=2.96D-04 Max=1.30D-02 NDo=     3
 LinEq1:  Iter= 53 NonCon=     3 RMS=9.66D-05 Max=6.22D-03 NDo=     3
 LinEq1:  Iter= 54 NonCon=     3 RMS=3.55D-05 Max=2.70D-03 NDo=     3
 LinEq1:  Iter= 55 NonCon=     3 RMS=1.61D-05 Max=9.66D-04 NDo=     3
 LinEq1:  Iter= 56 NonCon=     3 RMS=6.21D-06 Max=3.17D-04 NDo=     3
 LinEq1:  Iter= 57 NonCon=     3 RMS=1.73D-06 Max=7.35D-05 NDo=     3
 LinEq1:  Iter= 58 NonCon=     3 RMS=7.91D-07 Max=2.62D-05 NDo=     3
 LinEq1:  Iter= 59 NonCon=     3 RMS=3.22D-07 Max=1.88D-05 NDo=     3
 LinEq1:  Iter= 60 NonCon=     3 RMS=8.20D-08 Max=2.99D-06 NDo=     3
 LinEq1:  Iter= 61 NonCon=     3 RMS=3.52D-08 Max=1.40D-06 NDo=     3
 LinEq1:  Iter= 62 NonCon=     3 RMS=1.54D-08 Max=6.57D-07 NDo=     3
 LinEq1:  Iter= 63 NonCon=     3 RMS=3.39D-09 Max=1.97D-07 NDo=     3
 LinEq1:  Iter= 64 NonCon=     3 RMS=1.74D-09 Max=1.10D-07 NDo=     3
 LinEq1:  Iter= 65 NonCon=     3 RMS=7.05D-10 Max=3.51D-08 NDo=     3
 LinEq1:  Iter= 66 NonCon=     3 RMS=1.85D-10 Max=1.08D-08 NDo=     3
 LinEq1:  Iter= 67 NonCon=     2 RMS=1.07D-10 Max=8.48D-09 NDo=     3
 LinEq1:  Iter= 68 NonCon=     1 RMS=4.11D-11 Max=1.71D-09 NDo=     2
 LinEq1:  Iter= 69 NonCon=     0 RMS=1.18D-11 Max=6.86D-10 NDo=     1
 Linear equations converged to 1.000D-10 1.000D-09 after    69 iterations.
 FullF1:  Do perturbations    1 to     9.
 SCF Polarizability for W=    0.000000:
                1             2             3 
      1  0.139263D+03
      2 -0.101818D-03  0.110795D+03
      3  0.273422D-03  0.688099D-03  0.110795D+03
 Isotropic polarizability for W=    0.000000      120.28 Bohr**3.
 SCF Polarizability for W=    0.105471:
                1             2             3 
      1  0.154457D+03
      2 -0.111871D-03  0.116486D+03
      3  0.377073D-03  0.970344D-03  0.116487D+03
 Isotropic polarizability for W=    0.105471      129.14 Bohr**3.
 SCF Polarizability for W=    0.210941:
                1             2             3 
      1  0.325575D+03
      2 -0.777903D-03  0.131380D+03
      3  0.230056D-02 -0.146774D-01  0.131438D+03
 Isotropic polarizability for W=    0.210941      196.13 Bohr**3.
 SCF Static Hyperpolarizability:
 K=  1 block:
                1 
      1  0.328893D-02
 K=  2 block:
                1             2 
      1  0.111146D+00
      2 -0.454048D-04 -0.262921D-01
 K=  3 block:
                1             2             3 
      1  0.415810D+01
      2 -0.147216D-02  0.179960D+01
      3  0.902247D-03 -0.396627D-01  0.551939D+01
 SCF Beta(-W,W;0) for W=    0.105471:
 K=  1 block:
                1             2             3 
      1  0.483716D-02
      2  0.160422D+00 -0.685001D-03
      3  0.666744D+01 -0.238959D-02  0.132321D-02
 K=  2 block:
                1             2             3 
      1  0.177974D+00
      2 -0.315305D-03 -0.565999D-01
      3 -0.427521D-02  0.258336D+01 -0.612843D-01
 K=  3 block:
                1             2             3 
      1  0.725407D+01
      2 -0.875102D-03  0.259879D+01
      3  0.162466D-02 -0.615522D-01  0.792192D+01
 SCF Beta(W,W;-2W) for W=    0.105471:
 K=  1 block:
                1             2             3 
      1  0.178789D-01
      2  0.139282D+01  0.184306D-01
      3  0.352221D+02 -0.204942D-02  0.104604D-02
 K=  2 block:
                1             2             3 
      1  0.945133D+00
      2 -0.111407D-01 -0.116586D+01
      3 -0.241029D+00  0.185082D+02  0.109798D+01
 K=  3 block:
                1             2             3 
      1  0.668485D+01
      2  0.209322D+00 -0.257278D+02
      3  0.106909D-01  0.690983D+00  0.134738D+02
 SCF Beta(-W,W;0) for W=    0.210941:
 K=  1 block:
                1             2             3 
      1  0.269602D-01
      2 -0.366466D+00  0.159830D+00
      3  0.144196D+03  0.206170D+00 -0.218557D+00
 K=  2 block:
                1             2             3 
      1  0.906312D+00
      2  0.951386D-01  0.702903D+02
      3  0.243971D+00  0.114054D+03 -0.593914D+02
 K=  3 block:
                1             2             3 
      1  0.218628D+03
      2 -0.108936D+00  0.174384D+03
      3 -0.137296D+00 -0.707688D+02  0.273387D+03
 End of Minotr F.D. properties on file   721 Mask=      31 NFrqRd=     2 NDeriv=     1 ND12= 1 LenFil=      94:
 Frequencies=    0.000000    0.105471
 Property number 1 -- Alpha(-w,w) frequency  1    0.000000:
                 1             2             3 
      1   0.139263D+03 -0.101818D-03  0.273422D-03
      2  -0.101818D-03  0.110795D+03  0.688099D-03
      3   0.273422D-03  0.688099D-03  0.110795D+03
 Property number 1 -- Alpha(-w,w) frequency  2    0.105471:
                 1             2             3 
      1   0.154457D+03 -0.111871D-03  0.377073D-03
      2  -0.111871D-03  0.116486D+03  0.970344D-03
      3   0.377073D-03  0.970344D-03  0.116487D+03
 Property number 5 -- Beta(-w,w,0) frequency  1    0.000000:
                 1 
      1   0.328893D-02
      2   0.111146D+00
      3  -0.454048D-04
      4   0.415810D+01
      5  -0.147216D-02
      6   0.902247D-03
      7   0.111146D+00
      8  -0.454048D-04
      9  -0.262921D-01
     10  -0.147216D-02
     11   0.179960D+01
     12  -0.396627D-01
     13   0.415810D+01
     14  -0.147216D-02
     15   0.179960D+01
     16   0.902247D-03
     17  -0.396627D-01
     18   0.551939D+01
 Property number 5 -- Beta(-w,w,0) frequency  2    0.105471:
                 1 
      1   0.483716D-02
      2   0.160422D+00
      3  -0.685001D-03
      4   0.666744D+01
      5  -0.238959D-02
      6   0.132321D-02
      7   0.177974D+00
      8  -0.315305D-03
      9  -0.565999D-01
     10  -0.427521D-02
     11   0.258336D+01
     12  -0.612843D-01
     13   0.725407D+01
     14  -0.875102D-03
     15   0.259879D+01
     16   0.162466D-02
     17  -0.615522D-01
     18   0.792192D+01
 Property number 6 -- Beta(w,w,-2w) frequency  1    0.000000:
                 1 
      1   0.328893D-02
      2   0.111146D+00
      3  -0.454048D-04
      4   0.415810D+01
      5  -0.147216D-02
      6   0.902247D-03
      7   0.111146D+00
      8  -0.454048D-04
      9  -0.262921D-01
     10  -0.147216D-02
     11   0.179960D+01
     12  -0.396627D-01
     13   0.415810D+01
     14  -0.147216D-02
     15   0.179960D+01
     16   0.902247D-03
     17  -0.396627D-01
     18   0.551939D+01
 Property number 6 -- Beta(w,w,-2w) frequency  2    0.105471:
                 1 
      1   0.178789D-01
      2   0.139282D+01
      3   0.184306D-01
      4   0.352221D+02
      5  -0.204942D-02
      6   0.104604D-02
      7   0.945133D+00
      8  -0.111407D-01
      9  -0.116586D+01
     10  -0.241029D+00
     11   0.185082D+02
     12   0.109798D+01
     13   0.668485D+01
     14   0.209322D+00
     15  -0.257278D+02
     16   0.106909D-01
     17   0.690983D+00
     18   0.134738D+02
 End of Minotr F.D. properties file   722 does not exist.
 End of Minotr F.D. properties file   788 does not exist.
 Leave Link 1002 at Sun Apr 11 19:21:15 2021, MaxMem=  1048576000 cpu:     28496.6
 (Enter /usr/local/g09/l601.exe)
 Copying SCF densities to generalized density rwf, IOpCl= 0 IROHF=0.

 **********************************************************************

            Population analysis using the SCF density.

 **********************************************************************

 Alpha  occ. eigenvalues -- -256.33215 -30.10131 -25.93988 -25.92057 -25.92057
 Alpha  occ. eigenvalues --  -10.22797 -10.22797 -10.22760 -10.22759 -10.22753
 Alpha  occ. eigenvalues --  -10.22752 -10.22707 -10.22706 -10.22683 -10.22683
 Alpha  occ. eigenvalues --   -3.44961  -2.23693  -2.19175  -2.19175  -0.92203
 Alpha  occ. eigenvalues --   -0.90474  -0.73481  -0.73481  -0.73382  -0.73382
 Alpha  occ. eigenvalues --   -0.56420  -0.56400  -0.55516  -0.55496  -0.55477
 Alpha  occ. eigenvalues --   -0.54034  -0.43035  -0.42107  -0.42106  -0.41176
 Alpha  occ. eigenvalues --   -0.41175  -0.39326  -0.39318  -0.38820  -0.38814
 Alpha  occ. eigenvalues --   -0.37604  -0.28076  -0.28076  -0.26258  -0.26257
 Alpha  occ. eigenvalues --   -0.24481  -0.21459  -0.21458
 Alpha virt. eigenvalues --    0.00196   0.00197   0.01311   0.02713   0.02724
 Alpha virt. eigenvalues --    0.03492   0.04108   0.04140   0.04970   0.05694
 Alpha virt. eigenvalues --    0.05703   0.05835   0.05855   0.06203   0.06241
 Alpha virt. eigenvalues --    0.08954   0.09135   0.09153   0.09965   0.09968
 Alpha virt. eigenvalues --    0.11208   0.11214   0.13594   0.13598   0.13912
 Alpha virt. eigenvalues --    0.13915   0.14125   0.14561   0.14566   0.17308
 Alpha virt. eigenvalues --    0.17379   0.17958   0.17960   0.18225   0.18258
 Alpha virt. eigenvalues --    0.18343   0.19064   0.19071   0.19223   0.19259
 Alpha virt. eigenvalues --    0.19650   0.21032   0.21357   0.21848   0.21851
 Alpha virt. eigenvalues --    0.23259   0.23301   0.24054   0.24055   0.25318
 Alpha virt. eigenvalues --    0.26002   0.26738   0.26741   0.26760   0.26761
 Alpha virt. eigenvalues --    0.29098   0.29152   0.30697   0.31268   0.31294
 Alpha virt. eigenvalues --    0.34623   0.34623   0.35876   0.35889   0.38917
 Alpha virt. eigenvalues --    0.40184   0.40212   0.40676   0.40680   0.41911
 Alpha virt. eigenvalues --    0.41920   0.43762   0.44514   0.45679   0.48075
 Alpha virt. eigenvalues --    0.48344   0.52534   0.52536   0.55987   0.55991
 Alpha virt. eigenvalues --    0.56239   0.56240   0.58922   0.58967   0.61442
 Alpha virt. eigenvalues --    0.61472   0.61476   0.61480   0.61514   0.61917
 Alpha virt. eigenvalues --    0.64273   0.64280   0.64407   0.64408   0.65757
 Alpha virt. eigenvalues --    0.65757   0.67122   0.67122   0.69894   0.70240
 Alpha virt. eigenvalues --    0.70277   0.70302   0.70382   0.71961   0.72006
 Alpha virt. eigenvalues --    0.72250   0.72350   0.72359   0.73420   0.74503
 Alpha virt. eigenvalues --    0.74539   0.75758   0.78647   0.78648   0.82065
 Alpha virt. eigenvalues --    0.86804   0.86806   0.87162   0.87163   0.87546
 Alpha virt. eigenvalues --    0.88975   0.88991   0.97115   0.97530   0.98202
 Alpha virt. eigenvalues --    0.98257   1.01073   1.01073   1.02647   1.02659
 Alpha virt. eigenvalues --    1.09201   1.09226   1.09796   1.09796   1.12375
 Alpha virt. eigenvalues --    1.12375   1.16822   1.16836   1.19362   1.25621
 Alpha virt. eigenvalues --    1.25628   1.25688   1.27084   1.27094   1.27279
 Alpha virt. eigenvalues --    1.27279   1.28829   1.28832   1.30546   1.30580
 Alpha virt. eigenvalues --    1.33067   1.34068   1.34069   1.34466   1.39887
 Alpha virt. eigenvalues --    1.41881   1.41882   1.41957   1.41959   1.42234
 Alpha virt. eigenvalues --    1.42259   1.43416   1.43472   1.45704   1.46928
 Alpha virt. eigenvalues --    1.46942   1.49158   1.49166   1.49585   1.53891
 Alpha virt. eigenvalues --    1.55326   1.58598   1.58599   1.60034   1.60082
 Alpha virt. eigenvalues --    1.60391   1.60414   1.65082   1.65083   1.68967
 Alpha virt. eigenvalues --    1.78618   1.78618   1.81433   1.81433   1.95417
 Alpha virt. eigenvalues --    1.95417   2.01924   2.12524   2.12578   2.13995
 Alpha virt. eigenvalues --    2.14053   2.16263   2.16290   2.16721   2.16747
 Alpha virt. eigenvalues --    2.28291   2.28292   2.30841   2.32426   2.46385
 Alpha virt. eigenvalues --    2.46388   2.49325   2.51847   2.54559   2.54560
 Alpha virt. eigenvalues --    2.65350   2.65352   2.65604   2.65605   2.67425
 Alpha virt. eigenvalues --    2.72822   2.72880   2.73340   2.79907   2.82266
 Alpha virt. eigenvalues --    2.82267   2.84209   2.86019   2.86069   2.89165
 Alpha virt. eigenvalues --    2.89166   2.94279   2.94294   3.00972   3.00982
 Alpha virt. eigenvalues --    3.01398   3.01398   3.09393   3.09396   3.10193
 Alpha virt. eigenvalues --    3.10195   3.10705   3.10718   3.15560   3.20907
 Alpha virt. eigenvalues --    3.20915   3.22875   3.22890   3.23185   3.23186
 Alpha virt. eigenvalues --    3.25093   3.25094   3.35590   3.36913   3.36924
 Alpha virt. eigenvalues --    3.37007   3.43052   3.43052   3.44816   3.44824
 Alpha virt. eigenvalues --    3.48094   3.54274   3.54291   3.55530   3.55531
 Alpha virt. eigenvalues --    3.57486   3.57487   3.59892   3.59907   3.62588
 Alpha virt. eigenvalues --    3.62611   3.63419   3.64467   3.64474   3.64499
 Alpha virt. eigenvalues --    3.68046   3.68233   3.68740   3.68740   3.69249
 Alpha virt. eigenvalues --    3.69250   3.76837   3.76838   3.78020   3.78039
 Alpha virt. eigenvalues --    3.79144   3.79144   3.80425   3.80442   3.80447
 Alpha virt. eigenvalues --    3.81373   3.81884   3.81890   3.84040   3.85344
 Alpha virt. eigenvalues --    3.85344   3.86476   3.96177   3.96200   4.00119
 Alpha virt. eigenvalues --    4.00146   4.01058   4.06856   4.06858   4.10467
 Alpha virt. eigenvalues --    4.12955   4.12956   4.27592   4.27597   4.29603
 Alpha virt. eigenvalues --    4.29627   4.36550   4.56877   4.56878   4.61190
 Alpha virt. eigenvalues --    4.61215   4.74548   4.74563   4.75823   4.75826
 Alpha virt. eigenvalues --    4.85945   4.85946   4.87570   4.87571   5.07373
 Alpha virt. eigenvalues --    5.15163   5.15397  23.90686  24.01227  24.09366
 Alpha virt. eigenvalues --   24.09389  24.14509  24.14535  24.25967  24.25968
 Alpha virt. eigenvalues --   24.37779  24.37780
 Electronic spatial extent (au):  <R**2>=           1342.4554
 Charge=              0.0000 electrons
 Dipole moment (field-independent basis, Debye):
    X=              0.0000    Y=             -0.0003    Z=             -0.0935  Tot=              0.0935
 Quadrupole moment (field-independent basis, Debye-Ang):
   XX=            -81.1152   YY=            -67.0485   ZZ=            -67.0500
   XY=             -0.0001   XZ=             -0.0002   YZ=              0.0003
 Traceless Quadrupole moment (field-independent basis, Debye-Ang):
   XX=             -9.3773   YY=              4.6893   ZZ=              4.6879
   XY=             -0.0001   XZ=             -0.0002   YZ=              0.0003
 Octapole moment (field-independent basis, Debye-Ang**2):
  XXX=             -0.0002  YYY=              0.0005  ZZZ=             -0.4998  XYY=             -0.0008
  XXY=              0.0109  XXZ=             -0.3469  XZZ=              0.0006  YZZ=              0.0010
  YYZ=             -0.1672  XYZ=             -0.0007
 Hexadecapole moment (field-independent basis, Debye-Ang**3):
 XXXX=          -1183.1253 YYYY=           -378.6971 ZZZZ=           -378.7064 XXXY=             -0.0010
 XXXZ=             -0.0024 YYYX=             -0.0002 YYYZ=              0.0682 ZZZX=             -0.0011
 ZZZY=             -0.0684 XXYY=           -239.1686 XXZZ=           -239.1706 YYZZ=           -126.1818
 XXYZ=             -0.0028 YYXZ=             -0.0003 ZZXY=             -0.0008
 N-N= 9.192345822002D+02 E-N=-5.744136693478D+03  KE= 1.646810491728D+03
  Exact polarizability: 139.263   0.000 110.795   0.000   0.001 110.795
 Approx polarizability: 216.992   0.000 182.957   0.000   0.000 182.960
 No NMR shielding tensors so no spin-rotation constants.
 Leave Link  601 at Sun Apr 11 19:21:15 2021, MaxMem=  1048576000 cpu:         5.2
 (Enter /usr/local/g09/l106.exe)
 NDeriv=   3 NFrqRd=  2 NDerD0=   0 MskFDP=      31 MskDFD=      31 MskDF0=       0
 Re-enter D2Numr: IAtom=  0 IXYZ=3 IStep= 1.
 Leave Link  106 at Sun Apr 11 19:21:15 2021, MaxMem=  1048576000 cpu:         2.6
 (Enter /usr/local/g09/l301.exe)
 Basis read from rwf:  (5D, 7F)
 Pseudo-potential data read from rwf file.
 The following finite field(s) will be applied:
 An electric field of              0.0000  0.0000  0.0007
   375 basis functions,   602 primitive gaussians,   402 cartesian basis functions
    48 alpha electrons       48 beta electrons
       nuclear repulsion energy       919.2345822002 Hartrees.
 IExCor= 1009 DFT=T Ex+Corr=PBE1PBE ExCW=0 ScaHFX=  0.250000
 ScaDFX=  0.750000  0.750000  1.000000  1.000000 ScalE2=  1.000000  1.000000
 IRadAn=      0 IRanWt=     -1 IRanGd=            0 ICorTp=0 IEmpDi=  4
 NAtoms=   21 NActive=   21 NUniq=   21 SFac= 1.00D+00 NAtFMM=   60 NAOKFM=F Big=F
 Integral buffers will be    131072 words long.
 Raffenetti 2 integral format.
 Two-electron integral symmetry is turned off.
 No density basis found on file   724.
 Leave Link  301 at Sun Apr 11 19:21:15 2021, MaxMem=  1048576000 cpu:         1.3
 (Enter /usr/local/g09/l302.exe)
 NPDir=0 NMtPBC=     1 NCelOv=     1 NCel=       1 NClECP=     1 NCelD=      1
         NCelK=      1 NCelE2=     1 NClLst=     1 CellRange=     0.0.
 One-electron integrals computed using PRISM.
   1 Symmetry operations used in ECPInt.
 ECPInt:  NShTT=    7875 NPrTT=   28235 LenC2=    7866 LenP2D=   21150.
 LDataN:  DoStor=T MaxTD1= 6 Len=  172
 NBasis=   375 RedAO= T EigKep=  3.67D-06  NBF=   375
 NBsUse=   375 1.00D-06 EigRej= -1.00D+00 NBFU=   375
 Precomputing XC quadrature grid using
 IXCGrd= 4 IRadAn=           0 IRanWt=          -1 IRanGd=           0 AccXCQ= 0.00D+00.
 Generated NRdTot=       0 NPtTot=           0 NUsed=           0 NTot=          32
 NSgBfM=   402   402   402   402   402 MxSgAt=    21 MxSgA2=    21.
 Leave Link  302 at Sun Apr 11 19:21:15 2021, MaxMem=  1048576000 cpu:         8.4
 (Enter /usr/local/g09/l303.exe)
 DipDrv:  MaxL=1.
 The nuclear repulsion energy is now       919.2345822002 hartrees.
 Leave Link  303 at Sun Apr 11 19:21:15 2021, MaxMem=  1048576000 cpu:         1.4
 (Enter /usr/local/g09/l401.exe)
 Initial guess from the checkpoint file:  "ferr_pbe0.chk"
 B after Tr=     0.000000    0.000000    0.000000
         Rot=    1.000000    0.000000    0.000000    0.000000 Ang=   0.00 deg.
 Guess basis will be translated and rotated to current coordinates.
 JPrj=2 DoOrth=T DoCkMO=T.
 Leave Link  401 at Sun Apr 11 19:21:16 2021, MaxMem=  1048576000 cpu:         9.9
 (Enter /usr/local/g09/l502.exe)
 Closed shell SCF:
 Using DIIS extrapolation, IDIIS=  1040.
 Two-electron integral symmetry not used.
 IVT=      515866 IEndB=      515866 NGot=  1048576000 MDV=  1048238781
 LenX=  1048238781 LenY=  1048076736
 Requested convergence on RMS density matrix=1.00D-10 within 128 cycles.
 Requested convergence on MAX density matrix=1.00D-08.
 Requested convergence on             energy=1.00D-08.
 No special actions if energy rises.
 Fock matrices will be formed incrementally for  20 cycles.

 Cycle   1  Pass 1  IDiag  1:
 FoFJK:  IHMeth= 1 ICntrl=       0 DoSepK=F KAlg= 0 I1Cent=   0 FoldK=F
 IRaf= 980000000 NMat=   1 IRICut=       1 DoRegI=T DoRafI=F ISym2E= 0.
 FoFCou: FMM=F IPFlag=           0 FMFlag=      100000 FMFlg1=           0
         NFxFlg=           0 DoJE=F BraDBF=F KetDBF=F FulRan=T
         wScrn=  0.000000 ICntrl=       0 IOpCl=  0 I1Cent=           0 NGrid=           0
         NMat0=    1 NMatS0=      1 NMatT0=    0 NMatD0=    1 NMtDS0=    0 NMtDT0=    0
 Symmetry not used in FoFCou.
 E= -1650.24294430017    
 DIIS: error= 2.68D-04 at cycle   1 NSaved=   1.
 NSaved= 1 IEnMin= 1 EnMin= -1650.24294430017     IErMin= 1 ErrMin= 2.68D-04
 ErrMax= 2.68D-04  0.00D+00 EMaxC= 1.00D-01 BMatC= 1.12D-05 BMatP= 1.12D-05
 IDIUse=3 WtCom= 9.97D-01 WtEn= 2.68D-03
 Coeff-Com:  0.100D+01
 Coeff-En:   0.100D+01
 Coeff:      0.100D+01
 Gap=     0.451 Goal=   None    Shift=    0.000
 RMSDP=3.32D-04 MaxDP=1.95D-02              OVMax= 2.62D-03

 Cycle   2  Pass 1  IDiag  1:
 RMSU=  3.32D-04    CP:  1.00D+00
 E= -1650.24294655538     Delta-E=       -0.000002255216 Rises=F Damp=F
 DIIS: error= 3.36D-04 at cycle   2 NSaved=   2.
 NSaved= 2 IEnMin= 2 EnMin= -1650.24294655538     IErMin= 1 ErrMin= 2.68D-04
 ErrMax= 3.36D-04  0.00D+00 EMaxC= 1.00D-01 BMatC= 2.02D-05 BMatP= 1.12D-05
 IDIUse=3 WtCom= 3.53D-01 WtEn= 6.47D-01
 Coeff-Com:  0.583D+00 0.417D+00
 Coeff-En:   0.471D+00 0.529D+00
 Coeff:      0.510D+00 0.490D+00
 Gap=     0.217 Goal=   None    Shift=    0.000
 RMSDP=1.68D-04 MaxDP=8.36D-03 DE=-2.26D-06 OVMax= 1.49D-03

 Cycle   3  Pass 1  IDiag  1:
 RMSU=  6.19D-05    CP:  1.00D+00  5.31D-01
 E= -1650.24296596927     Delta-E=       -0.000019413886 Rises=F Damp=F
 DIIS: error= 9.22D-05 at cycle   3 NSaved=   3.
 NSaved= 3 IEnMin= 3 EnMin= -1650.24296596927     IErMin= 3 ErrMin= 9.22D-05
 ErrMax= 9.22D-05  0.00D+00 EMaxC= 1.00D-01 BMatC= 3.36D-06 BMatP= 1.12D-05
 IDIUse=1 WtCom= 1.00D+00 WtEn= 0.00D+00
 Coeff-Com:  0.183D+00 0.293D+00 0.524D+00
 Coeff:      0.183D+00 0.293D+00 0.524D+00
 Gap=     0.217 Goal=   None    Shift=    0.000
 RMSDP=2.01D-05 MaxDP=1.17D-03 DE=-1.94D-05 OVMax= 3.47D-04

 Cycle   4  Pass 1  IDiag  1:
 RMSU=  7.49D-06    CP:  1.00D+00  5.82D-01  8.83D-01
 E= -1650.24296890890     Delta-E=       -0.000002939630 Rises=F Damp=F
 DIIS: error= 7.34D-06 at cycle   4 NSaved=   4.
 NSaved= 4 IEnMin= 4 EnMin= -1650.24296890890     IErMin= 4 ErrMin= 7.34D-06
 ErrMax= 7.34D-06  0.00D+00 EMaxC= 1.00D-01 BMatC= 1.63D-08 BMatP= 3.36D-06
 IDIUse=1 WtCom= 1.00D+00 WtEn= 0.00D+00
 Coeff-Com:  0.139D-01 0.370D-01 0.909D-01 0.858D+00
 Coeff:      0.139D-01 0.370D-01 0.909D-01 0.858D+00
 Gap=     0.217 Goal=   None    Shift=    0.000
 RMSDP=2.51D-06 MaxDP=1.34D-04 DE=-2.94D-06 OVMax= 7.95D-05

 Cycle   5  Pass 1  IDiag  1:
 RMSU=  2.01D-06    CP:  1.00D+00  5.86D-01  8.90D-01  9.52D-01
 E= -1650.24296885325     Delta-E=        0.000000055644 Rises=F Damp=F
 DIIS: error= 3.28D-05 at cycle   5 NSaved=   5.
 NSaved= 5 IEnMin= 4 EnMin= -1650.24296890890     IErMin= 4 ErrMin= 7.34D-06
 ErrMax= 3.28D-05  0.00D+00 EMaxC= 1.00D-01 BMatC= 1.46D-07 BMatP= 1.63D-08
 IDIUse=1 WtCom= 1.00D+00 WtEn= 0.00D+00
 Coeff-Com:  0.496D-02 0.208D-01 0.569D-01 0.742D+00 0.175D+00
 Coeff:      0.496D-02 0.208D-01 0.569D-01 0.742D+00 0.175D+00
 Gap=     0.217 Goal=   None    Shift=    0.000
 RMSDP=1.43D-06 MaxDP=7.24D-05 DE= 5.56D-08 OVMax= 6.60D-05

 Cycle   6  Pass 1  IDiag  1:
 RMSU=  1.09D-06    CP:  1.00D+00  5.87D-01  8.91D-01  9.60D-01  5.90D-01
 E= -1650.24296891776     Delta-E=       -0.000000064510 Rises=F Damp=F
 DIIS: error= 6.84D-06 at cycle   6 NSaved=   6.
 NSaved= 6 IEnMin= 6 EnMin= -1650.24296891776     IErMin= 6 ErrMin= 6.84D-06
 ErrMax= 6.84D-06  0.00D+00 EMaxC= 1.00D-01 BMatC= 7.07D-09 BMatP= 1.63D-08
 IDIUse=1 WtCom= 1.00D+00 WtEn= 0.00D+00
 Coeff-Com: -0.217D-02 0.667D-03 0.824D-03 0.185D+00 0.170D+00 0.645D+00
 Coeff:     -0.217D-02 0.667D-03 0.824D-03 0.185D+00 0.170D+00 0.645D+00
 Gap=     0.217 Goal=   None    Shift=    0.000
 RMSDP=5.24D-07 MaxDP=2.85D-05 DE=-6.45D-08 OVMax= 1.80D-05

 Cycle   7  Pass 1  IDiag  1:
 RMSU=  1.91D-07    CP:  1.00D+00  5.86D-01  8.95D-01  9.82D-01  6.38D-01
                    CP:  7.98D-01
 E= -1650.24296892153     Delta-E=       -0.000000003763 Rises=F Damp=F
 DIIS: error= 4.05D-07 at cycle   7 NSaved=   7.
 NSaved= 7 IEnMin= 7 EnMin= -1650.24296892153     IErMin= 7 ErrMin= 4.05D-07
 ErrMax= 4.05D-07  0.00D+00 EMaxC= 1.00D-01 BMatC= 4.74D-11 BMatP= 7.07D-09
 IDIUse=1 WtCom= 1.00D+00 WtEn= 0.00D+00
 Coeff-Com: -0.395D-03-0.324D-03-0.880D-03 0.288D-02 0.318D-01 0.162D+00
 Coeff-Com:  0.805D+00
 Coeff:     -0.395D-03-0.324D-03-0.880D-03 0.288D-02 0.318D-01 0.162D+00
 Coeff:      0.805D+00
 Gap=     0.217 Goal=   None    Shift=    0.000
 RMSDP=1.69D-07 MaxDP=8.10D-06 DE=-3.76D-09 OVMax= 3.14D-06

 Cycle   8  Pass 1  IDiag  1:
 RMSU=  4.82D-08    CP:  1.00D+00  5.86D-01  8.94D-01  9.81D-01  6.55D-01
                    CP:  8.40D-01  9.99D-01
 E= -1650.24296892155     Delta-E=       -0.000000000022 Rises=F Damp=F
 DIIS: error= 1.03D-07 at cycle   8 NSaved=   8.
 NSaved= 8 IEnMin= 8 EnMin= -1650.24296892155     IErMin= 8 ErrMin= 1.03D-07
 ErrMax= 1.03D-07  0.00D+00 EMaxC= 1.00D-01 BMatC= 1.22D-12 BMatP= 4.74D-11
 IDIUse=1 WtCom= 1.00D+00 WtEn= 0.00D+00
 Coeff-Com:  0.272D-04-0.136D-03 0.508D-04-0.645D-02-0.555D-02-0.229D-01
 Coeff-Com: -0.298D-03 0.104D+01
 Coeff:      0.272D-04-0.136D-03 0.508D-04-0.645D-02-0.555D-02-0.229D-01
 Coeff:     -0.298D-03 0.104D+01
 Gap=     0.217 Goal=   None    Shift=    0.000
 RMSDP=2.80D-08 MaxDP=1.53D-06 DE=-2.18D-11 OVMax= 1.66D-06

 Cycle   9  Pass 1  IDiag  1:
 RMSU=  1.62D-08    CP:  1.00D+00  5.86D-01  8.95D-01  9.80D-01  6.61D-01
                    CP:  8.44D-01  1.07D+00  1.22D+00
 E= -1650.24296892160     Delta-E=       -0.000000000053 Rises=F Damp=F
 DIIS: error= 3.37D-08 at cycle   9 NSaved=   9.
 NSaved= 9 IEnMin= 9 EnMin= -1650.24296892160     IErMin= 9 ErrMin= 3.37D-08
 ErrMax= 3.37D-08  0.00D+00 EMaxC= 1.00D-01 BMatC= 3.16D-13 BMatP= 1.22D-12
 IDIUse=1 WtCom= 1.00D+00 WtEn= 0.00D+00
 Coeff-Com:  0.334D-04-0.432D-04 0.993D-04-0.214D-02-0.416D-02-0.176D-01
 Coeff-Com: -0.527D-01 0.329D+00 0.748D+00
 Coeff:      0.334D-04-0.432D-04 0.993D-04-0.214D-02-0.416D-02-0.176D-01
 Coeff:     -0.527D-01 0.329D+00 0.748D+00
 Gap=     0.217 Goal=   None    Shift=    0.000
 RMSDP=1.27D-08 MaxDP=7.13D-07 DE=-5.32D-11 OVMax= 4.56D-07

 Cycle  10  Pass 1  IDiag  1:
 RMSU=  6.93D-09    CP:  1.00D+00  5.86D-01  8.94D-01  9.80D-01  6.59D-01
                    CP:  8.48D-01  1.08D+00  1.35D+00  7.12D-01
 E= -1650.24296892154     Delta-E=        0.000000000060 Rises=F Damp=F
 DIIS: error= 1.82D-08 at cycle  10 NSaved=  10.
 NSaved=10 IEnMin= 9 EnMin= -1650.24296892160     IErMin=10 ErrMin= 1.82D-08
 ErrMax= 1.82D-08  0.00D+00 EMaxC= 1.00D-01 BMatC= 8.04D-14 BMatP= 3.16D-13
 IDIUse=1 WtCom= 1.00D+00 WtEn= 0.00D+00
 Coeff-Com:  0.106D-04 0.512D-05 0.462D-04 0.453D-03-0.572D-03-0.358D-02
 Coeff-Com: -0.256D-01-0.760D-01 0.354D+00 0.751D+00
 Coeff:      0.106D-04 0.512D-05 0.462D-04 0.453D-03-0.572D-03-0.358D-02
 Coeff:     -0.256D-01-0.760D-01 0.354D+00 0.751D+00
 Gap=     0.217 Goal=   None    Shift=    0.000
 RMSDP=5.61D-09 MaxDP=3.56D-07 DE= 6.00D-11 OVMax= 2.17D-07

 Cycle  11  Pass 1  IDiag  1:
 RMSU=  8.29D-10    CP:  1.00D+00  5.86D-01  8.94D-01  9.80D-01  6.60D-01
                    CP:  8.47D-01  1.08D+00  1.38D+00  9.29D-01  8.23D-01
 E= -1650.24296892155     Delta-E=       -0.000000000011 Rises=F Damp=F
 DIIS: error= 1.08D-09 at cycle  11 NSaved=  11.
 NSaved=11 IEnMin= 9 EnMin= -1650.24296892160     IErMin=11 ErrMin= 1.08D-09
 ErrMax= 1.08D-09  0.00D+00 EMaxC= 1.00D-01 BMatC= 4.02D-16 BMatP= 8.04D-14
 IDIUse=1 WtCom= 1.00D+00 WtEn= 0.00D+00
 Coeff-Com: -0.608D-06 0.254D-05-0.819D-06 0.116D-03 0.899D-04 0.359D-03
 Coeff-Com: -0.341D-03-0.184D-01 0.536D-02 0.691D-01 0.944D+00
 Coeff:     -0.608D-06 0.254D-05-0.819D-06 0.116D-03 0.899D-04 0.359D-03
 Coeff:     -0.341D-03-0.184D-01 0.536D-02 0.691D-01 0.944D+00
 Gap=     0.217 Goal=   None    Shift=    0.000
 RMSDP=9.77D-10 MaxDP=5.71D-08 DE=-1.09D-11 OVMax= 2.25D-08

 Cycle  12  Pass 1  IDiag  1:
 RMSU=  2.98D-10    CP:  1.00D+00  5.86D-01  8.94D-01  9.80D-01  6.60D-01
                    CP:  8.47D-01  1.08D+00  1.38D+00  9.33D-01  8.48D-01
                    CP:  9.38D-01
 E= -1650.24296892157     Delta-E=       -0.000000000015 Rises=F Damp=F
 DIIS: error= 6.03D-10 at cycle  12 NSaved=  12.
 NSaved=12 IEnMin= 9 EnMin= -1650.24296892160     IErMin=12 ErrMin= 6.03D-10
 ErrMax= 6.03D-10  0.00D+00 EMaxC= 1.00D-01 BMatC= 1.37D-16 BMatP= 4.02D-16
 IDIUse=1 WtCom= 1.00D+00 WtEn= 0.00D+00
 Coeff-Com: -0.524D-06 0.124D-05-0.144D-05 0.483D-04 0.615D-04 0.260D-03
 Coeff-Com:  0.497D-03-0.753D-02-0.643D-02 0.161D-01 0.482D+00 0.515D+00
 Coeff:     -0.524D-06 0.124D-05-0.144D-05 0.483D-04 0.615D-04 0.260D-03
 Coeff:      0.497D-03-0.753D-02-0.643D-02 0.161D-01 0.482D+00 0.515D+00
 Gap=     0.217 Goal=   None    Shift=    0.000
 RMSDP=2.50D-10 MaxDP=1.28D-08 DE=-1.55D-11 OVMax= 3.65D-09

 Cycle  13  Pass 1  IDiag  1:
 RMSU=  7.85D-11    CP:  1.00D+00  5.86D-01  8.94D-01  9.80D-01  6.60D-01
                    CP:  8.47D-01  1.08D+00  1.38D+00  9.33D-01  8.49D-01
                    CP:  1.02D+00  2.39D-01
 E= -1650.24296892155     Delta-E=        0.000000000016 Rises=F Damp=F
 DIIS: error= 2.43D-10 at cycle  13 NSaved=  13.
 NSaved=13 IEnMin= 9 EnMin= -1650.24296892160     IErMin=13 ErrMin= 2.43D-10
 ErrMax= 2.43D-10  0.00D+00 EMaxC= 1.00D-01 BMatC= 1.67D-17 BMatP= 1.37D-16
 IDIUse=1 WtCom= 1.00D+00 WtEn= 0.00D+00
 Coeff-Com: -0.168D-06 0.318D-06-0.661D-06 0.817D-05 0.190D-04 0.820D-04
 Coeff-Com:  0.347D-03-0.119D-02-0.464D-02-0.254D-02 0.115D+00 0.285D+00
 Coeff-Com:  0.608D+00
 Coeff:     -0.168D-06 0.318D-06-0.661D-06 0.817D-05 0.190D-04 0.820D-04
 Coeff:      0.347D-03-0.119D-02-0.464D-02-0.254D-02 0.115D+00 0.285D+00
 Coeff:      0.608D+00
 Gap=     0.217 Goal=   None    Shift=    0.000
 RMSDP=8.35D-11 MaxDP=4.56D-09 DE= 1.64D-11 OVMax= 1.03D-09

 SCF Done:  E(RPBE1PBE) =  -1650.24296892     A.U. after   13 cycles
            NFock= 13  Conv=0.84D-10     -V/T= 2.0021
 KE= 1.646810484931D+03 PE=-5.744136539511D+03 EE= 1.527848503458D+03
 Leave Link  502 at Sun Apr 11 19:22:07 2021, MaxMem=  1048576000 cpu:      1274.4
 (Enter /usr/local/g09/l801.exe)
 DoSCS=F DFT=T ScalE2(SS,OS)=  1.000000  1.000000
 Range of M.O.s used for correlation:     1   375
 NBasis=   375 NAE=    48 NBE=    48 NFC=     0 NFV=     0
 NROrb=    375 NOA=    48 NOB=    48 NVA=   327 NVB=   327

 **** Warning!!: The largest alpha MO coefficient is  0.11454640D+03

 Leave Link  801 at Sun Apr 11 19:22:07 2021, MaxMem=  1048576000 cpu:         0.8
 (Enter /usr/local/g09/l1002.exe)
 Minotr:  Closed shell wavefunction.
          Direct CPHF calculation.
          Differentiating once with respect to electric field.
                with respect to dipole field.
          Electric field/nuclear overlap derivatives assumed to be zero.
          Requested convergence is 1.0D-10 RMS, and 1.0D-09 maximum.
          NewPWx=F KeepS1=T KeepF1=T KeepIn=T MapXYZ=F SortEE=F KeepMc=T.
          MDV=    1048575453 using IRadAn=       1.
 Generate precomputed XC quadrature information.
          Solving linear equations separately, MaxMat=       0.
          Doing perturbations at frequencies    0.000000    0.105471    0.210941
          There are     9 degrees of freedom in the 1st order CPHF.  IDoFFX=0 NUNeed=     9.
 LinEq1:  Iter=  0 NonCon=     9 RMS=2.93D-01 Max=2.50D+01 NDo=     9
 AX will form     9 AO Fock derivatives at one time.
 FoFJK:  IHMeth= 1 ICntrl=       0 DoSepK=F KAlg= 0 I1Cent=   0 FoldK=F
 IRaf= 980000000 NMat=  18 IRICut=      22 DoRegI=T DoRafI=T ISym2E= 0.
 FoFCou: FMM=F IPFlag=           0 FMFlag=      100000 FMFlg1=           0
         NFxFlg=           0 DoJE=F BraDBF=F KetDBF=F FulRan=T
         wScrn=  0.000000 ICntrl=       0 IOpCl=  0 I1Cent=           0 NGrid=           0
         NMat0=   18 NMatS0=      9 NMatT0=    0 NMatD0=   18 NMtDS0=    0 NMtDT0=    0
 Symmetry not used in FoFCou.
 LinEq1:  Iter=  1 NonCon=     9 RMS=1.73D-01 Max=6.62D+00 NDo=     9
 LinEq1:  Iter=  2 NonCon=     9 RMS=7.82D-01 Max=9.53D+01 NDo=     9
 LinEq1:  Iter=  3 NonCon=     9 RMS=1.93D+00 Max=6.80D+01 NDo=     9
 LinEq1:  Iter=  4 NonCon=     9 RMS=4.77D+00 Max=5.86D+02 NDo=     9
 LinEq1:  Iter=  5 NonCon=     9 RMS=2.51D+01 Max=1.59D+03 NDo=     9
 LinEq1:  Iter=  6 NonCon=     9 RMS=1.17D+02 Max=1.41D+04 NDo=     9
 LinEq1:  Iter=  7 NonCon=     9 RMS=2.02D+02 Max=2.17D+04 NDo=     9
 LinEq1:  Iter=  8 NonCon=     9 RMS=2.11D+02 Max=2.69D+04 NDo=     9
 LinEq1:  Iter=  9 NonCon=     9 RMS=1.85D+03 Max=2.36D+05 NDo=     9
 LinEq1:  Iter= 10 NonCon=     9 RMS=5.82D+03 Max=8.44D+05 NDo=     9
 LinEq1:  Iter= 11 NonCon=     9 RMS=3.71D+04 Max=2.37D+06 NDo=     9
 LinEq1:  Iter= 12 NonCon=     9 RMS=2.01D+04 Max=8.03D+05 NDo=     9
 LinEq1:  Iter= 13 NonCon=     9 RMS=1.58D+04 Max=1.44D+06 NDo=     9
 LinEq1:  Iter= 14 NonCon=     9 RMS=2.52D+04 Max=1.91D+06 NDo=     9
 LinEq1:  Iter= 15 NonCon=     9 RMS=2.89D+04 Max=2.13D+06 NDo=     9
 LinEq1:  Iter= 16 NonCon=     9 RMS=5.09D+04 Max=4.68D+06 NDo=     9
 LinEq1:  Iter= 17 NonCon=     9 RMS=5.50D+04 Max=4.66D+06 NDo=     9
 LinEq1:  Iter= 18 NonCon=     9 RMS=3.66D+04 Max=2.20D+06 NDo=     9
 LinEq1:  Iter= 19 NonCon=     9 RMS=4.17D+04 Max=2.25D+06 NDo=     9
 LinEq1:  Iter= 20 NonCon=     9 RMS=2.69D+04 Max=2.18D+06 NDo=     9
 LinEq1:  Iter= 21 NonCon=     9 RMS=3.19D+04 Max=2.79D+06 NDo=     9
 LinEq1:  Iter= 22 NonCon=     9 RMS=6.37D+04 Max=6.50D+06 NDo=     9
 LinEq1:  Iter= 23 NonCon=     9 RMS=4.20D+04 Max=3.43D+06 NDo=     9
 LinEq1:  Iter= 24 NonCon=     9 RMS=3.33D+04 Max=1.32D+06 NDo=     9
 LinEq1:  Iter= 25 NonCon=     9 RMS=2.19D+04 Max=1.10D+06 NDo=     9
 LinEq1:  Iter= 26 NonCon=     6 RMS=1.33D+04 Max=9.44D+05 NDo=     9
 LinEq1:  Iter= 27 NonCon=     6 RMS=9.33D+03 Max=3.46D+05 NDo=     6
 LinEq1:  Iter= 28 NonCon=     6 RMS=4.66D+03 Max=2.12D+05 NDo=     6
 LinEq1:  Iter= 29 NonCon=     6 RMS=2.29D+03 Max=1.44D+05 NDo=     6
 LinEq1:  Iter= 30 NonCon=     6 RMS=9.64D+02 Max=4.63D+04 NDo=     6
 LinEq1:  Iter= 31 NonCon=     6 RMS=4.04D+02 Max=2.42D+04 NDo=     6
 LinEq1:  Iter= 32 NonCon=     6 RMS=3.76D+02 Max=1.75D+04 NDo=     6
 LinEq1:  Iter= 33 NonCon=     6 RMS=2.50D+02 Max=1.24D+04 NDo=     6
 LinEq1:  Iter= 34 NonCon=     3 RMS=1.07D+02 Max=6.86D+03 NDo=     6
 LinEq1:  Iter= 35 NonCon=     3 RMS=5.46D+01 Max=2.72D+03 NDo=     3
 LinEq1:  Iter= 36 NonCon=     3 RMS=3.42D+01 Max=1.56D+03 NDo=     3
 LinEq1:  Iter= 37 NonCon=     3 RMS=3.26D+01 Max=1.56D+03 NDo=     3
 LinEq1:  Iter= 38 NonCon=     3 RMS=1.55D+01 Max=8.54D+02 NDo=     3
 LinEq1:  Iter= 39 NonCon=     3 RMS=1.28D+01 Max=6.58D+02 NDo=     3
 LinEq1:  Iter= 40 NonCon=     3 RMS=1.13D+01 Max=5.65D+02 NDo=     3
 LinEq1:  Iter= 41 NonCon=     3 RMS=4.88D+00 Max=2.32D+02 NDo=     3
 LinEq1:  Iter= 42 NonCon=     3 RMS=1.73D+00 Max=9.44D+01 NDo=     3
 LinEq1:  Iter= 43 NonCon=     3 RMS=8.37D-01 Max=5.75D+01 NDo=     3
 LinEq1:  Iter= 44 NonCon=     3 RMS=2.90D-01 Max=1.17D+01 NDo=     3
 LinEq1:  Iter= 45 NonCon=     3 RMS=1.36D-01 Max=4.88D+00 NDo=     3
 LinEq1:  Iter= 46 NonCon=     3 RMS=6.69D-02 Max=4.93D+00 NDo=     3
 LinEq1:  Iter= 47 NonCon=     3 RMS=2.94D-02 Max=1.75D+00 NDo=     3
 LinEq1:  Iter= 48 NonCon=     3 RMS=1.70D-02 Max=8.15D-01 NDo=     3
 LinEq1:  Iter= 49 NonCon=     3 RMS=1.16D-02 Max=8.11D-01 NDo=     3
 LinEq1:  Iter= 50 NonCon=     3 RMS=3.83D-03 Max=1.61D-01 NDo=     3
 LinEq1:  Iter= 51 NonCon=     3 RMS=1.43D-03 Max=7.23D-02 NDo=     3
 LinEq1:  Iter= 52 NonCon=     3 RMS=6.99D-04 Max=5.07D-02 NDo=     3
 LinEq1:  Iter= 53 NonCon=     3 RMS=2.91D-04 Max=1.74D-02 NDo=     3
 LinEq1:  Iter= 54 NonCon=     3 RMS=8.79D-05 Max=3.99D-03 NDo=     3
 LinEq1:  Iter= 55 NonCon=     3 RMS=3.32D-05 Max=1.73D-03 NDo=     3
 LinEq1:  Iter= 56 NonCon=     3 RMS=9.14D-06 Max=4.77D-04 NDo=     3
 LinEq1:  Iter= 57 NonCon=     3 RMS=2.59D-06 Max=1.44D-04 NDo=     3
 LinEq1:  Iter= 58 NonCon=     3 RMS=1.24D-06 Max=7.83D-05 NDo=     3
 LinEq1:  Iter= 59 NonCon=     3 RMS=5.76D-07 Max=3.58D-05 NDo=     3
 LinEq1:  Iter= 60 NonCon=     3 RMS=2.31D-07 Max=1.40D-05 NDo=     3
 LinEq1:  Iter= 61 NonCon=     3 RMS=7.83D-08 Max=2.53D-06 NDo=     3
 LinEq1:  Iter= 62 NonCon=     3 RMS=2.75D-08 Max=9.02D-07 NDo=     3
 LinEq1:  Iter= 63 NonCon=     3 RMS=1.15D-08 Max=7.10D-07 NDo=     3
 LinEq1:  Iter= 64 NonCon=     3 RMS=4.49D-09 Max=1.16D-07 NDo=     3
 LinEq1:  Iter= 65 NonCon=     3 RMS=1.30D-09 Max=5.62D-08 NDo=     3
 LinEq1:  Iter= 66 NonCon=     3 RMS=5.39D-10 Max=2.45D-08 NDo=     3
 LinEq1:  Iter= 67 NonCon=     2 RMS=2.11D-10 Max=5.45D-09 NDo=     3
 LinEq1:  Iter= 68 NonCon=     1 RMS=6.84D-11 Max=4.49D-09 NDo=     2
 LinEq1:  Iter= 69 NonCon=     1 RMS=2.32D-11 Max=1.67D-09 NDo=     1
 LinEq1:  Iter= 70 NonCon=     0 RMS=1.22D-11 Max=5.52D-10 NDo=     1
 Linear equations converged to 1.000D-10 1.000D-09 after    70 iterations.
 FullF1:  Do perturbations    1 to     9.
 SCF Polarizability for W=    0.000000:
                1             2             3 
      1  0.139265D+03
      2 -0.102307D-03  0.110796D+03
      3  0.273731D-03  0.678994D-03  0.110798D+03
 Isotropic polarizability for W=    0.000000      120.29 Bohr**3.
 SCF Polarizability for W=    0.105471:
                1             2             3 
      1  0.154461D+03
      2 -0.112129D-03  0.116488D+03
      3  0.377630D-03  0.957966D-03  0.116491D+03
 Isotropic polarizability for W=    0.105471      129.15 Bohr**3.
 SCF Polarizability for W=    0.210941:
                1             2             3 
      1  0.325683D+03
      2 -0.898509D-03  0.131466D+03
      3  0.230822D-02 -0.669792D-01  0.131552D+03
 Isotropic polarizability for W=    0.210941      196.23 Bohr**3.
 SCF Static Hyperpolarizability:
 K=  1 block:
                1 
      1  0.340754D-02
 K=  2 block:
                1             2 
      1  0.111578D+00
      2 -0.249993D-04 -0.316697D-01
 K=  3 block:
                1             2             3 
      1  0.829158D+01
      2 -0.148127D-02  0.362032D+01
      3  0.955140D-03 -0.344608D-01  0.109962D+02
 SCF Beta(-W,W;0) for W=    0.105471:
 K=  1 block:
                1             2             3 
      1  0.506254D-02
      2  0.161124D+00 -0.648874D-03
      3  0.132769D+02 -0.238687D-02  0.140446D-02
 K=  2 block:
                1             2             3 
      1  0.178699D+00
      2 -0.277598D-03 -0.661099D-01
      3 -0.428476D-02  0.519848D+01 -0.515164D-01
 K=  3 block:
                1             2             3 
      1  0.144584D+02
      2 -0.880944D-03  0.522726D+01
      3  0.171748D-02 -0.517958D-01  0.158082D+02
 SCF Beta(W,W;-2W) for W=    0.105471:
 K=  1 block:
                1             2             3 
      1  0.448553D-01
      2  0.137472D+01  0.167214D-01
      3  0.704236D+02 -0.914098D-03 -0.426934D-03
 K=  2 block:
                1             2             3 
      1  0.586389D+00
      2 -0.997523D-02 -0.505607D+01
      3 -0.244307D+00  0.360801D+02  0.401077D+01
 K=  3 block:
                1             2             3 
      1  0.139955D+02
      2  0.210970D+00 -0.497043D+02
      3  0.983373D-02  0.397839D+01  0.314022D+02
 SCF Beta(-W,W;0) for W=    0.210941:
 K=  1 block:
                1             2             3 
      1  0.127151D+00
      2  0.629317D+00  0.142614D+00
      3  0.284301D+03  0.186767D+00 -0.199180D+00
 K=  2 block:
                1             2             3 
      1  0.798911D+00
      2  0.124737D+00  0.282761D+03
      3  0.201655D+00  0.308647D+03 -0.247443D+03
 K=  3 block:
                1             2             3 
      1  0.436832D+03
      2 -0.136599D+00  0.329837D+03
      3 -0.792505D-01 -0.259274D+03  0.379655D+03
 End of Minotr F.D. properties on file   721 Mask=      31 NFrqRd=     2 NDeriv=     1 ND12= 1 LenFil=      94:
 Frequencies=    0.000000    0.105471
 Property number 1 -- Alpha(-w,w) frequency  1    0.000000:
                 1             2             3 
      1   0.139265D+03 -0.102307D-03  0.273731D-03
      2  -0.102307D-03  0.110796D+03  0.678994D-03
      3   0.273731D-03  0.678994D-03  0.110798D+03
 Property number 1 -- Alpha(-w,w) frequency  2    0.105471:
                 1             2             3 
      1   0.154461D+03 -0.112129D-03  0.377630D-03
      2  -0.112129D-03  0.116488D+03  0.957966D-03
      3   0.377630D-03  0.957966D-03  0.116491D+03
 Property number 5 -- Beta(-w,w,0) frequency  1    0.000000:
                 1 
      1   0.340754D-02
      2   0.111578D+00
      3  -0.249993D-04
      4   0.829158D+01
      5  -0.148127D-02
      6   0.955140D-03
      7   0.111578D+00
      8  -0.249993D-04
      9  -0.316697D-01
     10  -0.148127D-02
     11   0.362032D+01
     12  -0.344608D-01
     13   0.829158D+01
     14  -0.148127D-02
     15   0.362032D+01
     16   0.955140D-03
     17  -0.344608D-01
     18   0.109962D+02
 Property number 5 -- Beta(-w,w,0) frequency  2    0.105471:
                 1 
      1   0.506254D-02
      2   0.161124D+00
      3  -0.648874D-03
      4   0.132769D+02
      5  -0.238687D-02
      6   0.140446D-02
      7   0.178699D+00
      8  -0.277598D-03
      9  -0.661099D-01
     10  -0.428476D-02
     11   0.519848D+01
     12  -0.515164D-01
     13   0.144584D+02
     14  -0.880944D-03
     15   0.522726D+01
     16   0.171748D-02
     17  -0.517958D-01
     18   0.158082D+02
 Property number 6 -- Beta(w,w,-2w) frequency  1    0.000000:
                 1 
      1   0.340754D-02
      2   0.111578D+00
      3  -0.249993D-04
      4   0.829158D+01
      5  -0.148127D-02
      6   0.955140D-03
      7   0.111578D+00
      8  -0.249993D-04
      9  -0.316697D-01
     10  -0.148127D-02
     11   0.362032D+01
     12  -0.344608D-01
     13   0.829158D+01
     14  -0.148127D-02
     15   0.362032D+01
     16   0.955140D-03
     17  -0.344608D-01
     18   0.109962D+02
 Property number 6 -- Beta(w,w,-2w) frequency  2    0.105471:
                 1 
      1   0.448553D-01
      2   0.137472D+01
      3   0.167214D-01
      4   0.704236D+02
      5  -0.914098D-03
      6  -0.426934D-03
      7   0.586389D+00
      8  -0.997523D-02
      9  -0.505607D+01
     10  -0.244307D+00
     11   0.360801D+02
     12   0.401077D+01
     13   0.139955D+02
     14   0.210970D+00
     15  -0.497043D+02
     16   0.983373D-02
     17   0.397839D+01
     18   0.314022D+02
 End of Minotr F.D. properties file   722 does not exist.
 End of Minotr F.D. properties file   788 does not exist.
 Leave Link 1002 at Sun Apr 11 19:41:15 2021, MaxMem=  1048576000 cpu:     28690.0
 (Enter /usr/local/g09/l601.exe)
 Copying SCF densities to generalized density rwf, IOpCl= 0 IROHF=0.

 **********************************************************************

            Population analysis using the SCF density.

 **********************************************************************

 Alpha  occ. eigenvalues -- -256.33215 -30.10132 -25.93988 -25.92058 -25.92057
 Alpha  occ. eigenvalues --  -10.22814 -10.22813 -10.22767 -10.22766 -10.22747
 Alpha  occ. eigenvalues --  -10.22747 -10.22707 -10.22707 -10.22667 -10.22666
 Alpha  occ. eigenvalues --   -3.44961  -2.23693  -2.19176  -2.19175  -0.92203
 Alpha  occ. eigenvalues --   -0.90475  -0.73481  -0.73481  -0.73382  -0.73382
 Alpha  occ. eigenvalues --   -0.56430  -0.56390  -0.55527  -0.55486  -0.55477
 Alpha  occ. eigenvalues --   -0.54034  -0.43035  -0.42107  -0.42107  -0.41176
 Alpha  occ. eigenvalues --   -0.41176  -0.39330  -0.39314  -0.38823  -0.38811
 Alpha  occ. eigenvalues --   -0.37604  -0.28076  -0.28076  -0.26258  -0.26257
 Alpha  occ. eigenvalues --   -0.24482  -0.21460  -0.21457
 Alpha virt. eigenvalues --    0.00193   0.00196   0.01275   0.02692   0.02736
 Alpha virt. eigenvalues --    0.03476   0.04108   0.04170   0.04967   0.05622
 Alpha virt. eigenvalues --    0.05643   0.05895   0.05927   0.06184   0.06259
 Alpha virt. eigenvalues --    0.08952   0.09126   0.09162   0.09962   0.09967
 Alpha virt. eigenvalues --    0.11208   0.11214   0.13587   0.13596   0.13911
 Alpha virt. eigenvalues --    0.13917   0.14132   0.14561   0.14568   0.17275
 Alpha virt. eigenvalues --    0.17414   0.17956   0.17960   0.18214   0.18279
 Alpha virt. eigenvalues --    0.18326   0.19005   0.19029   0.19270   0.19327
 Alpha virt. eigenvalues --    0.19641   0.21029   0.21359   0.21841   0.21852
 Alpha virt. eigenvalues --    0.23249   0.23328   0.24057   0.24058   0.25313
 Alpha virt. eigenvalues --    0.26002   0.26737   0.26749   0.26760   0.26761
 Alpha virt. eigenvalues --    0.29074   0.29181   0.30697   0.31258   0.31308
 Alpha virt. eigenvalues --    0.34624   0.34625   0.35873   0.35892   0.38916
 Alpha virt. eigenvalues --    0.40170   0.40227   0.40676   0.40680   0.41905
 Alpha virt. eigenvalues --    0.41925   0.43763   0.44514   0.45679   0.48075
 Alpha virt. eigenvalues --    0.48344   0.52534   0.52536   0.55987   0.55992
 Alpha virt. eigenvalues --    0.56239   0.56240   0.58901   0.58989   0.61406
 Alpha virt. eigenvalues --    0.61470   0.61474   0.61480   0.61549   0.61916
 Alpha virt. eigenvalues --    0.64264   0.64278   0.64413   0.64415   0.65757
 Alpha virt. eigenvalues --    0.65757   0.67121   0.67122   0.69894   0.70221
 Alpha virt. eigenvalues --    0.70262   0.70296   0.70422   0.71938   0.72029
 Alpha virt. eigenvalues --    0.72251   0.72348   0.72365   0.73420   0.74486
 Alpha virt. eigenvalues --    0.74556   0.75758   0.78648   0.78649   0.82064
 Alpha virt. eigenvalues --    0.86803   0.86805   0.87162   0.87163   0.87547
 Alpha virt. eigenvalues --    0.88967   0.88999   0.97115   0.97530   0.98173
 Alpha virt. eigenvalues --    0.98286   1.01073   1.01073   1.02639   1.02666
 Alpha virt. eigenvalues --    1.09189   1.09238   1.09795   1.09796   1.12375
 Alpha virt. eigenvalues --    1.12375   1.16815   1.16843   1.19361   1.25610
 Alpha virt. eigenvalues --    1.25628   1.25698   1.27079   1.27100   1.27279
 Alpha virt. eigenvalues --    1.27279   1.28830   1.28832   1.30528   1.30598
 Alpha virt. eigenvalues --    1.33067   1.34068   1.34069   1.34466   1.39887
 Alpha virt. eigenvalues --    1.41880   1.41882   1.41957   1.41958   1.42220
 Alpha virt. eigenvalues --    1.42273   1.43388   1.43501   1.45704   1.46921
 Alpha virt. eigenvalues --    1.46948   1.49154   1.49170   1.49585   1.53891
 Alpha virt. eigenvalues --    1.55326   1.58598   1.58599   1.60009   1.60108
 Alpha virt. eigenvalues --    1.60385   1.60420   1.65082   1.65083   1.68967
 Alpha virt. eigenvalues --    1.78618   1.78618   1.81433   1.81433   1.95417
 Alpha virt. eigenvalues --    1.95417   2.01924   2.12496   2.12606   2.13969
 Alpha virt. eigenvalues --    2.14080   2.16248   2.16304   2.16707   2.16761
 Alpha virt. eigenvalues --    2.28291   2.28292   2.30841   2.32426   2.46384
 Alpha virt. eigenvalues --    2.46388   2.49324   2.51847   2.54559   2.54560
 Alpha virt. eigenvalues --    2.65350   2.65352   2.65604   2.65605   2.67425
 Alpha virt. eigenvalues --    2.72792   2.72910   2.73340   2.79907   2.82266
 Alpha virt. eigenvalues --    2.82267   2.84209   2.85993   2.86094   2.89165
 Alpha virt. eigenvalues --    2.89166   2.94272   2.94301   3.00967   3.00987
 Alpha virt. eigenvalues --    3.01398   3.01398   3.09392   3.09398   3.10193
 Alpha virt. eigenvalues --    3.10195   3.10700   3.10723   3.15560   3.20906
 Alpha virt. eigenvalues --    3.20916   3.22867   3.22898   3.23185   3.23186
 Alpha virt. eigenvalues --    3.25092   3.25094   3.35589   3.36910   3.36927
 Alpha virt. eigenvalues --    3.37006   3.43052   3.43052   3.44814   3.44826
 Alpha virt. eigenvalues --    3.48094   3.54266   3.54299   3.55530   3.55531
 Alpha virt. eigenvalues --    3.57486   3.57487   3.59884   3.59915   3.62576
 Alpha virt. eigenvalues --    3.62623   3.63419   3.64461   3.64467   3.64511
 Alpha virt. eigenvalues --    3.68046   3.68233   3.68741   3.68741   3.69249
 Alpha virt. eigenvalues --    3.69250   3.76837   3.76838   3.78012   3.78047
 Alpha virt. eigenvalues --    3.79144   3.79144   3.80415   3.80447   3.80451
 Alpha virt. eigenvalues --    3.81374   3.81883   3.81891   3.84040   3.85344
 Alpha virt. eigenvalues --    3.85344   3.86476   3.96167   3.96210   4.00110
 Alpha virt. eigenvalues --    4.00154   4.01058   4.06856   4.06857   4.10467
 Alpha virt. eigenvalues --    4.12955   4.12956   4.27590   4.27599   4.29592
 Alpha virt. eigenvalues --    4.29637   4.36549   4.56877   4.56877   4.61177
 Alpha virt. eigenvalues --    4.61228   4.74540   4.74570   4.75823   4.75826
 Alpha virt. eigenvalues --    4.85945   4.85946   4.87570   4.87571   5.07373
 Alpha virt. eigenvalues --    5.15163   5.15397  23.90685  24.01226  24.09353
 Alpha virt. eigenvalues --   24.09401  24.14496  24.14547  24.25967  24.25968
 Alpha virt. eigenvalues --   24.37779  24.37780
 Electronic spatial extent (au):  <R**2>=           1342.4561
 Charge=              0.0000 electrons
 Dipole moment (field-independent basis, Debye):
    X=              0.0000    Y=             -0.0003    Z=             -0.1874  Tot=              0.1874
 Quadrupole moment (field-independent basis, Debye-Ang):
   XX=            -81.1153   YY=            -67.0486   ZZ=            -67.0507
   XY=             -0.0001   XZ=             -0.0002   YZ=              0.0003
 Traceless Quadrupole moment (field-independent basis, Debye-Ang):
   XX=             -9.3771   YY=              4.6896   ZZ=              4.6875
   XY=             -0.0001   XZ=             -0.0002   YZ=              0.0003
 Octapole moment (field-independent basis, Debye-Ang**2):
  XXX=             -0.0002  YYY=              0.0006  ZZZ=             -0.9998  XYY=             -0.0008
  XXY=              0.0109  XXZ=             -0.6882  XZZ=              0.0006  YZZ=              0.0008
  YYZ=             -0.3338  XYZ=             -0.0007
 Hexadecapole moment (field-independent basis, Debye-Ang**3):
 XXXX=          -1183.1295 YYYY=           -378.7374 ZZZZ=           -378.7548 XXXY=             -0.0010
 XXXZ=             -0.0024 YYYX=             -0.0002 YYYZ=              0.1368 ZZZX=             -0.0011
 ZZZY=             -0.1370 XXYY=           -239.1694 XXZZ=           -239.1742 YYZZ=           -126.1446
 XXYZ=             -0.0028 YYXZ=             -0.0003 ZZXY=             -0.0008
 N-N= 9.192345822002D+02 E-N=-5.744136539538D+03  KE= 1.646810484931D+03
  Exact polarizability: 139.265   0.000 110.796   0.000   0.001 110.798
 Approx polarizability: 216.994   0.000 182.958   0.000  -0.001 182.963
 No NMR shielding tensors so no spin-rotation constants.
 Leave Link  601 at Sun Apr 11 19:41:15 2021, MaxMem=  1048576000 cpu:         5.3
 (Enter /usr/local/g09/l106.exe)
 NDeriv=   3 NFrqRd=  2 NDerD0=   0 MskFDP=      31 MskDFD=      31 MskDF0=       0
 Re-enter D2Numr: IAtom=  0 IXYZ=3 IStep= 2.
 Leave Link  106 at Sun Apr 11 19:41:15 2021, MaxMem=  1048576000 cpu:         3.3
 (Enter /usr/local/g09/l301.exe)
 Basis read from rwf:  (5D, 7F)
 Pseudo-potential data read from rwf file.
 The following finite field(s) will be applied:
 An electric field of              0.0000  0.0000 -0.0003
   375 basis functions,   602 primitive gaussians,   402 cartesian basis functions
    48 alpha electrons       48 beta electrons
       nuclear repulsion energy       919.2345822002 Hartrees.
 IExCor= 1009 DFT=T Ex+Corr=PBE1PBE ExCW=0 ScaHFX=  0.250000
 ScaDFX=  0.750000  0.750000  1.000000  1.000000 ScalE2=  1.000000  1.000000
 IRadAn=      0 IRanWt=     -1 IRanGd=            0 ICorTp=0 IEmpDi=  4
 NAtoms=   21 NActive=   21 NUniq=   21 SFac= 1.00D+00 NAtFMM=   60 NAOKFM=F Big=F
 Integral buffers will be    131072 words long.
 Raffenetti 2 integral format.
 Two-electron integral symmetry is turned off.
 No density basis found on file   724.
 Leave Link  301 at Sun Apr 11 19:41:15 2021, MaxMem=  1048576000 cpu:         1.4
 (Enter /usr/local/g09/l302.exe)
 NPDir=0 NMtPBC=     1 NCelOv=     1 NCel=       1 NClECP=     1 NCelD=      1
         NCelK=      1 NCelE2=     1 NClLst=     1 CellRange=     0.0.
 One-electron integrals computed using PRISM.
   1 Symmetry operations used in ECPInt.
 ECPInt:  NShTT=    7875 NPrTT=   28235 LenC2=    7866 LenP2D=   21150.
 LDataN:  DoStor=T MaxTD1= 6 Len=  172
 NBasis=   375 RedAO= T EigKep=  3.67D-06  NBF=   375
 NBsUse=   375 1.00D-06 EigRej= -1.00D+00 NBFU=   375
 Precomputing XC quadrature grid using
 IXCGrd= 4 IRadAn=           0 IRanWt=          -1 IRanGd=           0 AccXCQ= 0.00D+00.
 Generated NRdTot=       0 NPtTot=           0 NUsed=           0 NTot=          32
 NSgBfM=   402   402   402   402   402 MxSgAt=    21 MxSgA2=    21.
 Leave Link  302 at Sun Apr 11 19:41:15 2021, MaxMem=  1048576000 cpu:         9.0
 (Enter /usr/local/g09/l303.exe)
 DipDrv:  MaxL=1.
 The nuclear repulsion energy is now       919.2345822002 hartrees.
 Leave Link  303 at Sun Apr 11 19:41:15 2021, MaxMem=  1048576000 cpu:         1.5
 (Enter /usr/local/g09/l401.exe)
 Initial guess from the checkpoint file:  "ferr_pbe0.chk"
 B after Tr=     0.000000    0.000000    0.000000
         Rot=    1.000000    0.000000    0.000000    0.000000 Ang=   0.00 deg.
 Guess basis will be translated and rotated to current coordinates.
 JPrj=2 DoOrth=T DoCkMO=T.
 Leave Link  401 at Sun Apr 11 19:41:16 2021, MaxMem=  1048576000 cpu:         6.6
 (Enter /usr/local/g09/l502.exe)
 Closed shell SCF:
 Using DIIS extrapolation, IDIIS=  1040.
 Two-electron integral symmetry not used.
 IVT=      515866 IEndB=      515866 NGot=  1048576000 MDV=  1048238781
 LenX=  1048238781 LenY=  1048076736
 Requested convergence on RMS density matrix=1.00D-10 within 128 cycles.
 Requested convergence on MAX density matrix=1.00D-08.
 Requested convergence on             energy=1.00D-08.
 No special actions if energy rises.
 Fock matrices will be formed incrementally for  20 cycles.

 Cycle   1  Pass 1  IDiag  1:
 FoFJK:  IHMeth= 1 ICntrl=       0 DoSepK=F KAlg= 0 I1Cent=   0 FoldK=F
 IRaf= 980000000 NMat=   1 IRICut=       1 DoRegI=T DoRafI=F ISym2E= 0.
 FoFCou: FMM=F IPFlag=           0 FMFlag=      100000 FMFlg1=           0
         NFxFlg=           0 DoJE=F BraDBF=F KetDBF=F FulRan=T
         wScrn=  0.000000 ICntrl=       0 IOpCl=  0 I1Cent=           0 NGrid=           0
         NMat0=    1 NMatS0=      1 NMatT0=    0 NMatD0=    1 NMtDS0=    0 NMtDT0=    0
 Symmetry not used in FoFCou.
 E= -1650.24294444459    
 DIIS: error= 1.34D-04 at cycle   1 NSaved=   1.
 NSaved= 1 IEnMin= 1 EnMin= -1650.24294444459     IErMin= 1 ErrMin= 1.34D-04
 ErrMax= 1.34D-04  0.00D+00 EMaxC= 1.00D-01 BMatC= 2.81D-06 BMatP= 2.81D-06
 IDIUse=3 WtCom= 9.99D-01 WtEn= 1.34D-03
 Coeff-Com:  0.100D+01
 Coeff-En:   0.100D+01
 Coeff:      0.100D+01
 Gap=     0.451 Goal=   None    Shift=    0.000
 RMSDP=1.66D-04 MaxDP=9.40D-03              OVMax= 1.32D-03

 Cycle   2  Pass 1  IDiag  1:
 RMSU=  1.66D-04    CP:  1.00D+00
 E= -1650.24294500838     Delta-E=       -0.000000563798 Rises=F Damp=F
 DIIS: error= 1.68D-04 at cycle   2 NSaved=   2.
 NSaved= 2 IEnMin= 2 EnMin= -1650.24294500838     IErMin= 1 ErrMin= 1.34D-04
 ErrMax= 1.68D-04  0.00D+00 EMaxC= 1.00D-01 BMatC= 5.05D-06 BMatP= 2.81D-06
 IDIUse=3 WtCom= 4.35D-01 WtEn= 5.65D-01
 Coeff-Com:  0.583D+00 0.417D+00
 Coeff-En:   0.471D+00 0.529D+00
 Coeff:      0.520D+00 0.480D+00
 Gap=     0.217 Goal=   None    Shift=    0.000
 RMSDP=8.23D-05 MaxDP=4.04D-03 DE=-5.64D-07 OVMax= 7.33D-04

 Cycle   3  Pass 1  IDiag  1:
 RMSU=  3.04D-05    CP:  1.00D+00  5.40D-01
 E= -1650.24294994974     Delta-E=       -0.000004941354 Rises=F Damp=F
 DIIS: error= 4.24D-05 at cycle   3 NSaved=   3.
 NSaved= 3 IEnMin= 3 EnMin= -1650.24294994974     IErMin= 3 ErrMin= 4.24D-05
 ErrMax= 4.24D-05  0.00D+00 EMaxC= 1.00D-01 BMatC= 7.44D-07 BMatP= 2.81D-06
 IDIUse=1 WtCom= 1.00D+00 WtEn= 0.00D+00
 Coeff-Com:  0.183D+00 0.283D+00 0.534D+00
 Coeff:      0.183D+00 0.283D+00 0.534D+00
 Gap=     0.217 Goal=   None    Shift=    0.000
 RMSDP=8.57D-06 MaxDP=4.98D-04 DE=-4.94D-06 OVMax= 1.61D-04

 Cycle   4  Pass 1  IDiag  1:
 RMSU=  3.75D-06    CP:  1.00D+00  5.82D-01  9.00D-01
 E= -1650.24295059722     Delta-E=       -0.000000647485 Rises=F Damp=F
 DIIS: error= 2.43D-06 at cycle   4 NSaved=   4.
 NSaved= 4 IEnMin= 4 EnMin= -1650.24295059722     IErMin= 4 ErrMin= 2.43D-06
 ErrMax= 2.43D-06  0.00D+00 EMaxC= 1.00D-01 BMatC= 2.96D-09 BMatP= 7.44D-07
 IDIUse=1 WtCom= 1.00D+00 WtEn= 0.00D+00
 Coeff-Com:  0.953D-02 0.287D-01 0.806D-01 0.881D+00
 Coeff:      0.953D-02 0.287D-01 0.806D-01 0.881D+00
 Gap=     0.217 Goal=   None    Shift=    0.000
 RMSDP=1.15D-06 MaxDP=5.38D-05 DE=-6.47D-07 OVMax= 2.24D-05

 Cycle   5  Pass 1  IDiag  1:
 RMSU=  8.49D-07    CP:  1.00D+00  5.87D-01  9.07D-01  9.54D-01
 E= -1650.24295059623     Delta-E=        0.000000000990 Rises=F Damp=F
 DIIS: error= 7.31D-06 at cycle   5 NSaved=   5.
 NSaved= 5 IEnMin= 4 EnMin= -1650.24295059722     IErMin= 4 ErrMin= 2.43D-06
 ErrMax= 7.31D-06  0.00D+00 EMaxC= 1.00D-01 BMatC= 7.50D-09 BMatP= 2.96D-09
 IDIUse=1 WtCom= 1.00D+00 WtEn= 0.00D+00
 Coeff-Com:  0.376D-02 0.167D-01 0.489D-01 0.662D+00 0.268D+00
 Coeff:      0.376D-02 0.167D-01 0.489D-01 0.662D+00 0.268D+00
 Gap=     0.217 Goal=   None    Shift=    0.000
 RMSDP=5.07D-07 MaxDP=2.68D-05 DE= 9.90D-10 OVMax= 2.36D-05

 Cycle   6  Pass 1  IDiag  1:
 RMSU=  4.52D-07    CP:  1.00D+00  5.87D-01  9.09D-01  9.64D-01  8.10D-01
 E= -1650.24295059703     Delta-E=       -0.000000000795 Rises=F Damp=F
 DIIS: error= 6.60D-06 at cycle   6 NSaved=   6.
 NSaved= 6 IEnMin= 4 EnMin= -1650.24295059722     IErMin= 4 ErrMin= 2.43D-06
 ErrMax= 6.60D-06  0.00D+00 EMaxC= 1.00D-01 BMatC= 5.97D-09 BMatP= 2.96D-09
 IDIUse=1 WtCom= 1.00D+00 WtEn= 0.00D+00
 Coeff-Com: -0.217D-02 0.649D-03 0.835D-03 0.186D+00 0.404D+00 0.411D+00
 Coeff:     -0.217D-02 0.649D-03 0.835D-03 0.186D+00 0.404D+00 0.411D+00
 Gap=     0.217 Goal=   None    Shift=    0.000
 RMSDP=3.08D-07 MaxDP=1.80D-05 DE=-7.95D-10 OVMax= 1.35D-05

 Cycle   7  Pass 1  IDiag  1:
 RMSU=  9.50D-08    CP:  1.00D+00  5.86D-01  9.13D-01  9.82D-01  8.68D-01
                    CP:  5.16D-01
 E= -1650.24295059987     Delta-E=       -0.000000002846 Rises=F Damp=F
 DIIS: error= 2.02D-07 at cycle   7 NSaved=   7.
 NSaved= 7 IEnMin= 7 EnMin= -1650.24295059987     IErMin= 7 ErrMin= 2.02D-07
 ErrMax= 2.02D-07  0.00D+00 EMaxC= 1.00D-01 BMatC= 1.29D-11 BMatP= 2.96D-09
 IDIUse=1 WtCom= 1.00D+00 WtEn= 0.00D+00
 Coeff-Com: -0.394D-03-0.307D-03-0.896D-03 0.279D-02 0.868D-01 0.108D+00
 Coeff-Com:  0.804D+00
 Coeff:     -0.394D-03-0.307D-03-0.896D-03 0.279D-02 0.868D-01 0.108D+00
 Coeff:      0.804D+00
 Gap=     0.217 Goal=   None    Shift=    0.000
 RMSDP=8.40D-08 MaxDP=3.83D-06 DE=-2.85D-09 OVMax= 1.64D-06

 Cycle   8  Pass 1  IDiag  1:
 RMSU=  2.36D-08    CP:  1.00D+00  5.86D-01  9.12D-01  9.81D-01  8.96D-01
                    CP:  5.48D-01  1.00D+00
 E= -1650.24295059987     Delta-E=        0.000000000006 Rises=F Damp=F
 DIIS: error= 5.12D-08 at cycle   8 NSaved=   8.
 NSaved= 8 IEnMin= 7 EnMin= -1650.24295059987     IErMin= 8 ErrMin= 5.12D-08
 ErrMax= 5.12D-08  0.00D+00 EMaxC= 1.00D-01 BMatC= 2.74D-13 BMatP= 1.29D-11
 IDIUse=1 WtCom= 1.00D+00 WtEn= 0.00D+00
 Coeff-Com:  0.349D-04-0.134D-03 0.712D-04-0.656D-02-0.158D-01-0.171D-01
 Coeff-Com: -0.182D-01 0.106D+01
 Coeff:      0.349D-04-0.134D-03 0.712D-04-0.656D-02-0.158D-01-0.171D-01
 Coeff:     -0.182D-01 0.106D+01
 Gap=     0.217 Goal=   None    Shift=    0.000
 RMSDP=1.32D-08 MaxDP=6.04D-07 DE= 6.37D-12 OVMax= 8.31D-07

 Cycle   9  Pass 1  IDiag  1:
 RMSU=  6.09D-09    CP:  1.00D+00  5.86D-01  9.12D-01  9.81D-01  9.03D-01
                    CP:  5.51D-01  1.07D+00  1.27D+00
 E= -1650.24295059990     Delta-E=       -0.000000000030 Rises=F Damp=F
 DIIS: error= 1.45D-08 at cycle   9 NSaved=   9.
 NSaved= 9 IEnMin= 9 EnMin= -1650.24295059990     IErMin= 9 ErrMin= 1.45D-08
 ErrMax= 1.45D-08  0.00D+00 EMaxC= 1.00D-01 BMatC= 3.43D-14 BMatP= 2.74D-13
 IDIUse=1 WtCom= 1.00D+00 WtEn= 0.00D+00
 Coeff-Com:  0.274D-04-0.205D-04 0.967D-04-0.732D-03-0.718D-02-0.807D-02
 Coeff-Com: -0.505D-01 0.109D+00 0.957D+00
 Coeff:      0.274D-04-0.205D-04 0.967D-04-0.732D-03-0.718D-02-0.807D-02
 Coeff:     -0.505D-01 0.109D+00 0.957D+00
 Gap=     0.217 Goal=   None    Shift=    0.000
 RMSDP=5.35D-09 MaxDP=3.15D-07 DE=-3.00D-11 OVMax= 2.45D-07

 Cycle  10  Pass 1  IDiag  1:
 RMSU=  3.11D-09    CP:  1.00D+00  5.86D-01  9.12D-01  9.80D-01  9.02D-01
                    CP:  5.56D-01  1.08D+00  1.39D+00  9.51D-01
 E= -1650.24295059985     Delta-E=        0.000000000045 Rises=F Damp=F
 DIIS: error= 8.72D-09 at cycle  10 NSaved=  10.
 NSaved=10 IEnMin= 9 EnMin= -1650.24295059990     IErMin=10 ErrMin= 8.72D-09
 ErrMax= 8.72D-09  0.00D+00 EMaxC= 1.00D-01 BMatC= 1.62D-14 BMatP= 3.43D-14
 IDIUse=1 WtCom= 1.00D+00 WtEn= 0.00D+00
 Coeff-Com:  0.102D-04 0.423D-05 0.455D-04 0.447D-03-0.168D-02-0.239D-02
 Coeff-Com: -0.247D-01-0.755D-01 0.509D+00 0.594D+00
 Coeff:      0.102D-04 0.423D-05 0.455D-04 0.447D-03-0.168D-02-0.239D-02
 Coeff:     -0.247D-01-0.755D-01 0.509D+00 0.594D+00
 Gap=     0.217 Goal=   None    Shift=    0.000
 RMSDP=2.27D-09 MaxDP=1.46D-07 DE= 4.50D-11 OVMax= 6.29D-08

 Cycle  11  Pass 1  IDiag  1:
 RMSU=  4.22D-10    CP:  1.00D+00  5.86D-01  9.12D-01  9.80D-01  9.03D-01
                    CP:  5.54D-01  1.09D+00  1.41D+00  1.14D+00  6.20D-01
 E= -1650.24295059990     Delta-E=       -0.000000000052 Rises=F Damp=F
 DIIS: error= 6.92D-10 at cycle  11 NSaved=  11.
 NSaved=11 IEnMin=11 EnMin= -1650.24295059990     IErMin=11 ErrMin= 6.92D-10
 ErrMax= 6.92D-10  0.00D+00 EMaxC= 1.00D-01 BMatC= 1.58D-16 BMatP= 1.62D-14
 IDIUse=1 WtCom= 1.00D+00 WtEn= 0.00D+00
 Coeff-Com: -0.652D-06 0.255D-05-0.103D-05 0.115D-03 0.226D-03 0.240D-03
 Coeff-Com: -0.242D-03-0.184D-01 0.122D-01 0.912D-01 0.915D+00
 Coeff:     -0.652D-06 0.255D-05-0.103D-05 0.115D-03 0.226D-03 0.240D-03
 Coeff:     -0.242D-03-0.184D-01 0.122D-01 0.912D-01 0.915D+00
 Gap=     0.217 Goal=   None    Shift=    0.000
 RMSDP=4.88D-10 MaxDP=3.26D-08 DE=-5.23D-11 OVMax= 1.11D-08

 Cycle  12  Pass 1  IDiag  1:
 RMSU=  1.49D-10    CP:  1.00D+00  5.86D-01  9.12D-01  9.80D-01  9.03D-01
                    CP:  5.54D-01  1.09D+00  1.41D+00  1.14D+00  6.62D-01
                    CP:  9.06D-01
 E= -1650.24295059986     Delta-E=        0.000000000047 Rises=F Damp=F
 DIIS: error= 2.81D-10 at cycle  12 NSaved=  12.
 NSaved=12 IEnMin=11 EnMin= -1650.24295059990     IErMin=12 ErrMin= 2.81D-10
 ErrMax= 2.81D-10  0.00D+00 EMaxC= 1.00D-01 BMatC= 3.04D-17 BMatP= 1.58D-16
 IDIUse=1 WtCom= 1.00D+00 WtEn= 0.00D+00
 Coeff-Com: -0.518D-06 0.126D-05-0.145D-05 0.479D-04 0.152D-03 0.168D-03
 Coeff-Com:  0.493D-03-0.757D-02-0.628D-02 0.318D-01 0.462D+00 0.519D+00
 Coeff:     -0.518D-06 0.126D-05-0.145D-05 0.479D-04 0.152D-03 0.168D-03
 Coeff:      0.493D-03-0.757D-02-0.628D-02 0.318D-01 0.462D+00 0.519D+00
 Gap=     0.217 Goal=   None    Shift=    0.000
 RMSDP=1.27D-10 MaxDP=7.65D-09 DE= 4.68D-11 OVMax= 1.76D-09

 Cycle  13  Pass 1  IDiag  1:
 RMSU=  4.16D-11    CP:  1.00D+00  5.86D-01  9.12D-01  9.80D-01  9.03D-01
                    CP:  5.54D-01  1.09D+00  1.41D+00  1.14D+00  6.62D-01
                    CP:  9.84D-01  2.27D-01
 E= -1650.24295059985     Delta-E=        0.000000000005 Rises=F Damp=F
 DIIS: error= 1.22D-10 at cycle  13 NSaved=  13.
 NSaved=13 IEnMin=11 EnMin= -1650.24295059990     IErMin=13 ErrMin= 1.22D-10
 ErrMax= 1.22D-10  0.00D+00 EMaxC= 1.00D-01 BMatC= 4.45D-18 BMatP= 3.04D-17
 IDIUse=1 WtCom= 1.00D+00 WtEn= 0.00D+00
 Coeff-Com: -0.159D-06 0.311D-06-0.651D-06 0.740D-05 0.453D-04 0.510D-04
 Coeff-Com:  0.343D-03-0.109D-02-0.605D-02 0.192D-02 0.104D+00 0.298D+00
 Coeff-Com:  0.603D+00
 Coeff:     -0.159D-06 0.311D-06-0.651D-06 0.740D-05 0.453D-04 0.510D-04
 Coeff:      0.343D-03-0.109D-02-0.605D-02 0.192D-02 0.104D+00 0.298D+00
 Coeff:      0.603D+00
 Gap=     0.217 Goal=   None    Shift=    0.000
 RMSDP=4.31D-11 MaxDP=2.79D-09 DE= 5.00D-12 OVMax= 5.15D-10

 SCF Done:  E(RPBE1PBE) =  -1650.24295060     A.U. after   13 cycles
            NFock= 13  Conv=0.43D-10     -V/T= 2.0021
 KE= 1.646810491413D+03 PE=-5.744136693570D+03 EE= 1.527848669357D+03
 Leave Link  502 at Sun Apr 11 19:42:06 2021, MaxMem=  1048576000 cpu:      1264.7
 (Enter /usr/local/g09/l801.exe)
 DoSCS=F DFT=T ScalE2(SS,OS)=  1.000000  1.000000
 Range of M.O.s used for correlation:     1   375
 NBasis=   375 NAE=    48 NBE=    48 NFC=     0 NFV=     0
 NROrb=    375 NOA=    48 NOB=    48 NVA=   327 NVB=   327

 **** Warning!!: The largest alpha MO coefficient is  0.11229870D+03

 Leave Link  801 at Sun Apr 11 19:42:06 2021, MaxMem=  1048576000 cpu:         1.0
 (Enter /usr/local/g09/l1002.exe)
 Minotr:  Closed shell wavefunction.
          Direct CPHF calculation.
          Differentiating once with respect to electric field.
                with respect to dipole field.
          Electric field/nuclear overlap derivatives assumed to be zero.
          Requested convergence is 1.0D-10 RMS, and 1.0D-09 maximum.
          NewPWx=F KeepS1=T KeepF1=T KeepIn=T MapXYZ=F SortEE=F KeepMc=T.
          MDV=    1048575453 using IRadAn=       1.
 Generate precomputed XC quadrature information.
          Solving linear equations separately, MaxMat=       0.
          Doing perturbations at frequencies    0.000000    0.105471    0.210941
          There are     9 degrees of freedom in the 1st order CPHF.  IDoFFX=0 NUNeed=     9.
 LinEq1:  Iter=  0 NonCon=     9 RMS=2.92D-01 Max=2.31D+01 NDo=     9
 AX will form     9 AO Fock derivatives at one time.
 FoFJK:  IHMeth= 1 ICntrl=       0 DoSepK=F KAlg= 0 I1Cent=   0 FoldK=F
 IRaf= 980000000 NMat=  18 IRICut=      22 DoRegI=T DoRafI=T ISym2E= 0.
 FoFCou: FMM=F IPFlag=           0 FMFlag=      100000 FMFlg1=           0
         NFxFlg=           0 DoJE=F BraDBF=F KetDBF=F FulRan=T
         wScrn=  0.000000 ICntrl=       0 IOpCl=  0 I1Cent=           0 NGrid=           0
         NMat0=   18 NMatS0=      9 NMatT0=    0 NMatD0=   18 NMtDS0=    0 NMtDT0=    0
 Symmetry not used in FoFCou.
 LinEq1:  Iter=  1 NonCon=     9 RMS=1.69D-01 Max=6.53D+00 NDo=     9
 LinEq1:  Iter=  2 NonCon=     9 RMS=4.89D-01 Max=4.75D+01 NDo=     9
 LinEq1:  Iter=  3 NonCon=     9 RMS=1.88D+00 Max=6.04D+01 NDo=     9
 LinEq1:  Iter=  4 NonCon=     9 RMS=3.81D+00 Max=4.30D+02 NDo=     9
 LinEq1:  Iter=  5 NonCon=     9 RMS=1.82D+01 Max=1.36D+03 NDo=     9
 LinEq1:  Iter=  6 NonCon=     9 RMS=1.13D+02 Max=1.27D+04 NDo=     9
 LinEq1:  Iter=  7 NonCon=     9 RMS=1.28D+02 Max=1.41D+04 NDo=     9
 LinEq1:  Iter=  8 NonCon=     9 RMS=1.25D+02 Max=1.91D+04 NDo=     9
 LinEq1:  Iter=  9 NonCon=     9 RMS=4.98D+02 Max=5.11D+04 NDo=     9
 LinEq1:  Iter= 10 NonCon=     9 RMS=2.34D+03 Max=1.21D+05 NDo=     9
 LinEq1:  Iter= 11 NonCon=     9 RMS=5.15D+03 Max=5.39D+05 NDo=     9
 LinEq1:  Iter= 12 NonCon=     9 RMS=1.30D+04 Max=4.42D+05 NDo=     9
 LinEq1:  Iter= 13 NonCon=     9 RMS=1.23D+04 Max=1.22D+06 NDo=     9
 LinEq1:  Iter= 14 NonCon=     9 RMS=1.17D+04 Max=6.68D+05 NDo=     9
 LinEq1:  Iter= 15 NonCon=     9 RMS=1.89D+04 Max=1.20D+06 NDo=     9
 LinEq1:  Iter= 16 NonCon=     9 RMS=3.02D+04 Max=1.50D+06 NDo=     9
 LinEq1:  Iter= 17 NonCon=     9 RMS=2.31D+04 Max=2.20D+06 NDo=     9
 LinEq1:  Iter= 18 NonCon=     9 RMS=2.60D+04 Max=2.13D+06 NDo=     9
 LinEq1:  Iter= 19 NonCon=     9 RMS=3.59D+04 Max=1.90D+06 NDo=     9
 LinEq1:  Iter= 20 NonCon=     9 RMS=1.89D+04 Max=1.24D+06 NDo=     9
 LinEq1:  Iter= 21 NonCon=     9 RMS=1.58D+04 Max=1.12D+06 NDo=     9
 LinEq1:  Iter= 22 NonCon=     9 RMS=2.87D+04 Max=3.68D+06 NDo=     9
 LinEq1:  Iter= 23 NonCon=     9 RMS=2.93D+04 Max=3.01D+06 NDo=     9
 LinEq1:  Iter= 24 NonCon=     9 RMS=2.63D+04 Max=1.74D+06 NDo=     9
 LinEq1:  Iter= 25 NonCon=     9 RMS=1.62D+04 Max=6.17D+05 NDo=     9
 LinEq1:  Iter= 26 NonCon=     6 RMS=7.12D+03 Max=4.81D+05 NDo=     9
 LinEq1:  Iter= 27 NonCon=     6 RMS=5.36D+03 Max=2.59D+05 NDo=     6
 LinEq1:  Iter= 28 NonCon=     6 RMS=3.05D+03 Max=1.61D+05 NDo=     6
 LinEq1:  Iter= 29 NonCon=     6 RMS=1.29D+03 Max=7.98D+04 NDo=     6
 LinEq1:  Iter= 30 NonCon=     6 RMS=6.77D+02 Max=3.96D+04 NDo=     6
 LinEq1:  Iter= 31 NonCon=     6 RMS=3.24D+02 Max=1.69D+04 NDo=     6
 LinEq1:  Iter= 32 NonCon=     6 RMS=2.77D+02 Max=1.43D+04 NDo=     6
 LinEq1:  Iter= 33 NonCon=     4 RMS=1.59D+02 Max=9.31D+03 NDo=     6
 LinEq1:  Iter= 34 NonCon=     3 RMS=7.14D+01 Max=4.16D+03 NDo=     4
 LinEq1:  Iter= 35 NonCon=     3 RMS=4.13D+01 Max=2.27D+03 NDo=     3
 LinEq1:  Iter= 36 NonCon=     3 RMS=2.09D+01 Max=1.30D+03 NDo=     3
 LinEq1:  Iter= 37 NonCon=     3 RMS=2.09D+01 Max=9.98D+02 NDo=     3
 LinEq1:  Iter= 38 NonCon=     3 RMS=9.64D+00 Max=5.15D+02 NDo=     3
 LinEq1:  Iter= 39 NonCon=     3 RMS=3.38D+00 Max=2.39D+02 NDo=     3
 LinEq1:  Iter= 40 NonCon=     3 RMS=3.14D+00 Max=1.94D+02 NDo=     3
 LinEq1:  Iter= 41 NonCon=     3 RMS=2.24D+00 Max=1.09D+02 NDo=     3
 LinEq1:  Iter= 42 NonCon=     3 RMS=9.47D-01 Max=4.46D+01 NDo=     3
 LinEq1:  Iter= 43 NonCon=     3 RMS=3.76D-01 Max=2.11D+01 NDo=     3
 LinEq1:  Iter= 44 NonCon=     3 RMS=2.12D-01 Max=9.80D+00 NDo=     3
 LinEq1:  Iter= 45 NonCon=     3 RMS=1.07D-01 Max=3.71D+00 NDo=     3
 LinEq1:  Iter= 46 NonCon=     3 RMS=3.67D-02 Max=1.90D+00 NDo=     3
 LinEq1:  Iter= 47 NonCon=     3 RMS=1.63D-02 Max=9.81D-01 NDo=     3
 LinEq1:  Iter= 48 NonCon=     3 RMS=1.39D-02 Max=6.93D-01 NDo=     3
 LinEq1:  Iter= 49 NonCon=     3 RMS=7.19D-03 Max=5.41D-01 NDo=     3
 LinEq1:  Iter= 50 NonCon=     3 RMS=2.22D-03 Max=1.49D-01 NDo=     3
 LinEq1:  Iter= 51 NonCon=     3 RMS=6.90D-04 Max=2.06D-02 NDo=     3
 LinEq1:  Iter= 52 NonCon=     3 RMS=2.86D-04 Max=1.29D-02 NDo=     3
 LinEq1:  Iter= 53 NonCon=     3 RMS=9.50D-05 Max=5.88D-03 NDo=     3
 LinEq1:  Iter= 54 NonCon=     3 RMS=3.22D-05 Max=2.69D-03 NDo=     3
 LinEq1:  Iter= 55 NonCon=     3 RMS=1.44D-05 Max=1.05D-03 NDo=     3
 LinEq1:  Iter= 56 NonCon=     3 RMS=5.89D-06 Max=2.94D-04 NDo=     3
 LinEq1:  Iter= 57 NonCon=     3 RMS=1.73D-06 Max=7.67D-05 NDo=     3
 LinEq1:  Iter= 58 NonCon=     3 RMS=7.81D-07 Max=2.65D-05 NDo=     3
 LinEq1:  Iter= 59 NonCon=     3 RMS=3.24D-07 Max=1.86D-05 NDo=     3
 LinEq1:  Iter= 60 NonCon=     3 RMS=8.34D-08 Max=2.80D-06 NDo=     3
 LinEq1:  Iter= 61 NonCon=     3 RMS=3.54D-08 Max=1.19D-06 NDo=     3
 LinEq1:  Iter= 62 NonCon=     3 RMS=1.54D-08 Max=5.61D-07 NDo=     3
 LinEq1:  Iter= 63 NonCon=     3 RMS=3.83D-09 Max=2.39D-07 NDo=     3
 LinEq1:  Iter= 64 NonCon=     3 RMS=2.06D-09 Max=1.17D-07 NDo=     3
 LinEq1:  Iter= 65 NonCon=     3 RMS=7.13D-10 Max=2.62D-08 NDo=     3
 LinEq1:  Iter= 66 NonCon=     3 RMS=1.99D-10 Max=1.08D-08 NDo=     3
 LinEq1:  Iter= 67 NonCon=     2 RMS=1.18D-10 Max=6.75D-09 NDo=     3
 LinEq1:  Iter= 68 NonCon=     1 RMS=4.34D-11 Max=1.43D-09 NDo=     2
 LinEq1:  Iter= 69 NonCon=     0 RMS=1.20D-11 Max=7.50D-10 NDo=     1
 Linear equations converged to 1.000D-10 1.000D-09 after    69 iterations.
 FullF1:  Do perturbations    1 to     9.
 SCF Polarizability for W=    0.000000:
                1             2             3 
      1  0.139263D+03
      2 -0.100850D-03  0.110795D+03
      3  0.272857D-03  0.708678D-03  0.110795D+03
 Isotropic polarizability for W=    0.000000      120.28 Bohr**3.
 SCF Polarizability for W=    0.105471:
                1             2             3 
      1  0.154457D+03
      2 -0.111332D-03  0.116486D+03
      3  0.376076D-03  0.999393D-03  0.116487D+03
 Isotropic polarizability for W=    0.105471      129.14 Bohr**3.
 SCF Polarizability for W=    0.210941:
                1             2             3 
      1  0.325574D+03
      2 -0.718554D-03  0.131375D+03
      3  0.250870D-02  0.787411D-03  0.131444D+03
 Isotropic polarizability for W=    0.210941      196.13 Bohr**3.
 SCF Static Hyperpolarizability:
 K=  1 block:
                1 
      1  0.305330D-02
 K=  2 block:
                1             2 
      1  0.110324D+00
      2 -0.867238D-04 -0.263644D-01
 K=  3 block:
                1             2             3 
      1 -0.410454D+01
      2 -0.145333D-02 -0.184664D+01
      3  0.796387D-03 -0.392945D-01 -0.542133D+01
 SCF Beta(-W,W;0) for W=    0.105471:
 K=  1 block:
                1             2             3 
      1  0.439176D-02
      2  0.159062D+00 -0.758128D-03
      3 -0.654006D+01 -0.239212D-02  0.116048D-02
 K=  2 block:
                1             2             3 
      1  0.176550D+00
      2 -0.391865D-03 -0.572283D-01
      3 -0.425833D-02 -0.265456D+01 -0.613061D-01
 K=  3 block:
                1             2             3 
      1 -0.714121D+01
      2 -0.856077D-03 -0.266571D+01
      3  0.144022D-02 -0.615586D-01 -0.782212D+01
 SCF Beta(W,W;-2W) for W=    0.105471:
 K=  1 block:
                1             2             3 
      1  0.359568D-01
      2  0.143038D+01  0.156279D-01
      3 -0.351150D+02 -0.448370D-02  0.131812D-02
 K=  2 block:
                1             2             3 
      1  0.935059D+00
      2 -0.136442D-01 -0.107607D+01
      3 -0.237674D+00 -0.199448D+02  0.104313D+01
 K=  3 block:
                1             2             3 
      1 -0.735021D+01
      2  0.212809D+00  0.249034D+02
      3  0.102301D-01  0.677234D+00 -0.124046D+02
 SCF Beta(-W,W;0) for W=    0.210941:
 K=  1 block:
                1             2             3 
      1  0.104030D+00
      2 -0.143309D+00  0.226687D+00
      3 -0.143313D+03  0.251724D+00 -0.279345D+00
 K=  2 block:
                1             2             3 
      1  0.115248D+01
      2  0.175672D+00  0.644114D+02
      3  0.386236D+00 -0.498503D+02 -0.610876D+02
 K=  3 block:
                1             2             3 
      1 -0.215031D+03
      2  0.506270D-01 -0.105685D+03
      3 -0.206229D+00 -0.693602D+02 -0.344917D+03
 End of Minotr F.D. properties on file   721 Mask=      31 NFrqRd=     2 NDeriv=     1 ND12= 1 LenFil=      94:
 Frequencies=    0.000000    0.105471
 Property number 1 -- Alpha(-w,w) frequency  1    0.000000:
                 1             2             3 
      1   0.139263D+03 -0.100850D-03  0.272857D-03
      2  -0.100850D-03  0.110795D+03  0.708678D-03
      3   0.272857D-03  0.708678D-03  0.110795D+03
 Property number 1 -- Alpha(-w,w) frequency  2    0.105471:
                 1             2             3 
      1   0.154457D+03 -0.111332D-03  0.376076D-03
      2  -0.111332D-03  0.116486D+03  0.999393D-03
      3   0.376076D-03  0.999393D-03  0.116487D+03
 Property number 5 -- Beta(-w,w,0) frequency  1    0.000000:
                 1 
      1   0.305330D-02
      2   0.110324D+00
      3  -0.867238D-04
      4  -0.410454D+01
      5  -0.145333D-02
      6   0.796387D-03
      7   0.110324D+00
      8  -0.867238D-04
      9  -0.263644D-01
     10  -0.145333D-02
     11  -0.184664D+01
     12  -0.392945D-01
     13  -0.410454D+01
     14  -0.145333D-02
     15  -0.184664D+01
     16   0.796387D-03
     17  -0.392945D-01
     18  -0.542133D+01
 Property number 5 -- Beta(-w,w,0) frequency  2    0.105471:
                 1 
      1   0.439176D-02
      2   0.159062D+00
      3  -0.758128D-03
      4  -0.654006D+01
      5  -0.239212D-02
      6   0.116048D-02
      7   0.176550D+00
      8  -0.391865D-03
      9  -0.572283D-01
     10  -0.425833D-02
     11  -0.265456D+01
     12  -0.613061D-01
     13  -0.714121D+01
     14  -0.856077D-03
     15  -0.266571D+01
     16   0.144022D-02
     17  -0.615586D-01
     18  -0.782212D+01
 Property number 6 -- Beta(w,w,-2w) frequency  1    0.000000:
                 1 
      1   0.305330D-02
      2   0.110324D+00
      3  -0.867238D-04
      4  -0.410454D+01
      5  -0.145333D-02
      6   0.796387D-03
      7   0.110324D+00
      8  -0.867238D-04
      9  -0.263644D-01
     10  -0.145333D-02
     11  -0.184664D+01
     12  -0.392945D-01
     13  -0.410454D+01
     14  -0.145333D-02
     15  -0.184664D+01
     16   0.796387D-03
     17  -0.392945D-01
     18  -0.542133D+01
 Property number 6 -- Beta(w,w,-2w) frequency  2    0.105471:
                 1 
      1   0.359568D-01
      2   0.143038D+01
      3   0.156279D-01
      4  -0.351150D+02
      5  -0.448370D-02
      6   0.131812D-02
      7   0.935059D+00
      8  -0.136442D-01
      9  -0.107607D+01
     10  -0.237674D+00
     11  -0.199448D+02
     12   0.104313D+01
     13  -0.735021D+01
     14   0.212809D+00
     15   0.249034D+02
     16   0.102301D-01
     17   0.677234D+00
     18  -0.124046D+02
 End of Minotr F.D. properties file   722 does not exist.
 End of Minotr F.D. properties file   788 does not exist.
 Leave Link 1002 at Sun Apr 11 20:01:04 2021, MaxMem=  1048576000 cpu:     28448.3
 (Enter /usr/local/g09/l601.exe)
 Copying SCF densities to generalized density rwf, IOpCl= 0 IROHF=0.

 **********************************************************************

            Population analysis using the SCF density.

 **********************************************************************

 Alpha  occ. eigenvalues -- -256.33215 -30.10131 -25.93988 -25.92057 -25.92057
 Alpha  occ. eigenvalues --  -10.22797 -10.22797 -10.22761 -10.22760 -10.22752
 Alpha  occ. eigenvalues --  -10.22752 -10.22707 -10.22706 -10.22683 -10.22683
 Alpha  occ. eigenvalues --   -3.44961  -2.23693  -2.19175  -2.19175  -0.92203
 Alpha  occ. eigenvalues --   -0.90474  -0.73481  -0.73481  -0.73382  -0.73382
 Alpha  occ. eigenvalues --   -0.56420  -0.56400  -0.55516  -0.55496  -0.55477
 Alpha  occ. eigenvalues --   -0.54034  -0.43035  -0.42107  -0.42106  -0.41176
 Alpha  occ. eigenvalues --   -0.41175  -0.39327  -0.39318  -0.38820  -0.38814
 Alpha  occ. eigenvalues --   -0.37604  -0.28076  -0.28076  -0.26258  -0.26257
 Alpha  occ. eigenvalues --   -0.24481  -0.21459  -0.21458
 Alpha virt. eigenvalues --    0.00196   0.00197   0.01311   0.02713   0.02723
 Alpha virt. eigenvalues --    0.03492   0.04108   0.04140   0.04970   0.05693
 Alpha virt. eigenvalues --    0.05704   0.05834   0.05855   0.06203   0.06241
 Alpha virt. eigenvalues --    0.08954   0.09134   0.09153   0.09964   0.09969
 Alpha virt. eigenvalues --    0.11209   0.11214   0.13592   0.13599   0.13912
 Alpha virt. eigenvalues --    0.13915   0.14125   0.14562   0.14566   0.17310
 Alpha virt. eigenvalues --    0.17377   0.17958   0.17960   0.18225   0.18258
 Alpha virt. eigenvalues --    0.18343   0.19065   0.19072   0.19223   0.19257
 Alpha virt. eigenvalues --    0.19649   0.21032   0.21357   0.21849   0.21851
 Alpha virt. eigenvalues --    0.23262   0.23298   0.24054   0.24055   0.25318
 Alpha virt. eigenvalues --    0.26002   0.26738   0.26741   0.26760   0.26761
 Alpha virt. eigenvalues --    0.29099   0.29152   0.30697   0.31269   0.31292
 Alpha virt. eigenvalues --    0.34623   0.34623   0.35881   0.35884   0.38917
 Alpha virt. eigenvalues --    0.40183   0.40213   0.40676   0.40680   0.41908
 Alpha virt. eigenvalues --    0.41923   0.43762   0.44514   0.45679   0.48075
 Alpha virt. eigenvalues --    0.48344   0.52534   0.52536   0.55988   0.55991
 Alpha virt. eigenvalues --    0.56239   0.56240   0.58924   0.58966   0.61442
 Alpha virt. eigenvalues --    0.61472   0.61476   0.61480   0.61514   0.61917
 Alpha virt. eigenvalues --    0.64272   0.64281   0.64407   0.64408   0.65757
 Alpha virt. eigenvalues --    0.65757   0.67122   0.67122   0.69894   0.70240
 Alpha virt. eigenvalues --    0.70277   0.70301   0.70382   0.71961   0.72006
 Alpha virt. eigenvalues --    0.72250   0.72350   0.72359   0.73420   0.74504
 Alpha virt. eigenvalues --    0.74538   0.75757   0.78647   0.78648   0.82065
 Alpha virt. eigenvalues --    0.86804   0.86805   0.87162   0.87163   0.87546
 Alpha virt. eigenvalues --    0.88970   0.88995   0.97115   0.97530   0.98196
 Alpha virt. eigenvalues --    0.98264   1.01073   1.01073   1.02643   1.02662
 Alpha virt. eigenvalues --    1.09201   1.09226   1.09796   1.09797   1.12375
 Alpha virt. eigenvalues --    1.12375   1.16821   1.16837   1.19362   1.25624
 Alpha virt. eigenvalues --    1.25628   1.25685   1.27081   1.27097   1.27279
 Alpha virt. eigenvalues --    1.27279   1.28829   1.28832   1.30544   1.30582
 Alpha virt. eigenvalues --    1.33067   1.34068   1.34069   1.34466   1.39887
 Alpha virt. eigenvalues --    1.41881   1.41882   1.41957   1.41958   1.42230
 Alpha virt. eigenvalues --    1.42264   1.43414   1.43475   1.45704   1.46929
 Alpha virt. eigenvalues --    1.46941   1.49159   1.49165   1.49585   1.53891
 Alpha virt. eigenvalues --    1.55326   1.58598   1.58599   1.60031   1.60085
 Alpha virt. eigenvalues --    1.60395   1.60410   1.65082   1.65083   1.68967
 Alpha virt. eigenvalues --    1.78618   1.78618   1.81433   1.81433   1.95417
 Alpha virt. eigenvalues --    1.95417   2.01924   2.12522   2.12581   2.13999
 Alpha virt. eigenvalues --    2.14049   2.16262   2.16291   2.16720   2.16749
 Alpha virt. eigenvalues --    2.28291   2.28292   2.30841   2.32426   2.46385
 Alpha virt. eigenvalues --    2.46388   2.49325   2.51847   2.54559   2.54560
 Alpha virt. eigenvalues --    2.65350   2.65352   2.65604   2.65605   2.67425
 Alpha virt. eigenvalues --    2.72820   2.72882   2.73340   2.79907   2.82266
 Alpha virt. eigenvalues --    2.82267   2.84209   2.86017   2.86070   2.89165
 Alpha virt. eigenvalues --    2.89166   2.94280   2.94293   3.00971   3.00983
 Alpha virt. eigenvalues --    3.01398   3.01398   3.09393   3.09397   3.10193
 Alpha virt. eigenvalues --    3.10195   3.10706   3.10717   3.15560   3.20907
 Alpha virt. eigenvalues --    3.20915   3.22875   3.22891   3.23185   3.23186
 Alpha virt. eigenvalues --    3.25093   3.25094   3.35590   3.36910   3.36927
 Alpha virt. eigenvalues --    3.37007   3.43052   3.43052   3.44818   3.44822
 Alpha virt. eigenvalues --    3.48094   3.54275   3.54290   3.55530   3.55531
 Alpha virt. eigenvalues --    3.57486   3.57487   3.59891   3.59909   3.62587
 Alpha virt. eigenvalues --    3.62612   3.63419   3.64467   3.64474   3.64499
 Alpha virt. eigenvalues --    3.68046   3.68233   3.68740   3.68741   3.69249
 Alpha virt. eigenvalues --    3.69250   3.76837   3.76838   3.78021   3.78038
 Alpha virt. eigenvalues --    3.79144   3.79144   3.80423   3.80443   3.80447
 Alpha virt. eigenvalues --    3.81373   3.81885   3.81890   3.84040   3.85344
 Alpha virt. eigenvalues --    3.85344   3.86476   3.96171   3.96206   4.00123
 Alpha virt. eigenvalues --    4.00141   4.01058   4.06856   4.06858   4.10467
 Alpha virt. eigenvalues --    4.12955   4.12956   4.27591   4.27598   4.29604
 Alpha virt. eigenvalues --    4.29626   4.36550   4.56877   4.56878   4.61188
 Alpha virt. eigenvalues --    4.61217   4.74547   4.74563   4.75823   4.75826
 Alpha virt. eigenvalues --    4.85945   4.85946   4.87570   4.87571   5.07373
 Alpha virt. eigenvalues --    5.15163   5.15397  23.90686  24.01227  24.09365
 Alpha virt. eigenvalues --   24.09390  24.14510  24.14534  24.25967  24.25968
 Alpha virt. eigenvalues --   24.37779  24.37780
 Electronic spatial extent (au):  <R**2>=           1342.4554
 Charge=              0.0000 electrons
 Dipole moment (field-independent basis, Debye):
    X=              0.0000    Y=             -0.0003    Z=              0.0942  Tot=              0.0942
 Quadrupole moment (field-independent basis, Debye-Ang):
   XX=            -81.1152   YY=            -67.0485   ZZ=            -67.0500
   XY=             -0.0001   XZ=             -0.0002   YZ=              0.0003
 Traceless Quadrupole moment (field-independent basis, Debye-Ang):
   XX=             -9.3773   YY=              4.6894   ZZ=              4.6879
   XY=             -0.0001   XZ=             -0.0002   YZ=              0.0003
 Octapole moment (field-independent basis, Debye-Ang**2):
  XXX=             -0.0002  YYY=              0.0005  ZZZ=              0.5001  XYY=             -0.0008
  XXY=              0.0109  XXZ=              0.3356  XZZ=              0.0006  YZZ=              0.0010
  YYZ=              0.1661  XYZ=             -0.0007
 Hexadecapole moment (field-independent basis, Debye-Ang**3):
 XXXX=          -1183.1255 YYYY=           -378.6190 ZZZZ=           -378.6282 XXXY=             -0.0010
 XXXZ=             -0.0024 YYYX=             -0.0002 YYYZ=             -0.0690 ZZZX=             -0.0011
 ZZZY=              0.0687 XXYY=           -239.1686 XXZZ=           -239.1707 YYZZ=           -126.2599
 XXYZ=             -0.0027 YYXZ=             -0.0003 ZZXY=             -0.0009
 N-N= 9.192345822002D+02 E-N=-5.744136693586D+03  KE= 1.646810491413D+03
  Exact polarizability: 139.263   0.000 110.795   0.000   0.001 110.795
 Approx polarizability: 216.992   0.000 182.957   0.000   0.000 182.960
 No NMR shielding tensors so no spin-rotation constants.
 Leave Link  601 at Sun Apr 11 20:01:05 2021, MaxMem=  1048576000 cpu:         5.3
 (Enter /usr/local/g09/l106.exe)
 NDeriv=   3 NFrqRd=  2 NDerD0=   0 MskFDP=      31 MskDFD=      31 MskDF0=       0
 Re-enter D2Numr: IAtom=  0 IXYZ=3 IStep= 3.
 Leave Link  106 at Sun Apr 11 20:01:05 2021, MaxMem=  1048576000 cpu:         2.3
 (Enter /usr/local/g09/l301.exe)
 Basis read from rwf:  (5D, 7F)
 Pseudo-potential data read from rwf file.
 The following finite field(s) will be applied:
 An electric field of              0.0000  0.0000 -0.0007
   375 basis functions,   602 primitive gaussians,   402 cartesian basis functions
    48 alpha electrons       48 beta electrons
       nuclear repulsion energy       919.2345822002 Hartrees.
 IExCor= 1009 DFT=T Ex+Corr=PBE1PBE ExCW=0 ScaHFX=  0.250000
 ScaDFX=  0.750000  0.750000  1.000000  1.000000 ScalE2=  1.000000  1.000000
 IRadAn=      0 IRanWt=     -1 IRanGd=            0 ICorTp=0 IEmpDi=  4
 NAtoms=   21 NActive=   21 NUniq=   21 SFac= 1.00D+00 NAtFMM=   60 NAOKFM=F Big=F
 Integral buffers will be    131072 words long.
 Raffenetti 2 integral format.
 Two-electron integral symmetry is turned off.
 No density basis found on file   724.
 Leave Link  301 at Sun Apr 11 20:01:05 2021, MaxMem=  1048576000 cpu:         1.5
 (Enter /usr/local/g09/l302.exe)
 NPDir=0 NMtPBC=     1 NCelOv=     1 NCel=       1 NClECP=     1 NCelD=      1
         NCelK=      1 NCelE2=     1 NClLst=     1 CellRange=     0.0.
 One-electron integrals computed using PRISM.
   1 Symmetry operations used in ECPInt.
 ECPInt:  NShTT=    7875 NPrTT=   28235 LenC2=    7866 LenP2D=   21150.
 LDataN:  DoStor=T MaxTD1= 6 Len=  172
 NBasis=   375 RedAO= T EigKep=  3.67D-06  NBF=   375
 NBsUse=   375 1.00D-06 EigRej= -1.00D+00 NBFU=   375
 Precomputing XC quadrature grid using
 IXCGrd= 4 IRadAn=           0 IRanWt=          -1 IRanGd=           0 AccXCQ= 0.00D+00.
 Generated NRdTot=       0 NPtTot=           0 NUsed=           0 NTot=          32
 NSgBfM=   402   402   402   402   402 MxSgAt=    21 MxSgA2=    21.
 Leave Link  302 at Sun Apr 11 20:01:05 2021, MaxMem=  1048576000 cpu:        12.0
 (Enter /usr/local/g09/l303.exe)
 DipDrv:  MaxL=1.
 The nuclear repulsion energy is now       919.2345822002 hartrees.
 Leave Link  303 at Sun Apr 11 20:01:05 2021, MaxMem=  1048576000 cpu:         1.8
 (Enter /usr/local/g09/l401.exe)
 Initial guess from the checkpoint file:  "ferr_pbe0.chk"
 B after Tr=     0.000000    0.000000    0.000000
         Rot=    1.000000    0.000000    0.000000    0.000000 Ang=   0.00 deg.
 Guess basis will be translated and rotated to current coordinates.
 JPrj=2 DoOrth=T DoCkMO=T.
 Leave Link  401 at Sun Apr 11 20:01:06 2021, MaxMem=  1048576000 cpu:         9.8
 (Enter /usr/local/g09/l502.exe)
 Closed shell SCF:
 Using DIIS extrapolation, IDIIS=  1040.
 Two-electron integral symmetry not used.
 IVT=      515866 IEndB=      515866 NGot=  1048576000 MDV=  1048238781
 LenX=  1048238781 LenY=  1048076736
 Requested convergence on RMS density matrix=1.00D-10 within 128 cycles.
 Requested convergence on MAX density matrix=1.00D-08.
 Requested convergence on             energy=1.00D-08.
 No special actions if energy rises.
 Fock matrices will be formed incrementally for  20 cycles.

 Cycle   1  Pass 1  IDiag  1:
 FoFJK:  IHMeth= 1 ICntrl=       0 DoSepK=F KAlg= 0 I1Cent=   0 FoldK=F
 IRaf= 980000000 NMat=   1 IRICut=       1 DoRegI=T DoRafI=F ISym2E= 0.
 FoFCou: FMM=F IPFlag=           0 FMFlag=      100000 FMFlg1=           0
         NFxFlg=           0 DoJE=F BraDBF=F KetDBF=F FulRan=T
         wScrn=  0.000000 ICntrl=       0 IOpCl=  0 I1Cent=           0 NGrid=           0
         NMat0=    1 NMatS0=      1 NMatT0=    0 NMatD0=    1 NMtDS0=    0 NMtDT0=    0
 Symmetry not used in FoFCou.
 E= -1650.24296295864    
 DIIS: error= 1.34D-04 at cycle   1 NSaved=   1.
 NSaved= 1 IEnMin= 1 EnMin= -1650.24296295864     IErMin= 1 ErrMin= 1.34D-04
 ErrMax= 1.34D-04  0.00D+00 EMaxC= 1.00D-01 BMatC= 2.81D-06 BMatP= 2.81D-06
 IDIUse=3 WtCom= 9.99D-01 WtEn= 1.34D-03
 Coeff-Com:  0.100D+01
 Coeff-En:   0.100D+01
 Coeff:      0.100D+01
 Gap=     0.451 Goal=   None    Shift=    0.000
 RMSDP=1.66D-04 MaxDP=9.26D-03              OVMax= 1.31D-03

 Cycle   2  Pass 1  IDiag  1:
 RMSU=  1.66D-04    CP:  1.00D+00
 E= -1650.24296352254     Delta-E=       -0.000000563905 Rises=F Damp=F
 DIIS: error= 1.68D-04 at cycle   2 NSaved=   2.
 NSaved= 2 IEnMin= 2 EnMin= -1650.24296352254     IErMin= 1 ErrMin= 1.34D-04
 ErrMax= 1.68D-04  0.00D+00 EMaxC= 1.00D-01 BMatC= 5.05D-06 BMatP= 2.81D-06
 IDIUse=3 WtCom= 4.35D-01 WtEn= 5.65D-01
 Coeff-Com:  0.583D+00 0.417D+00
 Coeff-En:   0.471D+00 0.529D+00
 Coeff:      0.520D+00 0.480D+00
 Gap=     0.217 Goal=   None    Shift=    0.000
 RMSDP=8.23D-05 MaxDP=4.03D-03 DE=-5.64D-07 OVMax= 7.34D-04

 Cycle   3  Pass 1  IDiag  1:
 RMSU=  3.04D-05    CP:  1.00D+00  5.40D-01
 E= -1650.24296846380     Delta-E=       -0.000004941258 Rises=F Damp=F
 DIIS: error= 4.24D-05 at cycle   3 NSaved=   3.
 NSaved= 3 IEnMin= 3 EnMin= -1650.24296846380     IErMin= 3 ErrMin= 4.24D-05
 ErrMax= 4.24D-05  0.00D+00 EMaxC= 1.00D-01 BMatC= 7.44D-07 BMatP= 2.81D-06
 IDIUse=1 WtCom= 1.00D+00 WtEn= 0.00D+00
 Coeff-Com:  0.183D+00 0.283D+00 0.534D+00
 Coeff:      0.183D+00 0.283D+00 0.534D+00
 Gap=     0.217 Goal=   None    Shift=    0.000
 RMSDP=8.58D-06 MaxDP=4.95D-04 DE=-4.94D-06 OVMax= 1.61D-04

 Cycle   4  Pass 1  IDiag  1:
 RMSU=  3.75D-06    CP:  1.00D+00  5.83D-01  9.00D-01
 E= -1650.24296911065     Delta-E=       -0.000000646849 Rises=F Damp=F
 DIIS: error= 3.97D-06 at cycle   4 NSaved=   4.
 NSaved= 4 IEnMin= 4 EnMin= -1650.24296911065     IErMin= 4 ErrMin= 3.97D-06
 ErrMax= 3.97D-06  0.00D+00 EMaxC= 1.00D-01 BMatC= 4.36D-09 BMatP= 7.44D-07
 IDIUse=1 WtCom= 1.00D+00 WtEn= 0.00D+00
 Coeff-Com:  0.150D-01 0.369D-01 0.956D-01 0.853D+00
 Coeff:      0.150D-01 0.369D-01 0.956D-01 0.853D+00
 Gap=     0.217 Goal=   None    Shift=    0.000
 RMSDP=1.27D-06 MaxDP=7.15D-05 DE=-6.47D-07 OVMax= 4.25D-05

 Cycle   5  Pass 1  IDiag  1:
 RMSU=  1.04D-06    CP:  1.00D+00  5.87D-01  9.07D-01  9.50D-01
 E= -1650.24296909382     Delta-E=        0.000000016828 Rises=F Damp=F
 DIIS: error= 1.79D-05 at cycle   5 NSaved=   5.
 NSaved= 5 IEnMin= 4 EnMin= -1650.24296911065     IErMin= 4 ErrMin= 3.97D-06
 ErrMax= 1.79D-05  0.00D+00 EMaxC= 1.00D-01 BMatC= 4.31D-08 BMatP= 4.36D-09
 IDIUse=1 WtCom= 1.00D+00 WtEn= 0.00D+00
 Coeff-Com:  0.502D-02 0.199D-01 0.584D-01 0.745D+00 0.171D+00
 Coeff:      0.502D-02 0.199D-01 0.584D-01 0.745D+00 0.171D+00
 Gap=     0.217 Goal=   None    Shift=    0.000
 RMSDP=7.60D-07 MaxDP=3.88D-05 DE= 1.68D-08 OVMax= 3.49D-05

 Cycle   6  Pass 1  IDiag  1:
 RMSU=  5.61D-07    CP:  1.00D+00  5.87D-01  9.08D-01  9.60D-01  5.58D-01
 E= -1650.24296911319     Delta-E=       -0.000000019367 Rises=F Damp=F
 DIIS: error= 3.14D-06 at cycle   6 NSaved=   6.
 NSaved= 6 IEnMin= 6 EnMin= -1650.24296911319     IErMin= 6 ErrMin= 3.14D-06
 ErrMax= 3.14D-06  0.00D+00 EMaxC= 1.00D-01 BMatC= 1.52D-09 BMatP= 4.36D-09
 IDIUse=1 WtCom= 1.00D+00 WtEn= 0.00D+00
 Coeff-Com: -0.217D-02 0.651D-03 0.842D-03 0.185D+00 0.152D+00 0.663D+00
 Coeff:     -0.217D-02 0.651D-03 0.842D-03 0.185D+00 0.152D+00 0.663D+00
 Gap=     0.217 Goal=   None    Shift=    0.000
 RMSDP=2.59D-07 MaxDP=1.33D-05 DE=-1.94D-08 OVMax= 8.57D-06

 Cycle   7  Pass 1  IDiag  1:
 RMSU=  9.58D-08    CP:  1.00D+00  5.86D-01  9.13D-01  9.81D-01  6.04D-01
                    CP:  8.17D-01
 E= -1650.24296911395     Delta-E=       -0.000000000764 Rises=F Damp=F
 DIIS: error= 2.02D-07 at cycle   7 NSaved=   7.
 NSaved= 7 IEnMin= 7 EnMin= -1650.24296911395     IErMin= 7 ErrMin= 2.02D-07
 ErrMax= 2.02D-07  0.00D+00 EMaxC= 1.00D-01 BMatC= 1.19D-11 BMatP= 1.52D-09
 IDIUse=1 WtCom= 1.00D+00 WtEn= 0.00D+00
 Coeff-Com: -0.396D-03-0.307D-03-0.898D-03 0.295D-02 0.276D-01 0.166D+00
 Coeff-Com:  0.805D+00
 Coeff:     -0.396D-03-0.307D-03-0.898D-03 0.295D-02 0.276D-01 0.166D+00
 Coeff:      0.805D+00
 Gap=     0.217 Goal=   None    Shift=    0.000
 RMSDP=8.45D-08 MaxDP=3.99D-06 DE=-7.64D-10 OVMax= 1.57D-06

 Cycle   8  Pass 1  IDiag  1:
 RMSU=  2.44D-08    CP:  1.00D+00  5.86D-01  9.12D-01  9.81D-01  6.19D-01
                    CP:  8.60D-01  9.96D-01
 E= -1650.24296911400     Delta-E=       -0.000000000042 Rises=F Damp=F
 DIIS: error= 5.18D-08 at cycle   8 NSaved=   8.
 NSaved= 8 IEnMin= 8 EnMin= -1650.24296911400     IErMin= 8 ErrMin= 5.18D-08
 ErrMax= 5.18D-08  0.00D+00 EMaxC= 1.00D-01 BMatC= 3.26D-13 BMatP= 1.19D-11
 IDIUse=1 WtCom= 1.00D+00 WtEn= 0.00D+00
 Coeff-Com:  0.217D-04-0.140D-03 0.379D-04-0.639D-02-0.444D-02-0.209D-01
 Coeff-Com:  0.122D-01 0.102D+01
 Coeff:      0.217D-04-0.140D-03 0.379D-04-0.639D-02-0.444D-02-0.209D-01
 Coeff:      0.122D-01 0.102D+01
 Gap=     0.217 Goal=   None    Shift=    0.000
 RMSDP=1.46D-08 MaxDP=7.77D-07 DE=-4.18D-11 OVMax= 8.25D-07

 Cycle   9  Pass 1  IDiag  1:
 RMSU=  9.13D-09    CP:  1.00D+00  5.86D-01  9.12D-01  9.80D-01  6.25D-01
                    CP:  8.63D-01  1.07D+00  1.19D+00
 E= -1650.24296911402     Delta-E=       -0.000000000025 Rises=F Damp=F
 DIIS: error= 2.04D-08 at cycle   9 NSaved=   9.
 NSaved= 9 IEnMin= 9 EnMin= -1650.24296911402     IErMin= 9 ErrMin= 2.04D-08
 ErrMax= 2.04D-08  0.00D+00 EMaxC= 1.00D-01 BMatC= 1.07D-13 BMatP= 3.26D-13
 IDIUse=1 WtCom= 1.00D+00 WtEn= 0.00D+00
 Coeff-Com:  0.351D-04-0.519D-04 0.103D-03-0.253D-02-0.399D-02-0.196D-01
 Coeff-Com: -0.533D-01 0.385D+00 0.694D+00
 Coeff:      0.351D-04-0.519D-04 0.103D-03-0.253D-02-0.399D-02-0.196D-01
 Coeff:     -0.533D-01 0.385D+00 0.694D+00
 Gap=     0.217 Goal=   None    Shift=    0.000
 RMSDP=6.79D-09 MaxDP=3.80D-07 DE=-2.55D-11 OVMax= 2.30D-07

 Cycle  10  Pass 1  IDiag  1:
 RMSU=  3.38D-09    CP:  1.00D+00  5.86D-01  9.12D-01  9.80D-01  6.23D-01
                    CP:  8.68D-01  1.07D+00  1.33D+00  6.81D-01
 E= -1650.24296911400     Delta-E=        0.000000000024 Rises=F Damp=F
 DIIS: error= 8.33D-09 at cycle  10 NSaved=  10.
 NSaved=10 IEnMin= 9 EnMin= -1650.24296911402     IErMin=10 ErrMin= 8.33D-09
 ErrMax= 8.33D-09  0.00D+00 EMaxC= 1.00D-01 BMatC= 1.80D-14 BMatP= 1.07D-13
 IDIUse=1 WtCom= 1.00D+00 WtEn= 0.00D+00
 Coeff-Com:  0.107D-04 0.421D-05 0.473D-04 0.452D-03-0.487D-03-0.369D-02
 Coeff-Com: -0.257D-01-0.755D-01 0.286D+00 0.818D+00
 Coeff:      0.107D-04 0.421D-05 0.473D-04 0.452D-03-0.487D-03-0.369D-02
 Coeff:     -0.257D-01-0.755D-01 0.286D+00 0.818D+00
 Gap=     0.217 Goal=   None    Shift=    0.000
 RMSDP=2.87D-09 MaxDP=1.74D-07 DE= 2.36D-11 OVMax= 1.20D-07

 Cycle  11  Pass 1  IDiag  1:
 RMSU=  4.13D-10    CP:  1.00D+00  5.86D-01  9.12D-01  9.80D-01  6.24D-01
                    CP:  8.67D-01  1.08D+00  1.36D+00  8.77D-01  9.02D-01
 E= -1650.24296911404     Delta-E=       -0.000000000038 Rises=F Damp=F
 DIIS: error= 5.61D-10 at cycle  11 NSaved=  11.
 NSaved=11 IEnMin=11 EnMin= -1650.24296911404     IErMin=11 ErrMin= 5.61D-10
 ErrMax= 5.61D-10  0.00D+00 EMaxC= 1.00D-01 BMatC= 1.03D-16 BMatP= 1.80D-14
 IDIUse=1 WtCom= 1.00D+00 WtEn= 0.00D+00
 Coeff-Com: -0.531D-06 0.258D-05-0.495D-06 0.119D-03 0.744D-04 0.345D-03
 Coeff-Com: -0.519D-03-0.187D-01 0.369D-02 0.741D-01 0.941D+00
 Coeff:     -0.531D-06 0.258D-05-0.495D-06 0.119D-03 0.744D-04 0.345D-03
 Coeff:     -0.519D-03-0.187D-01 0.369D-02 0.741D-01 0.941D+00
 Gap=     0.217 Goal=   None    Shift=    0.000
 RMSDP=4.84D-10 MaxDP=2.92D-08 DE=-3.82D-11 OVMax= 1.14D-08

 Cycle  12  Pass 1  IDiag  1:
 RMSU=  1.51D-10    CP:  1.00D+00  5.86D-01  9.12D-01  9.80D-01  6.24D-01
                    CP:  8.67D-01  1.08D+00  1.36D+00  8.80D-01  9.27D-01
                    CP:  9.43D-01
 E= -1650.24296911404     Delta-E=        0.000000000000 Rises=F Damp=F
 DIIS: error= 3.32D-10 at cycle  12 NSaved=  12.
 NSaved=12 IEnMin=11 EnMin= -1650.24296911404     IErMin=12 ErrMin= 3.32D-10
 ErrMax= 3.32D-10  0.00D+00 EMaxC= 1.00D-01 BMatC= 4.20D-17 BMatP= 1.03D-16
 IDIUse=1 WtCom= 1.00D+00 WtEn= 0.00D+00
 Coeff-Com: -0.531D-06 0.129D-05-0.148D-05 0.490D-04 0.552D-04 0.270D-03
 Coeff-Com:  0.498D-03-0.755D-02-0.657D-02 0.146D-01 0.487D+00 0.511D+00
 Coeff:     -0.531D-06 0.129D-05-0.148D-05 0.490D-04 0.552D-04 0.270D-03
 Coeff:      0.498D-03-0.755D-02-0.657D-02 0.146D-01 0.487D+00 0.511D+00
 Gap=     0.217 Goal=   None    Shift=    0.000
 RMSDP=1.26D-10 MaxDP=8.20D-09 DE= 0.00D+00 OVMax= 1.95D-09

 Cycle  13  Pass 1  IDiag  1:
 RMSU=  4.02D-11    CP:  1.00D+00  5.86D-01  9.12D-01  9.80D-01  6.24D-01
                    CP:  8.67D-01  1.08D+00  1.36D+00  8.80D-01  9.27D-01
                    CP:  1.02D+00  2.46D-01
 E= -1650.24296911401     Delta-E=        0.000000000030 Rises=F Damp=F
 DIIS: error= 1.20D-10 at cycle  13 NSaved=  13.
 NSaved=13 IEnMin=11 EnMin= -1650.24296911404     IErMin=13 ErrMin= 1.20D-10
 ErrMax= 1.20D-10  0.00D+00 EMaxC= 1.00D-01 BMatC= 3.94D-18 BMatP= 4.20D-17
 IDIUse=1 WtCom= 1.00D+00 WtEn= 0.00D+00
 Coeff-Com: -0.181D-06 0.359D-06-0.708D-06 0.933D-05 0.184D-04 0.899D-04
 Coeff-Com:  0.354D-03-0.136D-02-0.418D-02-0.308D-02 0.126D+00 0.270D+00
 Coeff-Com:  0.612D+00
 Coeff:     -0.181D-06 0.359D-06-0.708D-06 0.933D-05 0.184D-04 0.899D-04
 Coeff:      0.354D-03-0.136D-02-0.418D-02-0.308D-02 0.126D+00 0.270D+00
 Coeff:      0.612D+00
 Gap=     0.217 Goal=   None    Shift=    0.000
 RMSDP=4.68D-11 MaxDP=2.68D-09 DE= 3.05D-11 OVMax= 5.21D-10

 SCF Done:  E(RPBE1PBE) =  -1650.24296911     A.U. after   13 cycles
            NFock= 13  Conv=0.47D-10     -V/T= 2.0021
 KE= 1.646810484298D+03 PE=-5.744136539723D+03 EE= 1.527848504111D+03
 Leave Link  502 at Sun Apr 11 20:01:59 2021, MaxMem=  1048576000 cpu:      1330.7
 (Enter /usr/local/g09/l801.exe)
 DoSCS=F DFT=T ScalE2(SS,OS)=  1.000000  1.000000
 Range of M.O.s used for correlation:     1   375
 NBasis=   375 NAE=    48 NBE=    48 NFC=     0 NFV=     0
 NROrb=    375 NOA=    48 NOB=    48 NVA=   327 NVB=   327

 **** Warning!!: The largest alpha MO coefficient is  0.10896376D+03

 Leave Link  801 at Sun Apr 11 20:01:59 2021, MaxMem=  1048576000 cpu:         0.9
 (Enter /usr/local/g09/l1002.exe)
 Minotr:  Closed shell wavefunction.
          Direct CPHF calculation.
          Differentiating once with respect to electric field.
                with respect to dipole field.
          Electric field/nuclear overlap derivatives assumed to be zero.
          Requested convergence is 1.0D-10 RMS, and 1.0D-09 maximum.
          NewPWx=F KeepS1=T KeepF1=T KeepIn=T MapXYZ=F SortEE=F KeepMc=T.
          MDV=    1048575453 using IRadAn=       1.
 Generate precomputed XC quadrature information.
          Solving linear equations separately, MaxMat=       0.
          Doing perturbations at frequencies    0.000000    0.105471    0.210941
          There are     9 degrees of freedom in the 1st order CPHF.  IDoFFX=0 NUNeed=     9.
 LinEq1:  Iter=  0 NonCon=     9 RMS=2.93D-01 Max=2.50D+01 NDo=     9
 AX will form     9 AO Fock derivatives at one time.
 FoFJK:  IHMeth= 1 ICntrl=       0 DoSepK=F KAlg= 0 I1Cent=   0 FoldK=F
 IRaf= 980000000 NMat=  18 IRICut=      22 DoRegI=T DoRafI=T ISym2E= 0.
 FoFCou: FMM=F IPFlag=           0 FMFlag=      100000 FMFlg1=           0
         NFxFlg=           0 DoJE=F BraDBF=F KetDBF=F FulRan=T
         wScrn=  0.000000 ICntrl=       0 IOpCl=  0 I1Cent=           0 NGrid=           0
         NMat0=   18 NMatS0=      9 NMatT0=    0 NMatD0=   18 NMtDS0=    0 NMtDT0=    0
 Symmetry not used in FoFCou.
 LinEq1:  Iter=  1 NonCon=     9 RMS=1.74D-01 Max=6.61D+00 NDo=     9
 LinEq1:  Iter=  2 NonCon=     9 RMS=8.47D-01 Max=7.34D+01 NDo=     9
 LinEq1:  Iter=  3 NonCon=     9 RMS=1.93D+00 Max=6.84D+01 NDo=     9
 LinEq1:  Iter=  4 NonCon=     9 RMS=4.73D+00 Max=6.53D+02 NDo=     9
 LinEq1:  Iter=  5 NonCon=     9 RMS=2.44D+01 Max=1.48D+03 NDo=     9
 LinEq1:  Iter=  6 NonCon=     9 RMS=1.20D+02 Max=1.45D+04 NDo=     9
 LinEq1:  Iter=  7 NonCon=     9 RMS=2.03D+02 Max=2.04D+04 NDo=     9
 LinEq1:  Iter=  8 NonCon=     9 RMS=2.42D+02 Max=2.84D+04 NDo=     9
 LinEq1:  Iter=  9 NonCon=     9 RMS=1.76D+03 Max=2.29D+05 NDo=     9
 LinEq1:  Iter= 10 NonCon=     9 RMS=8.77D+03 Max=1.21D+06 NDo=     9
 LinEq1:  Iter= 11 NonCon=     9 RMS=3.89D+04 Max=2.20D+06 NDo=     9
 LinEq1:  Iter= 12 NonCon=     9 RMS=2.03D+04 Max=8.12D+05 NDo=     9
 LinEq1:  Iter= 13 NonCon=     9 RMS=1.58D+04 Max=1.49D+06 NDo=     9
 LinEq1:  Iter= 14 NonCon=     9 RMS=2.51D+04 Max=1.89D+06 NDo=     9
 LinEq1:  Iter= 15 NonCon=     9 RMS=2.82D+04 Max=1.98D+06 NDo=     9
 LinEq1:  Iter= 16 NonCon=     9 RMS=4.98D+04 Max=4.34D+06 NDo=     9
 LinEq1:  Iter= 17 NonCon=     9 RMS=5.35D+04 Max=4.29D+06 NDo=     9
 LinEq1:  Iter= 18 NonCon=     9 RMS=3.62D+04 Max=2.07D+06 NDo=     9
 LinEq1:  Iter= 19 NonCon=     9 RMS=4.10D+04 Max=2.25D+06 NDo=     9
 LinEq1:  Iter= 20 NonCon=     9 RMS=2.68D+04 Max=2.18D+06 NDo=     9
 LinEq1:  Iter= 21 NonCon=     9 RMS=3.16D+04 Max=2.78D+06 NDo=     9
 LinEq1:  Iter= 22 NonCon=     9 RMS=6.30D+04 Max=6.59D+06 NDo=     9
 LinEq1:  Iter= 23 NonCon=     9 RMS=4.24D+04 Max=3.48D+06 NDo=     9
 LinEq1:  Iter= 24 NonCon=     9 RMS=3.38D+04 Max=1.31D+06 NDo=     9
 LinEq1:  Iter= 25 NonCon=     9 RMS=2.15D+04 Max=1.11D+06 NDo=     9
 LinEq1:  Iter= 26 NonCon=     6 RMS=1.31D+04 Max=1.07D+06 NDo=     9
 LinEq1:  Iter= 27 NonCon=     6 RMS=1.03D+04 Max=5.20D+05 NDo=     6
 LinEq1:  Iter= 28 NonCon=     6 RMS=4.67D+03 Max=2.20D+05 NDo=     6
 LinEq1:  Iter= 29 NonCon=     6 RMS=2.35D+03 Max=1.52D+05 NDo=     6
 LinEq1:  Iter= 30 NonCon=     6 RMS=9.66D+02 Max=4.55D+04 NDo=     6
 LinEq1:  Iter= 31 NonCon=     6 RMS=4.16D+02 Max=2.40D+04 NDo=     6
 LinEq1:  Iter= 32 NonCon=     6 RMS=3.84D+02 Max=1.67D+04 NDo=     6
 LinEq1:  Iter= 33 NonCon=     6 RMS=2.55D+02 Max=1.10D+04 NDo=     6
 LinEq1:  Iter= 34 NonCon=     3 RMS=1.08D+02 Max=7.12D+03 NDo=     6
 LinEq1:  Iter= 35 NonCon=     3 RMS=5.51D+01 Max=2.72D+03 NDo=     3
 LinEq1:  Iter= 36 NonCon=     3 RMS=3.54D+01 Max=1.58D+03 NDo=     3
 LinEq1:  Iter= 37 NonCon=     3 RMS=3.35D+01 Max=1.63D+03 NDo=     3
 LinEq1:  Iter= 38 NonCon=     3 RMS=1.53D+01 Max=8.69D+02 NDo=     3
 LinEq1:  Iter= 39 NonCon=     3 RMS=1.20D+01 Max=7.08D+02 NDo=     3
 LinEq1:  Iter= 40 NonCon=     3 RMS=1.09D+01 Max=5.71D+02 NDo=     3
 LinEq1:  Iter= 41 NonCon=     3 RMS=4.78D+00 Max=2.27D+02 NDo=     3
 LinEq1:  Iter= 42 NonCon=     3 RMS=1.67D+00 Max=8.57D+01 NDo=     3
 LinEq1:  Iter= 43 NonCon=     3 RMS=7.97D-01 Max=5.86D+01 NDo=     3
 LinEq1:  Iter= 44 NonCon=     3 RMS=2.89D-01 Max=1.17D+01 NDo=     3
 LinEq1:  Iter= 45 NonCon=     3 RMS=1.37D-01 Max=5.25D+00 NDo=     3
 LinEq1:  Iter= 46 NonCon=     3 RMS=6.93D-02 Max=4.92D+00 NDo=     3
 LinEq1:  Iter= 47 NonCon=     3 RMS=3.24D-02 Max=1.72D+00 NDo=     3
 LinEq1:  Iter= 48 NonCon=     3 RMS=2.41D-02 Max=1.15D+00 NDo=     3
 LinEq1:  Iter= 49 NonCon=     3 RMS=1.36D-02 Max=1.04D+00 NDo=     3
 LinEq1:  Iter= 50 NonCon=     3 RMS=3.77D-03 Max=1.56D-01 NDo=     3
 LinEq1:  Iter= 51 NonCon=     3 RMS=1.37D-03 Max=4.83D-02 NDo=     3
 LinEq1:  Iter= 52 NonCon=     3 RMS=6.87D-04 Max=4.12D-02 NDo=     3
 LinEq1:  Iter= 53 NonCon=     3 RMS=2.88D-04 Max=1.37D-02 NDo=     3
 LinEq1:  Iter= 54 NonCon=     3 RMS=8.77D-05 Max=4.11D-03 NDo=     3
 LinEq1:  Iter= 55 NonCon=     3 RMS=3.35D-05 Max=1.62D-03 NDo=     3
 LinEq1:  Iter= 56 NonCon=     3 RMS=9.25D-06 Max=4.95D-04 NDo=     3
 LinEq1:  Iter= 57 NonCon=     3 RMS=2.64D-06 Max=1.46D-04 NDo=     3
 LinEq1:  Iter= 58 NonCon=     3 RMS=1.20D-06 Max=7.04D-05 NDo=     3
 LinEq1:  Iter= 59 NonCon=     3 RMS=5.59D-07 Max=4.09D-05 NDo=     3
 LinEq1:  Iter= 60 NonCon=     3 RMS=2.31D-07 Max=1.64D-05 NDo=     3
 LinEq1:  Iter= 61 NonCon=     3 RMS=7.60D-08 Max=2.35D-06 NDo=     3
 LinEq1:  Iter= 62 NonCon=     3 RMS=2.76D-08 Max=1.03D-06 NDo=     3
 LinEq1:  Iter= 63 NonCon=     3 RMS=1.25D-08 Max=6.61D-07 NDo=     3
 LinEq1:  Iter= 64 NonCon=     3 RMS=4.54D-09 Max=1.53D-07 NDo=     3
 LinEq1:  Iter= 65 NonCon=     3 RMS=1.45D-09 Max=8.87D-08 NDo=     3
 LinEq1:  Iter= 66 NonCon=     3 RMS=5.99D-10 Max=2.96D-08 NDo=     3
 LinEq1:  Iter= 67 NonCon=     3 RMS=2.16D-10 Max=5.28D-09 NDo=     3
 LinEq1:  Iter= 68 NonCon=     2 RMS=6.41D-11 Max=2.83D-09 NDo=     3
 LinEq1:  Iter= 69 NonCon=     2 RMS=2.25D-11 Max=1.34D-09 NDo=     2
 LinEq1:  Iter= 70 NonCon=     0 RMS=1.20D-11 Max=3.91D-10 NDo=     2
 Linear equations converged to 1.000D-10 1.000D-09 after    70 iterations.
 FullF1:  Do perturbations    1 to     9.
 SCF Polarizability for W=    0.000000:
                1             2             3 
      1  0.139265D+03
      2 -0.100371D-03  0.110796D+03
      3  0.272602D-03  0.717759D-03  0.110798D+03
 Isotropic polarizability for W=    0.000000      120.29 Bohr**3.
 SCF Polarizability for W=    0.105471:
                1             2             3 
      1  0.154461D+03
      2 -0.111067D-03  0.116488D+03
      3  0.375600D-03  0.101189D-02  0.116491D+03
 Isotropic polarizability for W=    0.105471      129.15 Bohr**3.
 SCF Polarizability for W=    0.210941:
                1             2             3 
      1  0.325680D+03
      2 -0.720065D-03  0.131404D+03
      3  0.259767D-02  0.523719D-01  0.131613D+03
 Isotropic polarizability for W=    0.210941      196.23 Bohr**3.
 SCF Static Hyperpolarizability:
 K=  1 block:
                1 
      1  0.293637D-02
 K=  2 block:
                1             2 
      1  0.109934D+00
      2 -0.107353D-03 -0.318148D-01
 K=  3 block:
                1             2             3 
      1 -0.823795D+01
      2 -0.144342D-02 -0.367349D+01
      3  0.743043D-03 -0.337247D-01 -0.108919D+02
 SCF Beta(-W,W;0) for W=    0.105471:
 K=  1 block:
                1             2             3 
      1  0.417181D-02
      2  0.158401D+00 -0.794667D-03
      3 -0.131493D+02 -0.239167D-02  0.107852D-02
 K=  2 block:
                1             2             3 
      1  0.175849D+00
      2 -0.430103D-03 -0.673682D-01
      3 -0.425055D-02 -0.528078D+01 -0.515621D-01
 K=  3 block:
                1             2             3 
      1 -0.143453D+02
      2 -0.842467D-03 -0.530527D+01
      3  0.134774D-02 -0.518105D-01 -0.156971D+02
 SCF Beta(W,W;-2W) for W=    0.105471:
 K=  1 block:
                1             2             3 
      1  0.350118D-01
      2  0.144969D+01  0.140324D-01
      3 -0.703255D+02 -0.515312D-02  0.579663D-03
 K=  2 block:
                1             2             3 
      1  0.591945D+00
      2 -0.166297D-01 -0.487487D+01
      3 -0.240347D+00 -0.413518D+02  0.391908D+01
 K=  3 block:
                1             2             3 
      1 -0.149936D+02
      2  0.217079D+00  0.446305D+02
      3  0.993481D-02  0.394895D+01 -0.270817D+02
 SCF Beta(-W,W;0) for W=    0.210941:
 K=  1 block:
                1             2             3 
      1  0.111055D+00
      2  0.109221D+01  0.245206D+00
      3 -0.282395D+03  0.288620D+00 -0.298916D+00
 K=  2 block:
                1             2             3 
      1  0.128854D+01
      2  0.197173D+00  0.271911D+03
      3  0.443057D+00 -0.171244D+02 -0.250540D+03
 K=  3 block:
                1             2             3 
      1 -0.433191D+03
      2  0.186234D+00 -0.359719D+02
      3 -0.231899D+00 -0.256813D+03 -0.655940D+03
 End of Minotr F.D. properties on file   721 Mask=      31 NFrqRd=     2 NDeriv=     1 ND12= 1 LenFil=      94:
 Frequencies=    0.000000    0.105471
 Property number 1 -- Alpha(-w,w) frequency  1    0.000000:
                 1             2             3 
      1   0.139265D+03 -0.100371D-03  0.272602D-03
      2  -0.100371D-03  0.110796D+03  0.717759D-03
      3   0.272602D-03  0.717759D-03  0.110798D+03
 Property number 1 -- Alpha(-w,w) frequency  2    0.105471:
                 1             2             3 
      1   0.154461D+03 -0.111067D-03  0.375600D-03
      2  -0.111067D-03  0.116488D+03  0.101189D-02
      3   0.375600D-03  0.101189D-02  0.116491D+03
 Property number 5 -- Beta(-w,w,0) frequency  1    0.000000:
                 1 
      1   0.293637D-02
      2   0.109934D+00
      3  -0.107353D-03
      4  -0.823795D+01
      5  -0.144342D-02
      6   0.743043D-03
      7   0.109934D+00
      8  -0.107353D-03
      9  -0.318148D-01
     10  -0.144342D-02
     11  -0.367349D+01
     12  -0.337247D-01
     13  -0.823795D+01
     14  -0.144342D-02
     15  -0.367349D+01
     16   0.743043D-03
     17  -0.337247D-01
     18  -0.108919D+02
 Property number 5 -- Beta(-w,w,0) frequency  2    0.105471:
                 1 
      1   0.417181D-02
      2   0.158401D+00
      3  -0.794667D-03
      4  -0.131493D+02
      5  -0.239167D-02
      6   0.107852D-02
      7   0.175849D+00
      8  -0.430103D-03
      9  -0.673682D-01
     10  -0.425055D-02
     11  -0.528078D+01
     12  -0.515621D-01
     13  -0.143453D+02
     14  -0.842467D-03
     15  -0.530527D+01
     16   0.134774D-02
     17  -0.518105D-01
     18  -0.156971D+02
 Property number 6 -- Beta(w,w,-2w) frequency  1    0.000000:
                 1 
      1   0.293637D-02
      2   0.109934D+00
      3  -0.107353D-03
      4  -0.823795D+01
      5  -0.144342D-02
      6   0.743043D-03
      7   0.109934D+00
      8  -0.107353D-03
      9  -0.318148D-01
     10  -0.144342D-02
     11  -0.367349D+01
     12  -0.337247D-01
     13  -0.823795D+01
     14  -0.144342D-02
     15  -0.367349D+01
     16   0.743043D-03
     17  -0.337247D-01
     18  -0.108919D+02
 Property number 6 -- Beta(w,w,-2w) frequency  2    0.105471:
                 1 
      1   0.350118D-01
      2   0.144969D+01
      3   0.140324D-01
      4  -0.703255D+02
      5  -0.515312D-02
      6   0.579663D-03
      7   0.591945D+00
      8  -0.166297D-01
      9  -0.487487D+01
     10  -0.240347D+00
     11  -0.413518D+02
     12   0.391908D+01
     13  -0.149936D+02
     14   0.217079D+00
     15   0.446305D+02
     16   0.993481D-02
     17   0.394895D+01
     18  -0.270817D+02
 End of Minotr F.D. properties file   722 does not exist.
 End of Minotr F.D. properties file   788 does not exist.
 Leave Link 1002 at Sun Apr 11 20:21:19 2021, MaxMem=  1048576000 cpu:     28988.8
 (Enter /usr/local/g09/l601.exe)
 Copying SCF densities to generalized density rwf, IOpCl= 0 IROHF=0.

 **********************************************************************

            Population analysis using the SCF density.

 **********************************************************************

 Alpha  occ. eigenvalues -- -256.33215 -30.10132 -25.93988 -25.92058 -25.92057
 Alpha  occ. eigenvalues --  -10.22813 -10.22813 -10.22769 -10.22769 -10.22743
 Alpha  occ. eigenvalues --  -10.22743 -10.22709 -10.22709 -10.22666 -10.22666
 Alpha  occ. eigenvalues --   -3.44961  -2.23693  -2.19176  -2.19175  -0.92203
 Alpha  occ. eigenvalues --   -0.90475  -0.73481  -0.73481  -0.73382  -0.73382
 Alpha  occ. eigenvalues --   -0.56430  -0.56390  -0.55527  -0.55486  -0.55477
 Alpha  occ. eigenvalues --   -0.54034  -0.43035  -0.42107  -0.42107  -0.41176
 Alpha  occ. eigenvalues --   -0.41176  -0.39330  -0.39314  -0.38824  -0.38810
 Alpha  occ. eigenvalues --   -0.37604  -0.28076  -0.28076  -0.26258  -0.26257
 Alpha  occ. eigenvalues --   -0.24482  -0.21460  -0.21457
 Alpha virt. eigenvalues --    0.00193   0.00196   0.01275   0.02692   0.02736
 Alpha virt. eigenvalues --    0.03476   0.04108   0.04170   0.04967   0.05618
 Alpha virt. eigenvalues --    0.05650   0.05891   0.05930   0.06184   0.06259
 Alpha virt. eigenvalues --    0.08952   0.09125   0.09162   0.09961   0.09968
 Alpha virt. eigenvalues --    0.11208   0.11213   0.13586   0.13598   0.13912
 Alpha virt. eigenvalues --    0.13917   0.14132   0.14562   0.14568   0.17276
 Alpha virt. eigenvalues --    0.17413   0.17955   0.17960   0.18214   0.18279
 Alpha virt. eigenvalues --    0.18326   0.19001   0.19036   0.19266   0.19326
 Alpha virt. eigenvalues --    0.19640   0.21029   0.21359   0.21842   0.21853
 Alpha virt. eigenvalues --    0.23251   0.23325   0.24057   0.24058   0.25313
 Alpha virt. eigenvalues --    0.26002   0.26737   0.26750   0.26760   0.26761
 Alpha virt. eigenvalues --    0.29075   0.29181   0.30697   0.31259   0.31307
 Alpha virt. eigenvalues --    0.34624   0.34625   0.35879   0.35886   0.38916
 Alpha virt. eigenvalues --    0.40169   0.40228   0.40676   0.40680   0.41902
 Alpha virt. eigenvalues --    0.41928   0.43763   0.44514   0.45679   0.48075
 Alpha virt. eigenvalues --    0.48344   0.52534   0.52536   0.55988   0.55991
 Alpha virt. eigenvalues --    0.56239   0.56240   0.58903   0.58988   0.61405
 Alpha virt. eigenvalues --    0.61470   0.61474   0.61480   0.61549   0.61916
 Alpha virt. eigenvalues --    0.64264   0.64279   0.64413   0.64416   0.65757
 Alpha virt. eigenvalues --    0.65758   0.67121   0.67122   0.69894   0.70221
 Alpha virt. eigenvalues --    0.70262   0.70296   0.70423   0.71938   0.72029
 Alpha virt. eigenvalues --    0.72251   0.72348   0.72365   0.73420   0.74486
 Alpha virt. eigenvalues --    0.74556   0.75758   0.78648   0.78649   0.82064
 Alpha virt. eigenvalues --    0.86803   0.86805   0.87162   0.87163   0.87547
 Alpha virt. eigenvalues --    0.88962   0.89004   0.97115   0.97530   0.98167
 Alpha virt. eigenvalues --    0.98293   1.01073   1.01073   1.02636   1.02670
 Alpha virt. eigenvalues --    1.09189   1.09238   1.09795   1.09796   1.12375
 Alpha virt. eigenvalues --    1.12375   1.16814   1.16844   1.19361   1.25615
 Alpha virt. eigenvalues --    1.25628   1.25694   1.27076   1.27103   1.27279
 Alpha virt. eigenvalues --    1.27279   1.28830   1.28832   1.30526   1.30600
 Alpha virt. eigenvalues --    1.33067   1.34068   1.34069   1.34466   1.39887
 Alpha virt. eigenvalues --    1.41880   1.41882   1.41957   1.41958   1.42216
 Alpha virt. eigenvalues --    1.42278   1.43386   1.43504   1.45704   1.46922
 Alpha virt. eigenvalues --    1.46947   1.49156   1.49169   1.49585   1.53891
 Alpha virt. eigenvalues --    1.55326   1.58598   1.58599   1.60006   1.60110
 Alpha virt. eigenvalues --    1.60389   1.60416   1.65082   1.65083   1.68967
 Alpha virt. eigenvalues --    1.78618   1.78618   1.81433   1.81433   1.95417
 Alpha virt. eigenvalues --    1.95417   2.01924   2.12494   2.12609   2.13973
 Alpha virt. eigenvalues --    2.14076   2.16248   2.16305   2.16706   2.16762
 Alpha virt. eigenvalues --    2.28291   2.28292   2.30841   2.32426   2.46384
 Alpha virt. eigenvalues --    2.46388   2.49324   2.51847   2.54559   2.54560
 Alpha virt. eigenvalues --    2.65350   2.65352   2.65604   2.65605   2.67425
 Alpha virt. eigenvalues --    2.72790   2.72912   2.73340   2.79907   2.82266
 Alpha virt. eigenvalues --    2.82267   2.84209   2.85991   2.86096   2.89165
 Alpha virt. eigenvalues --    2.89166   2.94273   2.94299   3.00965   3.00988
 Alpha virt. eigenvalues --    3.01398   3.01398   3.09391   3.09398   3.10193
 Alpha virt. eigenvalues --    3.10195   3.10701   3.10722   3.15560   3.20907
 Alpha virt. eigenvalues --    3.20915   3.22867   3.22898   3.23185   3.23186
 Alpha virt. eigenvalues --    3.25092   3.25094   3.35589   3.36905   3.36931
 Alpha virt. eigenvalues --    3.37006   3.43052   3.43052   3.44816   3.44824
 Alpha virt. eigenvalues --    3.48094   3.54267   3.54298   3.55530   3.55531
 Alpha virt. eigenvalues --    3.57486   3.57487   3.59882   3.59917   3.62575
 Alpha virt. eigenvalues --    3.62623   3.63419   3.64461   3.64467   3.64512
 Alpha virt. eigenvalues --    3.68046   3.68232   3.68740   3.68741   3.69249
 Alpha virt. eigenvalues --    3.69250   3.76837   3.76838   3.78013   3.78046
 Alpha virt. eigenvalues --    3.79144   3.79144   3.80414   3.80447   3.80452
 Alpha virt. eigenvalues --    3.81374   3.81883   3.81891   3.84040   3.85344
 Alpha virt. eigenvalues --    3.85344   3.86476   3.96160   3.96217   4.00114
 Alpha virt. eigenvalues --    4.00149   4.01058   4.06856   4.06857   4.10467
 Alpha virt. eigenvalues --    4.12955   4.12956   4.27589   4.27600   4.29593
 Alpha virt. eigenvalues --    4.29636   4.36549   4.56877   4.56877   4.61175
 Alpha virt. eigenvalues --    4.61230   4.74539   4.74571   4.75823   4.75826
 Alpha virt. eigenvalues --    4.85945   4.85946   4.87570   4.87571   5.07373
 Alpha virt. eigenvalues --    5.15163   5.15397  23.90685  24.01226  24.09353
 Alpha virt. eigenvalues --   24.09402  24.14498  24.14546  24.25967  24.25968
 Alpha virt. eigenvalues --   24.37779  24.37780
 Electronic spatial extent (au):  <R**2>=           1342.4561
 Charge=              0.0000 electrons
 Dipole moment (field-independent basis, Debye):
    X=              0.0000    Y=             -0.0003    Z=              0.1881  Tot=              0.1881
 Quadrupole moment (field-independent basis, Debye-Ang):
   XX=            -81.1154   YY=            -67.0486   ZZ=            -67.0507
   XY=             -0.0001   XZ=             -0.0002   YZ=              0.0003
 Traceless Quadrupole moment (field-independent basis, Debye-Ang):
   XX=             -9.3771   YY=              4.6896   ZZ=              4.6876
   XY=             -0.0001   XZ=             -0.0002   YZ=              0.0003
 Octapole moment (field-independent basis, Debye-Ang**2):
  XXX=             -0.0002  YYY=              0.0006  ZZZ=              1.0001  XYY=             -0.0008
  XXY=              0.0109  XXZ=              0.6768  XZZ=              0.0006  YZZ=              0.0008
  YYZ=              0.3328  XYZ=             -0.0007
 Hexadecapole moment (field-independent basis, Debye-Ang**3):
 XXXX=          -1183.1298 YYYY=           -378.5812 ZZZZ=           -378.5984 XXXY=             -0.0011
 XXXZ=             -0.0024 YYYX=             -0.0002 YYYZ=             -0.1376 ZZZX=             -0.0011
 ZZZY=              0.1372 XXYY=           -239.1695 XXZZ=           -239.1744 YYZZ=           -126.3006
 XXYZ=             -0.0026 YYXZ=             -0.0003 ZZXY=             -0.0009
 N-N= 9.192345822002D+02 E-N=-5.744136539740D+03  KE= 1.646810484298D+03
  Exact polarizability: 139.265   0.000 110.796   0.000   0.001 110.798
 Approx polarizability: 216.994   0.000 182.958   0.000   0.000 182.963
 No NMR shielding tensors so no spin-rotation constants.
 Leave Link  601 at Sun Apr 11 20:21:19 2021, MaxMem=  1048576000 cpu:         5.4
 (Enter /usr/local/g09/l106.exe)
 NDeriv=   3 NFrqRd=  2 NDerD0=   0 MskFDP=      31 MskDFD=      31 MskDF0=       0
 Re-enter D2Numr: IAtom=  0 IXYZ=3 IStep= 4.
 Max difference between analytic and numerical Dipole moment IMax=       2 EMax= 5.64D-08
 Max difference between off-diagonal Polarizability IMax=       1 JMax=       3 EMax= 1.57D-05
 Max difference between analytic and numerical Polarizability IMax=       1 EMax= 3.89D-03
 Max difference between off-diagonal HyperPolarizability IMax=       1 JMax=       1 KMax=       2 EMax= 1.05D-02
 Max difference between analytic and numerical HyperPolarizability IMax=       2 EMax= 1.93D-02
 FinFTb:  IFil= 1 IFilD=  777 LTop=  1 LFil=      3077 LTop1=  0 IMask=  1
 FinFTb:  IFil= 3 IFilD=  782 LTop=  1 LFil=       679 LTop1=  0 IMask=  1
 At end of D2Numr F.D. properties on file   721 Mask=      31 NFrqRd=     2 NDeriv=     1 ND12= 1 LenFil=      94:
 Frequencies=    0.000000    0.105471
 Property number 1 -- Alpha(-w,w) frequency  1    0.000000:
                 1             2             3 
      1   0.139263D+03 -0.101333D-03  0.273131D-03
      2  -0.101333D-03  0.110795D+03  0.698392D-03
      3   0.273131D-03  0.698392D-03  0.110795D+03
 Property number 1 -- Alpha(-w,w) frequency  2    0.105471:
                 1             2             3 
      1   0.154456D+03 -0.111601D-03  0.376557D-03
      2  -0.111601D-03  0.116486D+03  0.984847D-03
      3   0.376557D-03  0.984847D-03  0.116486D+03
 Property number 5 -- Beta(-w,w,0) frequency  1    0.000000:
                 1 
      1   0.317041D-02
      2   0.110728D+00
      3  -0.663150D-04
      4   0.267708D-01
      5  -0.146302D-02
      6   0.849715D-03
      7   0.110728D+00
      8  -0.663150D-04
      9  -0.245238D-01
     10  -0.146302D-02
     11  -0.224976D-01
     12  -0.412730D-01
     13   0.267708D-01
     14  -0.146302D-02
     15  -0.224976D-01
     16   0.849715D-03
     17  -0.412730D-01
     18   0.480017D-01
 Property number 5 -- Beta(-w,w,0) frequency  2    0.105471:
                 1 
      1   0.461274D-02
      2   0.159738D+00
      3  -0.722115D-03
      4   0.636620D-01
      5  -0.239165D-02
      6   0.124258D-02
      7   0.177261D+00
      8  -0.353942D-03
      9  -0.536393D-01
     10  -0.426668D-02
     11  -0.337529D-01
     12  -0.645446D-01
     13   0.563983D-01
     14  -0.867080D-03
     15  -0.316118D-01
     16   0.153285D-02
     17  -0.648039D-01
     18   0.480243D-01
 Property number 6 -- Beta(w,w,-2w) frequency  1    0.000000:
                 1 
      1   0.317041D-02
      2   0.110728D+00
      3  -0.663150D-04
      4   0.267708D-01
      5  -0.146302D-02
      6   0.849715D-03
      7   0.110728D+00
      8  -0.663150D-04
      9  -0.245238D-01
     10  -0.146302D-02
     11  -0.224976D-01
     12  -0.412730D-01
     13   0.267708D-01
     14  -0.146302D-02
     15  -0.224976D-01
     16   0.849715D-03
     17  -0.412730D-01
     18   0.480017D-01
 Property number 6 -- Beta(w,w,-2w) frequency  2    0.105471:
                 1 
      1   0.394020D-01
      2   0.141033D+01
      3   0.164917D-01
      4   0.553995D-01
      5  -0.357874D-02
      6   0.100771D-02
      7   0.980039D+00
      8  -0.122229D-01
      9   0.606438D-01
     10  -0.238665D+00
     11  -0.645477D-01
     12  -0.503854D-01
     13  -0.324415D+00
     14   0.210142D+00
     15   0.256400D+00
     16   0.107209D-01
     17  -0.460547D+00
     18  -0.110201D+00
 At end of D2Numr F.D. properties on file   722 Mask=      31 NFrqRd=     2 NDeriv=     3 ND12= 1 LenFil=     274:
 Frequencies=    0.000000    0.105471
 Property number 1 -- Alpha(-w,w) derivatives, frequency  1    0.000000:
                 1             2             3             4             5 
      1   0.315867D-02  0.879296D-01  0.196761D-01  0.983845D-01 -0.695361D-04
      2   0.879296D-01 -0.679210D-04 -0.145761D-02 -0.695361D-04 -0.217099D-01
      3   0.196761D-01 -0.145761D-02  0.843661D-03 -0.145446D-02 -0.963810D-02
                 6             7             8             9 
      1  -0.145446D-02  0.235663D-01 -0.145211D-02  0.847311D-03
      2  -0.963810D-02 -0.145211D-02 -0.894225D-02 -0.314670D-01
      3  -0.329255D-01  0.847311D-03 -0.314670D-01  0.518076D-01
 Property number 1 -- Alpha(-w,w) derivatives, frequency  2    0.105471:
                 1             2             3             4             5 
      1   0.457624D-02  0.108044D+00  0.412086D-01  0.150515D+00 -0.345020D-03
      2   0.108044D+00 -0.703315D-03 -0.232629D-02 -0.345020D-03 -0.443192D-01
      3   0.412086D-01 -0.232629D-02  0.120664D-02 -0.418300D-02 -0.933300D-02
                 6             7             8             9 
      1  -0.418300D-02  0.429948D-01 -0.811975D-03  0.148608D-02
      2  -0.933300D-02 -0.811975D-03 -0.760853D-02 -0.446160D-01
      3  -0.478025D-01  0.148608D-02 -0.446160D-01  0.705889D-01
 Property number 5 -- Beta(-w,w,0) derivatives, frequency  1    0.000000:
                 1             2             3 
      1   0.471916D+05 -0.578235D-01  0.353461D+00
      2  -0.574998D-01  0.123932D+05  0.123256D+01
      3   0.123937D+05  0.137641D+00  0.620496D-01
      4   0.352904D+00  0.122799D+01  0.123929D+05
      5   0.100730D+01  0.623221D-01 -0.281923D-01
      6   0.123937D+05 -0.278044D-01  0.158696D+00
      7  -0.574998D-01  0.123932D+05  0.123256D+01
      8   0.123937D+05  0.137641D+00  0.620496D-01
      9   0.137617D+00  0.164079D+05  0.108319D+00
     10   0.100730D+01  0.623221D-01 -0.281923D-01
     11   0.622036D-01 -0.764690D-01  0.546903D+04
     12  -0.280337D-01  0.546908D+04 -0.552530D+00
     13   0.352904D+00  0.122799D+01  0.123929D+05
     14   0.100730D+01  0.623221D-01 -0.281923D-01
     15   0.622036D-01 -0.764690D-01  0.546903D+04
     16   0.123937D+05 -0.278044D-01  0.158696D+00
     17  -0.280337D-01  0.546908D+04 -0.552530D+00
     18   0.158854D+00 -0.393516D+00  0.164094D+05
 Property number 5 -- Beta(-w,w,0) derivatives, frequency  2    0.105471:
                 1             2             3 
      1   0.770153D+05 -0.139650D+00  0.668122D+00
      2  -0.123463D+00  0.198093D+05  0.204047D+01
      3   0.194021D+05  0.174781D+00  0.109805D+00
      4   0.670469D+00  0.205241D+01  0.198085D+05
      5   0.177772D+01  0.125178D+00  0.385578D-02
      6   0.194022D+05  0.735833D-02  0.243969D+00
      7  -0.138531D+00  0.215899D+05  0.213556D+01
      8   0.198286D+05  0.216636D+00  0.114994D+00
      9   0.176491D+00  0.236099D+05  0.942120D+00
     10   0.165118D+01  0.138559D+00 -0.252152D-01
     11   0.124608D+00  0.666400D+00  0.785604D+04
     12   0.559580D-02  0.789601D+04  0.323144D-01
     13   0.665778D+00  0.212553D+01  0.215896D+05
     14   0.163737D+01  0.115484D+00 -0.284306D-01
     15   0.109779D+00  0.662939D+00  0.789587D+04
     16   0.198284D+05 -0.243530D-01  0.276456D+00
     17   0.301665D-02  0.785613D+04  0.906757D-02
     18   0.244914D+00  0.275397D+00  0.236118D+05
 Property number 6 -- Beta(w,w,-2w) derivatives, frequency  1    0.000000:
                 1             2             3 
      1   0.471916D+05 -0.578235D-01  0.353461D+00
      2  -0.574998D-01  0.123932D+05  0.123256D+01
      3   0.123937D+05  0.137641D+00  0.620496D-01
      4   0.352904D+00  0.122799D+01  0.123929D+05
      5   0.100730D+01  0.623221D-01 -0.281923D-01
      6   0.123937D+05 -0.278044D-01  0.158696D+00
      7  -0.574998D-01  0.123932D+05  0.123256D+01
      8   0.123937D+05  0.137641D+00  0.620496D-01
      9   0.137617D+00  0.164079D+05  0.108319D+00
     10   0.100730D+01  0.623221D-01 -0.281923D-01
     11   0.622036D-01 -0.764690D-01  0.546903D+04
     12  -0.280337D-01  0.546908D+04 -0.552530D+00
     13   0.352904D+00  0.122799D+01  0.123929D+05
     14   0.100730D+01  0.623221D-01 -0.281923D-01
     15   0.622036D-01 -0.764690D-01  0.546903D+04
     16   0.123937D+05 -0.278044D-01  0.158696D+00
     17  -0.280337D-01  0.546908D+04 -0.552530D+00
     18   0.158854D+00 -0.393516D+00  0.164094D+05
 Property number 6 -- Beta(w,w,-2w) derivatives, frequency  2    0.105471:
                 1             2             3 
      1   0.615952D+06 -0.619159D+01 -0.386167D+02
      2  -0.340555D+01  0.105519D+06 -0.563842D+02
      3   0.995058D+05  0.316932D+00  0.493312D+01
      4   0.113408D+02 -0.550737D+02  0.105487D+06
      5  -0.562842D+02  0.210198D-01  0.380879D+01
      6   0.995240D+05  0.309523D+01 -0.292514D+00
      7   0.853870D+01  0.209484D+05  0.215380D+02
      8  -0.499672D+05  0.385157D+01  0.334339D+01
      9   0.434741D+01  0.367231D+05 -0.134282D+03
     10  -0.818289D+02 -0.224490D+01 -0.571846D+01
     11  -0.382827D+01 -0.450001D+02  0.575482D+05
     12  -0.317448D+01 -0.781904D+05  0.867785D+02
     13  -0.197057D+02 -0.162752D+02  0.208228D+05
     14  -0.803739D+02 -0.856295D+01 -0.544743D+01
     15  -0.104907D+01  0.115586D+02 -0.776786D+05
     16  -0.495908D+05 -0.984689D+01  0.946855D+00
     17  -0.345499D+01  0.576727D+05  0.201378D+02
     18  -0.131227D+01 -0.516164D+02  0.371358D+05
 At end of D2Numr F.D. properties file   788 does not exist.
 Leave Link  106 at Sun Apr 11 20:21:19 2021, MaxMem=  1048576000 cpu:         6.7
 (Enter /usr/local/g09/l9999.exe)
 AllDun F.D. properties on file 20721 Mask=      31 NFrqRd=     2 NDeriv=     1 ND12= 1 LenFil=      94:
 Frequencies=    0.000000    0.105471
 Property number 1 -- Alpha(-w,w) frequency  1    0.000000:
                 1             2             3 
      1   0.114534D+03 -0.961557D+01  0.764150D-01
      2  -0.961557D+01  0.135522D+03 -0.197563D+00
      3   0.764150D-01 -0.197563D+00  0.110796D+03
 Property number 1 -- Alpha(-w,w) frequency  2    0.105471:
                 1             2             3 
      1   0.121474D+03 -0.128251D+02  0.101952D+00
      2  -0.128251D+02  0.149467D+03 -0.263512D+00
      3   0.101952D+00 -0.263512D+00  0.116487D+03
 Property number 5 -- Beta(-w,w,0) frequency  1    0.000000:
                 1 
      1  -0.417280D-02
      2   0.540612D-01
      3  -0.391440D-01
      4  -0.300527D-01
      5  -0.451741D-01
      6  -0.181480D-01
      7   0.540612D-01
      8  -0.391440D-01
      9  -0.720326D-01
     10  -0.451741D-01
     11   0.663125D-01
     12  -0.100597D-01
     13  -0.300527D-01
     14  -0.451741D-01
     15   0.663125D-01
     16  -0.181480D-01
     17  -0.100597D-01
     18  -0.219944D-01
 Property number 5 -- Beta(-w,w,0) frequency  2    0.105471:
                 1 
      1   0.356469D-02
      2   0.985663D-01
      3  -0.675920D-01
      4  -0.430535D-01
      5  -0.589216D-01
      6  -0.201385D-01
      7   0.979760D-01
      8  -0.656476D-01
      9  -0.124269D+00
     10  -0.605604D-01
     11   0.859681D-01
     12  -0.118115D-01
     13  -0.395322D-01
     14  -0.682833D-01
     15   0.100495D+00
     16  -0.180065D-01
     17  -0.116673D-01
     18  -0.441694D-01
 Property number 6 -- Beta(w,w,-2w) frequency  1    0.000000:
                 1 
      1  -0.417280D-02
      2   0.540612D-01
      3  -0.391440D-01
      4  -0.300527D-01
      5  -0.451741D-01
      6  -0.181480D-01
      7   0.540612D-01
      8  -0.391440D-01
      9  -0.720326D-01
     10  -0.451741D-01
     11   0.663125D-01
     12  -0.100597D-01
     13  -0.300527D-01
     14  -0.451741D-01
     15   0.663125D-01
     16  -0.181480D-01
     17  -0.100597D-01
     18  -0.219944D-01
 Property number 6 -- Beta(w,w,-2w) frequency  2    0.105471:
                 1 
      1   0.120546D+00
      2   0.381480D+00
      3   0.867165D-01
      4   0.210569D-01
      5  -0.257742D+00
      6  -0.487696D+00
      7   0.572722D+00
      8  -0.423448D+00
      9  -0.507599D+00
     10  -0.452577D+00
     11   0.111311D+01
     12  -0.227607D+00
     13   0.406008D+00
     14  -0.473635D+00
     15   0.738971D+00
     16  -0.415130D-01
     17  -0.409451D-01
     18  -0.190703D+00
 AllDun F.D. properties on file 20722 Mask=      31 NFrqRd=     2 NDeriv=     3 ND12= 1 LenFil=     274:
 Frequencies=    0.000000    0.105471
 Property number 1 -- Alpha(-w,w) derivatives, frequency  1    0.000000:
                 1             2             3             4             5 
      1  -0.160966D-01  0.400480D-01 -0.231192D-01  0.369834D-01 -0.308623D-01
      2   0.400480D-01 -0.387265D-01 -0.360885D-01 -0.308623D-01 -0.596849D-01
      3  -0.231192D-01 -0.360885D-01 -0.176637D-01 -0.361534D-01  0.532291D-01
                 6             7             8             9 
      1  -0.361534D-01 -0.235400D-01 -0.391543D-01 -0.177305D-01
      2   0.532291D-01 -0.391543D-01  0.593296D-01 -0.973763D-02
      3  -0.965769D-02 -0.177305D-01 -0.973763D-02 -0.293725D-01
 Property number 1 -- Alpha(-w,w) derivatives, frequency  2    0.105471:
                 1             2             3             4             5 
      1  -0.247686D-01  0.624717D-01 -0.345479D-01  0.546293D-01 -0.441993D-01
      2   0.624717D-01 -0.647141D-01 -0.423406D-01 -0.441993D-01 -0.914079D-01
      3  -0.345479D-01 -0.423406D-01 -0.214475D-01 -0.441312D-01  0.577933D-01
                 6             7             8             9 
      1  -0.441312D-01 -0.311353D-01 -0.586910D-01 -0.211579D-01
      2   0.577933D-01 -0.586910D-01  0.871239D-01 -0.125067D-01
      3  -0.118089D-01 -0.211579D-01 -0.125067D-01 -0.557517D-01
 Property number 5 -- Beta(-w,w,0) derivatives, frequency  1    0.000000:
                 1             2             3 
      1   0.216798D+05 -0.653980D+04  0.524594D+02
      2  -0.653944D+04  0.111656D+05 -0.375733D+02
      3   0.111653D+05 -0.385841D+04 -0.698350D+01
      4   0.526076D+02 -0.376791D+02  0.637927D+04
      5  -0.375902D+02 -0.681348D+01 -0.233794D+04
      6   0.637948D+04 -0.233816D+04  0.563044D+02
      7  -0.653944D+04  0.111656D+05 -0.375733D+02
      8   0.111653D+05 -0.385841D+04 -0.698350D+01
      9  -0.385877D+04  0.443754D+05 -0.798927D+02
     10  -0.375902D+02 -0.681348D+01 -0.233794D+04
     11  -0.702847D+01 -0.797347D+02  0.114824D+05
     12  -0.233816D+04  0.114831D+05 -0.144071D+03
     13   0.526076D+02 -0.376791D+02  0.637927D+04
     14  -0.375902D+02 -0.681348D+01 -0.233794D+04
     15  -0.702847D+01 -0.797347D+02  0.114824D+05
     16   0.637948D+04 -0.233816D+04  0.563044D+02
     17  -0.233816D+04  0.114831D+05 -0.144071D+03
     18   0.561730D+02 -0.144134D+03  0.164103D+05
 Property number 5 -- Beta(-w,w,0) derivatives, frequency  2    0.105471:
                 1             2             3 
      1   0.328675D+05 -0.111030D+05  0.886262D+02
      2  -0.118355D+05  0.175846D+05 -0.642294D+02
      3   0.190613D+05 -0.619674D+04 -0.157265D+02
      4   0.947591D+02 -0.643973D+02  0.942740D+04
      5  -0.761582D+02 -0.143369D+02 -0.403599D+04
      6   0.940885D+04 -0.388513D+04  0.953386D+02
      7  -0.110899D+05  0.174484D+05 -0.609292D+02
      8   0.175702D+05 -0.694232D+04 -0.146675D+02
      9  -0.620989D+04  0.722407D+05 -0.128614D+03
     10  -0.640953D+02 -0.961605D+01 -0.403602D+04
     11  -0.147105D+02 -0.143416D+03  0.182368D+05
     12  -0.388512D+04  0.178889D+05 -0.245840D+03
     13   0.887939D+02 -0.611519D+02  0.969587D+04
     14  -0.641472D+02 -0.143808D+02 -0.462399D+04
     15  -0.158211D+02 -0.128047D+03  0.197887D+05
     16   0.943015D+04 -0.404266D+04  0.101306D+03
     17  -0.404263D+04  0.182540D+05 -0.261162D+03
     18   0.952231D+02 -0.246203D+03  0.236124D+05
 Property number 6 -- Beta(w,w,-2w) derivatives, frequency  1    0.000000:
                 1             2             3 
      1   0.216798D+05 -0.653980D+04  0.524594D+02
      2  -0.653944D+04  0.111656D+05 -0.375733D+02
      3   0.111653D+05 -0.385841D+04 -0.698350D+01
      4   0.526076D+02 -0.376791D+02  0.637927D+04
      5  -0.375902D+02 -0.681348D+01 -0.233794D+04
      6   0.637948D+04 -0.233816D+04  0.563044D+02
      7  -0.653944D+04  0.111656D+05 -0.375733D+02
      8   0.111653D+05 -0.385841D+04 -0.698350D+01
      9  -0.385877D+04  0.443754D+05 -0.798927D+02
     10  -0.375902D+02 -0.681348D+01 -0.233794D+04
     11  -0.702847D+01 -0.797347D+02  0.114824D+05
     12  -0.233816D+04  0.114831D+05 -0.144071D+03
     13   0.526076D+02 -0.376791D+02  0.637927D+04
     14  -0.375902D+02 -0.681348D+01 -0.233794D+04
     15  -0.702847D+01 -0.797347D+02  0.114824D+05
     16   0.637948D+04 -0.233816D+04  0.563044D+02
     17  -0.233816D+04  0.114831D+05 -0.144071D+03
     18   0.561730D+02 -0.144134D+03  0.164103D+05
 Property number 6 -- Beta(w,w,-2w) derivatives, frequency  2    0.105471:
                 1             2             3 
      1   0.651220D+05 -0.613546D+04  0.143003D+03
      2  -0.320106D+05  0.187197D+05  0.410373D+03
      3   0.792646D+05 -0.215922D+06  0.145821D+04
      4   0.225708D+03  0.264296D+03  0.638488D+05
      5  -0.115844D+04  0.126266D+04 -0.162244D+05
      6  -0.546394D+05 -0.599686D+05  0.100768D+04
      7  -0.110972D+06  0.137208D+06 -0.159444D+04
      8   0.133146D+06 -0.136926D+06  0.733435D+03
      9  -0.111102D+06  0.491784D+06 -0.228532D+04
     10  -0.751454D+03  0.124502D+04 -0.162291D+05
     11   0.669972D+03 -0.272965D+04  0.992625D+05
     12  -0.599695D+05  0.762565D+05 -0.179604D+04
     13   0.105475D+04 -0.170028D+04 -0.651911D+05
     14  -0.703477D+03  0.128950D+04 -0.334920D+05
     15   0.138112D+04 -0.433994D+04  0.792247D+04
     16   0.432817D+05  0.361905D+05  0.152125D+03
     17   0.362016D+05 -0.357013D+05 -0.259014D+03
     18   0.146724D+03  0.348598D+03  0.370161D+05

 ----------------------------------------------------------------------

 Electric dipole moment (input orientation):
 (Debye = 10**-18 statcoulomb cm , SI units = C m)
                  (au)            (Debye)         (10**-30 SI)
   Tot        0.188946D-03      0.480253D-03      0.160195D-02
   x         -0.662084D-04     -0.168285D-03     -0.561338D-03
   y         -0.175106D-04     -0.445075D-04     -0.148461D-03
   z         -0.176098D-03     -0.447596D-03     -0.149302D-02

 Dipole polarizability, Alpha (input orientation).
 (esu units = cm**3 , SI units = C**2 m**2 J**-1)
 Alpha(0;0):
               (au)            (10**-24 esu)      (10**-40 SI)
   iso        0.120284D+03      0.178242D+02      0.198321D+02
   aniso      0.284679D+02      0.421851D+01      0.469373D+01
   xx         0.114534D+03      0.169723D+02      0.188842D+02
   yx        -0.961557D+01     -0.142488D+01     -0.158539D+01
   yy         0.135522D+03      0.200822D+02      0.223445D+02
   zx         0.764150D-01      0.113235D-01      0.125991D-01
   zy        -0.197563D+00     -0.292758D-01     -0.325737D-01
   zz         0.110796D+03      0.164182D+02      0.182677D+02
 Alpha(-w;w) w=  432.0nm:
                  (au)         (10**-24 esu)      (10**-40 SI)
   iso        0.129143D+03      0.191370D+02      0.212928D+02
   aniso      0.379702D+02      0.562661D+01      0.626044D+01
   xx         0.121474D+03      0.180006D+02      0.200284D+02
   yx        -0.128251D+02     -0.190048D+01     -0.211457D+01
   yy         0.149467D+03      0.221487D+02      0.246437D+02
   zx         0.101952D+00      0.151078D-01      0.168097D-01
   zy        -0.263512D+00     -0.390484D-01     -0.434472D-01
   zz         0.116487D+03      0.172616D+02      0.192061D+02

 First dipole hyperpolarizability, Beta (input orientation).
 ||, _|_  parallel and perpendicular components, (z) with respect to z axis,
 vector components x,y,z.  Values do not include the 1/n! factor of 1/2.
 (esu units = statvolt**-1 cm**4 , SI units = C**3 m**3 J**-2)
 Beta(0;0,0):
               (au)            (10**-30 esu)      (10**-50 SI)
   || (z)     0.855919D-02      0.739448D-04      0.274439D-04
   _|_(z)     0.285306D-02      0.246483D-04      0.914796D-05
   x         -0.184394D+00     -0.159302D-02     -0.591234D-03
   y         -0.840932D-01     -0.726499D-03     -0.269633D-03
   z          0.427960D-01      0.369724D-03      0.137219D-03
   ||         0.414267D-01      0.357895D-03      0.132829D-03
   xxx       -0.417280D-02     -0.360497D-04     -0.133795D-04
   xxy        0.540612D-01      0.467047D-03      0.173340D-03
   yxy       -0.391440D-01     -0.338173D-03     -0.125510D-03
   yyy       -0.720326D-01     -0.622306D-03     -0.230963D-03
   xxz       -0.300527D-01     -0.259632D-03     -0.963598D-04
   yxz       -0.451741D-01     -0.390269D-03     -0.144844D-03
   yyz        0.663125D-01      0.572888D-03      0.212622D-03
   zxz       -0.181480D-01     -0.156784D-03     -0.581890D-04
   zyz       -0.100597D-01     -0.869079D-04     -0.322550D-04
   zzz       -0.219944D-01     -0.190015D-03     -0.705222D-04
 Beta(-w;w,0) w=  432.0nm:
                  (au)         (10**-30 esu)      (10**-50 SI)
   || (z)     0.285672D-02      0.246798D-04      0.915967D-05
   _|_(z)     0.696823D-02      0.602001D-04      0.223427D-04
   x         -0.244345D+00     -0.211095D-02     -0.783457D-03
   y         -0.112844D+00     -0.974886D-03     -0.361819D-03
   z          0.142836D-01      0.123399D-03      0.457983D-04
   ||         0.539044D-01      0.465692D-03      0.172837D-03
   xxx        0.356469D-02      0.307962D-04      0.114297D-04
   yxx        0.985663D-01      0.851536D-03      0.316039D-03
   yyx       -0.675920D-01     -0.583942D-03     -0.216724D-03
   zxx       -0.430535D-01     -0.371949D-03     -0.138045D-03
   zyx       -0.589216D-01     -0.509037D-03     -0.188924D-03
   zzx       -0.201385D-01     -0.173981D-03     -0.645712D-04
   xxy        0.979760D-01      0.846436D-03      0.314146D-03
   yxy       -0.656476D-01     -0.567144D-03     -0.210490D-03
   yyy       -0.124269D+00     -0.107359D-02     -0.398451D-03
   zxy       -0.605604D-01     -0.523194D-03     -0.194178D-03
   zyy        0.859681D-01      0.742698D-03      0.275645D-03
   zzy       -0.118115D-01     -0.102042D-03     -0.378718D-04
   xxz       -0.395322D-01     -0.341527D-03     -0.126755D-03
   yxz       -0.682833D-01     -0.589914D-03     -0.218941D-03
   yyz        0.100495D+00      0.868196D-03      0.322223D-03
   zxz       -0.180065D-01     -0.155562D-03     -0.577354D-04
   zyz       -0.116673D-01     -0.100797D-03     -0.374097D-04
   zzz       -0.441694D-01     -0.381589D-03     -0.141623D-03
 Beta(-2w;w,w) w=  432.0nm:
                  (au)         (10**-30 esu)      (10**-50 SI)
   || (z)     0.568239D+00      0.490914D-02      0.182198D-02
   _|_(z)     0.193019D+00      0.166753D-02      0.618887D-03
   x         -0.969264D+00     -0.837368D-02     -0.310781D-02
   y         -0.496611D+00     -0.429033D-02     -0.159231D-02
   z          0.284119D+01      0.245457D-01      0.910990D-02
   ||         0.608555D+00      0.525744D-02      0.195125D-02
   xxx        0.120546D+00      0.104143D-02      0.386515D-03
   yxx        0.572722D+00      0.494788D-02      0.183636D-02
   zxx        0.406008D+00      0.350759D-02      0.130181D-02
   xyx        0.381480D+00      0.329569D-02      0.122316D-02
   yyx       -0.423448D+00     -0.365826D-02     -0.135773D-02
   zyx       -0.473635D+00     -0.409183D-02     -0.151864D-02
   xyy        0.867165D-01      0.749163D-03      0.278045D-03
   yyy       -0.507599D+00     -0.438526D-02     -0.162755D-02
   zyy        0.738971D+00      0.638414D-02      0.236941D-02
   xzx        0.210569D-01      0.181915D-03      0.675160D-04
   yzx       -0.452577D+00     -0.390991D-02     -0.145112D-02
   zzx       -0.415130D-01     -0.358640D-03     -0.133106D-03
   xzy       -0.257742D+00     -0.222669D-02     -0.826413D-03
   yzy        0.111311D+01      0.961637D-02      0.356902D-02
   zzy       -0.409451D-01     -0.353734D-03     -0.131285D-03
   xzz       -0.487696D+00     -0.421332D-02     -0.156373D-02
   yzz       -0.227607D+00     -0.196635D-02     -0.729792D-03
   zzz       -0.190703D+00     -0.164753D-02     -0.611463D-03

 Second dipole hyperpolarizability, Gamma (input orientation).
 ||, _|_  isotropic parallel and perpendicular components.
 Values do not include the 1/n! factor of 1/6.
 (esu units = statvolt**-2 cm**5 , SI units = C**4 m**4 J**-3)
 Gamma(0;0,0,0):
               (au)            (10**-36 esu)      (10**-61 SI)
   ||         0.281041D+05      0.141552D+02      0.175240D+02
   _|_        0.936804D+04      0.471840D+01      0.584133D+01
   xxxx       0.216798D+05      0.109194D+02      0.135182D+02
   xxyx      -0.653944D+04     -0.329372D+01     -0.407759D+01
   xxyy       0.111656D+05      0.562379D+01      0.696220D+01
   yxyy      -0.385841D+04     -0.194336D+01     -0.240587D+01
   yyyy       0.443754D+05      0.223505D+02      0.276698D+02
   xxzx       0.526076D+02      0.264969D-01      0.328029D-01
   xxzy      -0.376791D+02     -0.189778D-01     -0.234943D-01
   yxzy      -0.681348D+01     -0.343174D-02     -0.424846D-02
   yyzy      -0.797347D+02     -0.401600D-01     -0.497176D-01
   xxzz       0.637927D+04      0.321305D+01      0.397772D+01
   yxzz      -0.233794D+04     -0.117755D+01     -0.145779D+01
   yyzz       0.114824D+05      0.578332D+01      0.715970D+01
   zxzz       0.563044D+02      0.283588D-01      0.351080D-01
   zyzz      -0.144071D+03     -0.725642D-01     -0.898337D-01
   zzzz       0.164103D+05      0.826536D+01      0.102324D+02
 Gamma(-w;w,0,0) w=  432.0nm:
                  (au)         (10**-36 esu)      (10**-61 SI)
   ||         0.440307D+05      0.221769D+02      0.274548D+02
   _|_        0.144290D+05      0.726745D+01      0.899703D+01
   xxxx       0.328675D+05      0.165544D+02      0.204941D+02
   yxxx      -0.118355D+05     -0.596118D+01     -0.737988D+01
   yyxx       0.190613D+05      0.960061D+01      0.118855D+02
   zxxx       0.947591D+02      0.477273D-01      0.590859D-01
   zyxx      -0.761582D+02     -0.383586D-01     -0.474875D-01
   zzxx       0.940885D+04      0.473895D+01      0.586678D+01
   xxyx      -0.110899D+05     -0.558565D+01     -0.691498D+01
   yxyx       0.175702D+05      0.884959D+01      0.109557D+02
   yyyx      -0.620989D+04     -0.312773D+01     -0.387210D+01
   zxyx      -0.640953D+02     -0.322829D-01     -0.399659D-01
   zyyx      -0.147105D+02     -0.740923D-02     -0.917255D-02
   zzyx      -0.388512D+04     -0.195682D+01     -0.242252D+01
   xxyy       0.174484D+05      0.878821D+01      0.108797D+02
   yxyy      -0.694232D+04     -0.349663D+01     -0.432880D+01
   yyyy       0.722407D+05      0.363855D+02      0.450449D+02
   zxyy      -0.961605D+01     -0.484331D-02     -0.599597D-02
   zyyy      -0.143416D+03     -0.722343D-01     -0.894254D-01
   zzyy       0.178889D+05      0.901008D+01      0.111544D+02
   xxzx       0.887939D+02      0.447228D-01      0.553664D-01
   yxzx      -0.641472D+02     -0.323090D-01     -0.399982D-01
   yyzx      -0.158211D+02     -0.796859D-02     -0.986504D-02
   zxzx       0.943015D+04      0.474968D+01      0.588006D+01
   zyzx      -0.404263D+04     -0.203615D+01     -0.252073D+01
   zzzx       0.952231D+02      0.479610D-01      0.593752D-01
   xxzy      -0.611519D+02     -0.308003D-01     -0.381305D-01
   yxzy      -0.143808D+02     -0.724317D-02     -0.896697D-02
   yyzy      -0.128047D+03     -0.644935D-01     -0.798423D-01
   zxzy      -0.404266D+04     -0.203617D+01     -0.252075D+01
   zyzy       0.182540D+05      0.919400D+01      0.113821D+02
   zzzy      -0.246203D+03     -0.124005D+00     -0.153517D+00
   xxzz       0.969587D+04      0.488352D+01      0.604575D+01
   yxzz      -0.462399D+04     -0.232896D+01     -0.288323D+01
   yyzz       0.197887D+05      0.996697D+01      0.123390D+02
   zxzz       0.101306D+03      0.510249D-01      0.631683D-01
   zyzz      -0.261162D+03     -0.131539D+00     -0.162844D+00
   zzzz       0.236124D+05      0.118929D+02      0.147232D+02
 Gamma(-2w;w,w,0) w=  432.0nm:
                  (au)         (10**-36 esu)      (10**-61 SI)
   ||         0.173847D+06      0.875614D+02      0.108400D+03
   _|_        0.422004D+05      0.212551D+02      0.899703D+01
   xxxx       0.651220D+05      0.328000D+02      0.406060D+02
   yxxx      -0.110972D+06     -0.558932D+02     -0.691953D+02
   zxxx       0.105475D+04      0.531245D+00      0.657676D+00
   xyxx      -0.320106D+05     -0.161228D+02     -0.199598D+02
   yyxx       0.133146D+06      0.670614D+02      0.830213D+02
   zyxx      -0.703477D+03     -0.354320D+00     -0.438645D+00
   xyyx       0.792646D+05      0.399232D+02      0.494245D+02
   yyyx      -0.111102D+06     -0.559585D+02     -0.692760D+02
   zyyx       0.138112D+04      0.695629D+00      0.861182D+00
   xzxx       0.225708D+03      0.113682D+00      0.140738D+00
   yzxx      -0.751454D+03     -0.378485D+00     -0.468560D+00
   zzxx       0.432817D+05      0.217997D+02      0.269878D+02
   xzyx      -0.115844D+04     -0.583473D+00     -0.722334D+00
   yzyx       0.669972D+03      0.337445D+00      0.417753D+00
   zzyx       0.362016D+05      0.182337D+02      0.225731D+02
   xzzx      -0.546394D+05     -0.275202D+02     -0.340697D+02
   yzzx      -0.599695D+05     -0.302048D+02     -0.373933D+02
   zzzx       0.146724D+03      0.739004D-01      0.914880D-01
   xxxy      -0.613546D+04     -0.309025D+01     -0.382570D+01
   yxxy       0.137208D+06      0.691073D+02      0.855541D+02
   zxxy      -0.170028D+04     -0.856382D+00     -0.106019D+01
   xyxy       0.187197D+05      0.942853D+01      0.116724D+02
   yyxy      -0.136926D+06     -0.689652D+02     -0.853783D+02
   zyxy       0.128950D+04      0.649483D+00      0.804054D+00
   xyyy      -0.215922D+06     -0.108754D+03     -0.134636D+03
   yyyy       0.491784D+06      0.247697D+03      0.306646D+03
   zyyy      -0.433994D+04     -0.218589D+01     -0.270612D+01
   xzxy       0.264296D+03      0.133118D+00      0.164798D+00
   yzxy       0.124502D+04      0.627081D+00      0.776320D+00
   zzxy       0.361905D+05      0.182281D+02      0.225662D+02
   xzyy       0.126266D+04      0.635961D+00      0.787314D+00
   yzyy      -0.272965D+04     -0.137484D+01     -0.170204D+01
   zzyy      -0.357013D+05     -0.179816D+02     -0.222611D+02
   xzzy      -0.599686D+05     -0.302044D+02     -0.373927D+02
   yzzy       0.762565D+05      0.384081D+02      0.475488D+02
   zzzy       0.348598D+03      0.175578D+00      0.217364D+00
   xxxz       0.143003D+03      0.720262D-01      0.891677D-01
   yxxz      -0.159444D+04     -0.803071D+00     -0.994194D+00
   zxxz      -0.651911D+05     -0.328348D+02     -0.406491D+02
   xyxz       0.410373D+03      0.206692D+00      0.255883D+00
   yyxz       0.733435D+03      0.369409D+00      0.457325D+00
   zyxz      -0.334920D+05     -0.168689D+02     -0.208835D+02
   xyyz       0.145821D+04      0.734454D+00      0.909247D+00
   yyyz      -0.228532D+04     -0.115104D+01     -0.142498D+01
   zyyz       0.792247D+04      0.399031D+01      0.493996D+01
   xzxz       0.638488D+05      0.321587D+02      0.398121D+02
   yzxz      -0.162291D+05     -0.817408D+01     -0.101194D+02
   zzxz       0.152125D+03      0.766205D-01      0.948554D-01
   xzyz      -0.162244D+05     -0.817174D+01     -0.101165D+02
   yzyz       0.992625D+05      0.499955D+02      0.618939D+02
   zzyz      -0.259014D+03     -0.130457D+00     -0.161505D+00
   xzzz       0.100768D+04      0.507538D+00      0.628327D+00
   yzzz      -0.179604D+04     -0.904610D+00     -0.111990D+01
   zzzz       0.370161D+05      0.186439D+02      0.230809D+02

 ----------------------------------------------------------------------

 Dipole orientation:
     6          5.77435287         -2.74954639         -1.04478854
     6          4.40025836         -2.11819213          1.17368045
     1          5.09651748         -2.23211809          3.08848634
     6          1.97497401         -1.24200710          0.42625697
     1          0.50469891         -0.57329325          1.67337650
     6          4.19828198         -2.26349214         -3.16333461
     1          4.71389723         -2.50737061         -5.12265443
     6          1.85013225         -1.33183985         -2.25415419
     1          0.26831236         -0.74354874         -3.40133531
     6          4.18119400          4.60711118          0.12912053
     6          4.05585554          4.51834175         -2.55132663
     1          2.44065616          5.01905370         -3.69355739
     6          6.40366322          3.58664599         -3.46128303
     1          6.88559514          3.25516163         -5.41630937
     6          6.60645418          3.73017249          0.87577457
     1          7.26951316          3.52662791          2.79493618
     6          7.98000405          3.09943639         -1.34324125
     1          9.87001187          2.33256857         -1.40629185
    26          4.74234468          0.98371607         -1.12167657
     1          7.69797000         -3.42740885         -1.11159458
     1          2.67788825          5.18693395          1.38137488

 Electric dipole moment (dipole orientation):
 (Debye = 10**-18 statcoulomb cm , SI units = C m)
                  (au)            (Debye)         (10**-30 SI)
   Tot        0.188946D-03      0.480253D-03      0.160195D-02
   x          0.000000D+00      0.000000D+00      0.000000D+00
   y          0.000000D+00      0.000000D+00      0.000000D+00
   z          0.188946D-03      0.480253D-03      0.160195D-02

 Dipole polarizability, Alpha (dipole orientation).
 (esu units = cm**3 , SI units = C**2 m**2 J**-1)
 Alpha(0;0):
               (au)            (10**-24 esu)      (10**-40 SI)
   iso        0.120284D+03      0.178242D+02      0.198321D+02
   aniso      0.284679D+02      0.421851D+01      0.469373D+01
   xx         0.114332D+03      0.169422D+02      0.188507D+02
   yx         0.937734D+01      0.138958D+01      0.154611D+01
   yy         0.135662D+03      0.201030D+02      0.223676D+02
   zx        -0.477316D+00     -0.707309D-01     -0.786987D-01
   zy        -0.126543D+01     -0.187517D+00     -0.208641D+00
   zz         0.110858D+03      0.164275D+02      0.182781D+02
 Alpha(-w;w) w=  432.0nm:
                  (au)         (10**-24 esu)      (10**-40 SI)
   iso        0.129143D+03      0.191370D+02      0.212928D+02
   aniso      0.379702D+02      0.562661D+01      0.626044D+01
   xx         0.121204D+03      0.179605D+02      0.199838D+02
   yx         0.125073D+02      0.185340D+01      0.206218D+01
   yy         0.149654D+03      0.221764D+02      0.246746D+02
   zx        -0.636709D+00     -0.943506D-01     -0.104979D+00
   zy        -0.168780D+01     -0.250106D+00     -0.278280D+00
   zz         0.116571D+03      0.172740D+02      0.192199D+02

 First dipole hyperpolarizability, Beta (dipole orientation).
 ||, _|_  parallel and perpendicular components, (z) with respect to z axis,
 vector components x,y,z.  Values do not include the 1/n! factor of 1/2.
 (esu units = statvolt**-1 cm**4 , SI units = C**3 m**3 J**-2)
 Beta(0;0,0):
               (au)            (10**-30 esu)      (10**-50 SI)
   || (z)     0.650415D-02      0.561908D-04      0.208547D-04
   _|_(z)     0.216805D-02      0.187303D-04      0.695156D-05
   x         -0.186258D+00     -0.160912D-02     -0.597210D-03
   y          0.845860D-01      0.730758D-03      0.271213D-03
   z          0.325208D-01      0.280954D-03      0.104273D-03
   ||         0.414267D-01      0.357895D-03      0.132829D-03
   xxx        0.150900D-01      0.130366D-03      0.483840D-04
   xxy       -0.787382D-01     -0.680237D-03     -0.252463D-03
   yxy       -0.531884D-01     -0.459506D-03     -0.170541D-03
   yyy        0.879979D-01      0.760233D-03      0.282153D-03
   xxz        0.347380D-02      0.300109D-04      0.111383D-04
   yxz       -0.170125D-01     -0.146974D-03     -0.545481D-04
   yyz       -0.451132D-01     -0.389743D-03     -0.144649D-03
   zxz       -0.239876D-01     -0.207234D-03     -0.769128D-04
   zyz        0.189357D-01      0.163590D-03      0.607147D-04
   zzz        0.524797D-01      0.453384D-03      0.168269D-03
 Beta(-w;w,0) w=  432.0nm:
                  (au)         (10**-30 esu)      (10**-50 SI)
   || (z)     0.165532D-01      0.143007D-03      0.530755D-04
   _|_(z)     0.409642D-03      0.353899D-05      0.131346D-05
   x         -0.231924D+00     -0.200364D-02     -0.743632D-03
   y          0.109559D+00      0.946506D-03      0.351286D-03
   z          0.827659D-01      0.715033D-03      0.265378D-03
   ||         0.539044D-01      0.465692D-03      0.172837D-03
   xxx        0.305506D-01      0.263934D-03      0.979564D-04
   yxx       -0.131599D+00     -0.113691D-02     -0.421954D-03
   yyx       -0.899251D-01     -0.776882D-03     -0.288332D-03
   zxx        0.643100D-02      0.555589D-04      0.206201D-04
   zyx       -0.146684D-01     -0.126723D-03     -0.470321D-04
   zzx       -0.246863D-01     -0.213270D-03     -0.791531D-04
   xxy       -0.128700D+00     -0.111187D-02     -0.412659D-03
   yxy       -0.819742D-01     -0.708193D-03     -0.262839D-03
   yyy        0.145083D+00      0.125340D-02      0.465187D-03
   zxy       -0.167643D-01     -0.144830D-03     -0.537523D-04
   zyy       -0.501611D-01     -0.433353D-03     -0.160835D-03
   zzy        0.216942D-01      0.187421D-03      0.695595D-04
   xxz        0.386276D-02      0.333713D-04      0.123854D-04
   yxz       -0.237632D-01     -0.205296D-03     -0.761934D-04
   yyz       -0.629171D-01     -0.543555D-03     -0.201735D-03
   zxz       -0.225080D-01     -0.194452D-03     -0.721689D-04
   zyz        0.222578D-01      0.192290D-03      0.713666D-04
   zzz        0.764268D-01      0.660268D-03      0.245052D-03
 Beta(-2w;w,w) w=  432.0nm:
                  (au)         (10**-30 esu)      (10**-50 SI)
   || (z)    -0.452467D+00     -0.390896D-02     -0.145077D-02
   _|_(z)    -0.161797D+00     -0.139780D-02     -0.518781D-03
   x         -0.189490D+01     -0.163704D-01     -0.607572D-02
   y          0.741419D+00      0.640528D-02      0.237726D-02
   z         -0.226233D+01     -0.195448D-01     -0.725386D-02
   ||         0.608555D+00      0.525744D-02      0.195125D-02
   xxx       -0.128728D+00     -0.111211D-02     -0.412748D-03
   yxx       -0.759067D+00     -0.655775D-02     -0.243384D-02
   zxx       -0.428911D+00     -0.370546D-02     -0.137524D-02
   xyx       -0.567417D+00     -0.490204D-02     -0.181934D-02
   yyx       -0.714938D+00     -0.617650D-02     -0.229235D-02
   zyx       -0.339588D+00     -0.293377D-02     -0.108884D-02
   xyy       -0.143306D+00     -0.123805D-02     -0.459491D-03
   yyy        0.766277D+00      0.662003D-02      0.245696D-02
   zyy       -0.679120D+00     -0.586706D-02     -0.217750D-02
   xzx       -0.199673D+00     -0.172502D-02     -0.640223D-03
   yzx       -0.179569D+00     -0.155134D-02     -0.575765D-03
   zzx        0.193351D+00      0.167040D-02      0.619954D-03
   xzy       -0.257625D-01     -0.222568D-03     -0.826037D-04
   yzy       -0.875432D+00     -0.756305D-02     -0.280695D-02
   zzy        0.491069D-01      0.424246D-03      0.157455D-03
   xzz       -0.322233D+00     -0.278384D-02     -0.103319D-02
   yzz        0.238276D+00      0.205852D-02      0.763999D-03
   zzz        0.331969D+00      0.286795D-02      0.106441D-02

 Second dipole hyperpolarizability, Gamma (dipole orientation).
 ||, _|_  isotropic parallel and perpendicular components.
 Values do not include the 1/n! factor of 1/6.
 (esu units = statvolt**-2 cm**5 , SI units = C**4 m**4 J**-3)
 Gamma(0;0,0,0):
               (au)            (10**-36 esu)      (10**-61 SI)
   ||         0.281041D+05      0.141552D+02      0.175240D+02
   _|_        0.936804D+04      0.471840D+01      0.584133D+01
   xxxx       0.214028D+05      0.107799D+02      0.133454D+02
   xxyx       0.640305D+04      0.322502D+01      0.399255D+01
   xxyy       0.112105D+05      0.564639D+01      0.699017D+01
   yxyy       0.374523D+04      0.188636D+01      0.233529D+01
   yyyy       0.444878D+05      0.224071D+02      0.277398D+02
   xxzx      -0.325914D+03     -0.164153D+00     -0.203220D+00
   xxzy      -0.248534D+03     -0.125179D+00     -0.154970D+00
   yxzy       0.415114D+02      0.209081D-01      0.258840D-01
   yyzy      -0.505417D+03     -0.254563D+00     -0.315147D+00
   xxzz       0.634210D+04      0.319432D+01      0.395454D+01
   yxzz       0.227214D+04      0.114441D+01      0.141677D+01
   yyzz       0.115107D+05      0.579760D+01      0.717737D+01
   zxzz      -0.348377D+03     -0.175467D+00     -0.217226D+00
   zyzz      -0.921897D+03     -0.464331D+00     -0.574838D+00
   zzzz       0.165026D+05      0.831186D+01      0.102900D+02
 Gamma(-w;w,0,0) w=  432.0nm:
                  (au)         (10**-36 esu)      (10**-61 SI)
   ||         0.440307D+05      0.221769D+02      0.274548D+02
   _|_        0.144290D+05      0.726745D+01      0.899703D+01
   xxxx       0.323821D+05      0.163099D+02      0.201915D+02
   yxxx       0.115889D+05      0.583697D+01      0.722612D+01
   yyxx       0.191566D+05      0.964858D+01      0.119448D+02
   zxxx      -0.589901D+03     -0.297115D+00     -0.367826D+00
   zyxx      -0.500355D+03     -0.252014D+00     -0.311991D+00
   zzxx       0.935164D+04      0.471014D+01      0.583110D+01
   xxyx       0.108618D+05      0.547077D+01      0.677276D+01
   yxyx       0.176538D+05      0.889166D+01      0.110078D+02
   yyyx       0.602381D+04      0.303401D+01      0.375607D+01
   zxyx      -0.422985D+03     -0.213045D+00     -0.263747D+00
   zyyx       0.871765D+02      0.439081D-01      0.543579D-01
   zzyx       0.377448D+04      0.190109D+01      0.235353D+01
   xxyy       0.175171D+05      0.882284D+01      0.109226D+02
   yxyy       0.673820D+04      0.339383D+01      0.420153D+01
   yyyy       0.724321D+05      0.364819D+02      0.451642D+02
   zxyy       0.579785D+02      0.292020D-01      0.361518D-01
   zyyy      -0.909290D+03     -0.457982D+00     -0.566977D+00
   zzyy       0.179376D+05      0.903464D+01      0.111848D+02
   xxzx      -0.552903D+03     -0.278481D+00     -0.344756D+00
   yxzx      -0.423058D+03     -0.213081D+00     -0.263793D+00
   yyzx       0.947592D+02      0.477273D-01      0.590860D-01
   zxzx       0.936576D+04      0.471725D+01      0.583991D+01
   zyzx       0.392809D+04      0.197846D+01      0.244931D+01
   zzzx      -0.594414D+03     -0.299388D+00     -0.370640D+00
   xxzy      -0.403153D+03     -0.203056D+00     -0.251381D+00
   yxzy       0.873477D+02      0.439944D-01      0.544646D-01
   yyzy      -0.811118D+03     -0.408535D+00     -0.505763D+00
   zxzy       0.392812D+04      0.197847D+01      0.244933D+01
   zyzy       0.183012D+05      0.921775D+01      0.114115D+02
   zzzy      -0.157341D+04     -0.792478D+00     -0.981081D+00
   xxzz       0.961811D+04      0.484435D+01      0.599725D+01
   yxzz       0.449506D+04      0.226403D+01      0.280284D+01
   yyzz       0.198433D+05      0.999445D+01      0.123730D+02
   zxzz      -0.630804D+03     -0.317717D+00     -0.393330D+00
   zyzz      -0.166970D+04     -0.840976D+00     -0.104112D+01
   zzzz       0.237741D+05      0.119743D+02      0.148241D+02
 Gamma(-2w;w,w,0) w=  432.0nm:
                  (au)         (10**-36 esu)      (10**-61 SI)
   ||         0.173847D+06      0.875614D+02      0.108400D+03
   _|_        0.422004D+05      0.212551D+02      0.899703D+01
   xxxx       0.630782D+05      0.317706D+02      0.393316D+02
   yxxx       0.107271D+06      0.540293D+02      0.668877D+02
   zxxx      -0.579653D+04     -0.291954D+01     -0.361436D+01
   xyxx       0.302470D+05      0.152345D+02      0.188601D+02
   yyxx       0.131794D+06      0.663809D+02      0.821789D+02
   zyxx      -0.438029D+04     -0.220622D+01     -0.273128D+01
   xyyx       0.761754D+05      0.383672D+02      0.474982D+02
   yyyx       0.109012D+06      0.549060D+02      0.679730D+02
   zyyx      -0.907738D+04     -0.457200D+01     -0.566009D+01
   xzxx      -0.159528D+04     -0.803492D+00     -0.994715D+00
   yzxx      -0.443110D+04     -0.223181D+01     -0.276296D+01
   zzxx       0.443169D+05      0.223211D+02      0.276333D+02
   xzyx      -0.676329D+04     -0.340646D+01     -0.421717D+01
   yzyx      -0.432392D+04     -0.217783D+01     -0.269613D+01
   zzyx      -0.349661D+05     -0.176114D+02     -0.218027D+02
   xzzx      -0.557307D+05     -0.280699D+02     -0.347502D+02
   yzzx       0.588500D+05      0.296410D+02      0.366952D+02
   zzzx       0.517765D+03      0.260783D+00      0.322846D+00
   xxxy       0.493931D+04      0.248778D+01      0.307985D+01
   yxxy       0.135035D+06      0.680132D+02      0.841997D+02
   zxxy      -0.102161D+05     -0.514554D+01     -0.637013D+01
   xyxy       0.153790D+05      0.774596D+01      0.958942D+01
   yyxy       0.134262D+06      0.676235D+02      0.837172D+02
   zyxy      -0.714341D+04     -0.359792D+01     -0.445419D+01
   xyyy       0.211317D+06      0.106434D+03      0.131764D+03
   yyyy       0.496154D+06      0.249898D+03      0.309371D+03
   zyyy      -0.284287D+05     -0.143187D+02     -0.177264D+02
   xzxy       0.240904D+04      0.121336D+01      0.150213D+01
   yzxy      -0.780523D+04     -0.393126D+01     -0.486686D+01
   zzxy      -0.349408D+05     -0.175986D+02     -0.217869D+02
   xzyy      -0.711018D+04     -0.358118D+01     -0.443347D+01
   yzyy      -0.180520D+05     -0.909223D+01     -0.112561D+02
   zzyy      -0.351827D+05     -0.177205D+02     -0.219378D+02
   xzzy       0.588577D+05      0.296448D+02      0.367000D+02
   yzzy       0.781497D+05      0.393616D+02      0.487293D+02
   zzzy       0.163061D+04      0.821287D+00      0.101675D+01
   xxxz      -0.410799D+03     -0.206907D+00     -0.256149D+00
   yxxz      -0.101395D+05     -0.510696D+01     -0.632237D+01
   zxxz      -0.652310D+05     -0.328549D+02     -0.406740D+02
   xyxz       0.253109D+04      0.127483D+01      0.157823D+01
   yyxz      -0.438945D+04     -0.221083D+01     -0.273699D+01
   zyxz       0.329029D+05      0.165722D+02      0.205162D+02
   xyyz      -0.915079D+04     -0.460897D+01     -0.570586D+01
   yyyz      -0.147424D+05     -0.742528D+01     -0.919243D+01
   zyyz       0.959314D+04      0.483177D+01      0.598169D+01
   xzxz       0.633524D+05      0.319087D+02      0.395027D+02
   yzxz       0.161467D+05      0.813262D+01      0.100681D+02
   zzxz      -0.590822D+03     -0.297579D+00     -0.368400D+00
   xzyz       0.161350D+05      0.812669D+01      0.100608D+02
   yzyz       0.100068D+06      0.504013D+02      0.623963D+02
   zzyz      -0.183143D+04     -0.922436D+00     -0.114197D+01
   xzzz      -0.482255D+04     -0.242897D+01     -0.300704D+01
   yzzz      -0.121229D+05     -0.610593D+01     -0.755908D+01
   zzzz       0.375188D+05      0.188971D+02      0.233944D+02

 ----------------------------------------------------------------------
 1\1\GINC-BHISHM\SP\RPBE1PBE\GenECP\C10H10Fe1\NAVNEET\11-Apr-2021\0\\#p
  pbe1pbe/genecp polar=(cubic,four,DCSHG) scfcon=10 cphf=(rdfreq,conver
 =10) int=acc2e=12\\Title Card Required\\0,1\C,0,3.030734,1.448406,-0.6
 90287\C,0,1.944056,1.019218,-1.498663\H,0,1.933012,0.979139,-2.577726\
 C,0,0.888603,0.615849,-0.637353\H,0,-0.065289,0.215471,-0.946999\C,0,2
 .64688,1.310256,0.670651\H,0,3.263535,1.530239,1.529405\C,0,1.322963,0
 .795737,0.703352\H,0,0.757051,0.55614,1.591299\C,0,2.08901,-2.470663,-
 0.613053\C,0,2.52314,-2.291329,0.727814\H,0,1.93899,-2.484733,1.615214
 \C,0,3.847031,-1.776746,0.695557\H,0,4.445419,-1.510521,1.554143\C,0,3
 .144587,-2.066859,-1.474016\H,0,3.115486,-2.059643,-2.553466\C,0,4.231
 102,-1.637965,-0.665239\H,0,5.172558,-1.247679,-1.022212\Fe,0,2.56679,
 -0.505419,-0.277918\H,0,3.990333,1.791687,-1.047275\H,0,1.117007,-2.82
 4169,-0.923466\\Version=ES64L-G09RevD.01\State=1-A\HF=-1650.2429444\RM
 SD=3.922e-11\Dipole=-0.0000662,-0.0000175,-0.0001761\Polar=114.5344313
 ,-9.6155742,135.5216675,0.076415,-0.1975629,110.795565\HyperPolar=-0.0
 041728,0.0540612,-0.039144,-0.0720326,-0.0300527,-0.0451741,0.0663125,
 -0.018148,-0.0100597,-0.0219944\DQPolar=0.0001866,-0.0022489,0.0020623
 ,0.0065534,0.0011565,-0.0181681,0.007411,-0.0065912,-0.0008198,-0.0051
 288,-0.0173424,0.0321197,-0.0073237,0.0286484,-0.0213247,-0.0194587,-0
 .0009568,-0.0020563\Quadrupole=2.1122702,-5.597678,3.4854078,3.5322339
 ,-0.0286848,0.0724263\PG=C01 [X(C10H10Fe1)]\\@


 ON A TOMBSTONE, "HERE LIES LESTER MOORE,
 FOUR SLUGS FROM A 44, NO LES, NO MORE".
 Job cpu time:       4 days 15 hours 52 minutes 56.6 seconds.
 File lengths (MBytes):  RWF=    871 Int=      0 D2E=      0 Chk=     57 Scr=      1
 Normal termination of Gaussian 09 at Sun Apr 11 20:21:20 2021.
