Polar                                                                   
SP        RB3LYP                                                      Gen                 
Number of atoms                            I               16
Info1-9                                    I   N=           9
         125         123           0           0           0         110
           1          18        -502
Charge                                     I                0
Multiplicity                               I                1
Number of electrons                        I               72
Number of alpha electrons                  I               36
Number of beta electrons                   I               36
Number of basis functions                  I              170
Number of independent functions            I              170
Number of point charges in /Mol/           I                0
Number of translation vectors              I                0
Atomic numbers                             I   N=          16
           6           6           6           6           6           6
           7           7           1           1           8           8
           1           1           1           1
Nuclear charges                            R   N=          16
  6.00000000E+00  6.00000000E+00  6.00000000E+00  6.00000000E+00  6.00000000E+00
  6.00000000E+00  7.00000000E+00  7.00000000E+00  1.00000000E+00  1.00000000E+00
  8.00000000E+00  8.00000000E+00  1.00000000E+00  1.00000000E+00  1.00000000E+00
  1.00000000E+00
Current cartesian coordinates              R   N=          48
 -1.34381938E+00  8.21720526E-04  2.61159356E-04 -2.77911747E-02 -2.28696630E+00
  1.68493597E-03  2.56210006E+00 -2.29055533E+00  1.25731370E-03  3.92838544E+00
 -7.33421153E-05 -2.28454201E-03  2.56326380E+00  2.29109135E+00  1.49030750E-03
 -2.68539917E-02  2.28817910E+00  2.75444839E-03 -4.04632551E+00  6.02137296E-05
  5.71100436E-04  6.47690702E+00 -8.15294836E-04 -6.93185161E-02  7.43836574E+00
 -1.61331354E+00  2.13064713E-01  7.43923395E+00  1.61090973E+00  2.14890460E-01
 -5.17845518E+00 -2.05880276E+00  1.31351438E-03 -5.18075892E+00  2.05755682E+00
 -9.43914809E-04 -1.05726844E+00 -4.04554698E+00  5.28676577E-03  3.58089886E+00
 -4.06166211E+00  2.35423654E-03  3.58171468E+00  4.06237023E+00  3.17313237E-03
 -1.05501107E+00  4.04751254E+00  8.52406840E-03
Force Field                                I                0
Int Atom Types                             I   N=          16
           0           0           0           0           0           0
           0           0           0           0           0           0
           0           0           0           0
MM charges                                 R   N=          16
  0.00000000E+00  0.00000000E+00  0.00000000E+00  0.00000000E+00  0.00000000E+00
  0.00000000E+00  0.00000000E+00  0.00000000E+00  0.00000000E+00  0.00000000E+00
  0.00000000E+00  0.00000000E+00  0.00000000E+00  0.00000000E+00  0.00000000E+00
  0.00000000E+00
Integer atomic weights                     I   N=          16
          12          12          12          12          12          12
          14          14           1           1          16          16
           1           1           1           1
Real atomic weights                        R   N=          16
  1.20000000E+01  1.20000000E+01  1.20000000E+01  1.20000000E+01  1.20000000E+01
  1.20000000E+01  1.40030740E+01  1.40030740E+01  1.00782504E+00  1.00782504E+00
  1.59949146E+01  1.59949146E+01  1.00782504E+00  1.00782504E+00  1.00782504E+00
  1.00782504E+00
Atom fragment info                         I   N=          16
           0           0           0           0           0           0
           0           0           0           0           0           0
           0           0           0           0
Atom residue num                           I   N=          16
           0           0           0           0           0           0
           0           0           0           0           0           0
           0           0           0           0
Nuclear spins                              I   N=          16
           0           0           0           0           0           0
           2           2           1           1           0           0
           1           1           1           1
Nuclear ZEff                               R   N=          16
 -3.60000000E+00 -3.60000000E+00 -3.60000000E+00 -3.60000000E+00 -3.60000000E+00
 -3.60000000E+00 -4.55000000E+00 -4.55000000E+00 -1.00000000E+00 -1.00000000E+00
 -5.60000000E+00 -5.60000000E+00 -1.00000000E+00 -1.00000000E+00 -1.00000000E+00
 -1.00000000E+00
Nuclear QMom                               R   N=          16
  0.00000000E+00  0.00000000E+00  0.00000000E+00  0.00000000E+00  0.00000000E+00
  0.00000000E+00  2.04400000E+00  2.04400000E+00  0.00000000E+00  0.00000000E+00
  0.00000000E+00  0.00000000E+00  0.00000000E+00  0.00000000E+00  0.00000000E+00
  0.00000000E+00
Nuclear GFac                               R   N=          16
  0.00000000E+00  0.00000000E+00  0.00000000E+00  0.00000000E+00  0.00000000E+00
  0.00000000E+00  4.03761000E-01  4.03761000E-01  2.79284600E+00  2.79284600E+00
  0.00000000E+00  0.00000000E+00  2.79284600E+00  2.79284600E+00  2.79284600E+00
  2.79284600E+00
MicOpt                                     I   N=          16
          -1          -1          -1          -1          -1          -1
          -1          -1          -1          -1          -1          -1
          -1          -1          -1          -1
Number of contracted shells                I               78
Number of primitive shells                 I              232
Pure/Cartesian d shells                    I                0
Pure/Cartesian f shells                    I                0
Highest angular momentum                   I                2
Largest degree of contraction              I                5
Shell types                                I   N=          78
           0           0           0           1           1          -2
           0           0           0           1           1          -2
           0           0           0           1           1          -2
           0           0           0           1           1          -2
           0           0           0           1           1          -2
           0           0           0           1           1          -2
           0           0           0           1           1          -2
           0           0           0           1           1          -2
           0           0           1           0           0           1
           0           0           0           1           1          -2
           0           0           0           1           1          -2
           0           0           1           0           0           1
           0           0           1           0           0           1
Number of primitives per shell             I   N=          78
           5           3           3           4           2           2
           5           3           3           4           2           2
           5           3           3           4           2           2
           5           3           3           4           2           2
           5           3           3           4           2           2
           5           3           3           4           2           2
           5           3           3           4           2           2
           5           3           3           4           2           2
           3           2           2           3           2           2
           5           3           3           4           2           2
           5           3           3           4           2           2
           3           2           2           3           2           2
           3           2           2           3           2           2
Shell to atom map                          I   N=          78
           1           1           1           1           1           1
           2           2           2           2           2           2
           3           3           3           3           3           3
           4           4           4           4           4           4
           5           5           5           5           5           5
           6           6           6           6           6           6
           7           7           7           7           7           7
           8           8           8           8           8           8
           9           9           9          10          10          10
          11          11          11          11          11          11
          12          12          12          12          12          12
          13          13          13          14          14          14
          15          15          15          16          16          16
Primitive exponents                        R   N=         232
  6.77990000E+03  1.01720000E+03  2.31570000E+02  6.55470000E+01  7.53390000E+00
  2.12530000E+01  7.53390000E+00  2.80310000E+00  5.21510000E-01  1.59570000E-01
  4.88250000E-02  1.87340000E+01  4.13620000E+00  1.20040000E+00  3.83460000E-01
  1.21290000E-01  3.83650000E-02  4.16900000E-01  1.08560900E-01  6.77990000E+03
  1.01720000E+03  2.31570000E+02  6.55470000E+01  7.53390000E+00  2.12530000E+01
  7.53390000E+00  2.80310000E+00  5.21510000E-01  1.59570000E-01  4.88250000E-02
  1.87340000E+01  4.13620000E+00  1.20040000E+00  3.83460000E-01  1.21290000E-01
  3.83650000E-02  4.16900000E-01  1.08560900E-01  6.77990000E+03  1.01720000E+03
  2.31570000E+02  6.55470000E+01  7.53390000E+00  2.12530000E+01  7.53390000E+00
  2.80310000E+00  5.21510000E-01  1.59570000E-01  4.88250000E-02  1.87340000E+01
  4.13620000E+00  1.20040000E+00  3.83460000E-01  1.21290000E-01  3.83650000E-02
  4.16900000E-01  1.08560900E-01  6.77990000E+03  1.01720000E+03  2.31570000E+02
  6.55470000E+01  7.53390000E+00  2.12530000E+01  7.53390000E+00  2.80310000E+00
  5.21510000E-01  1.59570000E-01  4.88250000E-02  1.87340000E+01  4.13620000E+00
  1.20040000E+00  3.83460000E-01  1.21290000E-01  3.83650000E-02  4.16900000E-01
  1.08560900E-01  6.77990000E+03  1.01720000E+03  2.31570000E+02  6.55470000E+01
  7.53390000E+00  2.12530000E+01  7.53390000E+00  2.80310000E+00  5.21510000E-01
  1.59570000E-01  4.88250000E-02  1.87340000E+01  4.13620000E+00  1.20040000E+00
  3.83460000E-01  1.21290000E-01  3.83650000E-02  4.16900000E-01  1.08560900E-01
  6.77990000E+03  1.01720000E+03  2.31570000E+02  6.55470000E+01  7.53390000E+00
  2.12530000E+01  7.53390000E+00  2.80310000E+00  5.21510000E-01  1.59570000E-01
  4.88250000E-02  1.87340000E+01  4.13620000E+00  1.20040000E+00  3.83460000E-01
  1.21290000E-01  3.83650000E-02  4.16900000E-01  1.08560900E-01  9.15560000E+03
  1.37360000E+03  3.12730000E+02  8.85470000E+01  1.02460000E+01  2.87560000E+01
  1.02460000E+01  3.84430000E+00  7.46500000E-01  2.24750000E-01  6.76660000E-02
  2.66670000E+01  5.95570000E+00  1.74400000E+00  5.56290000E-01  1.73150000E-01
  5.38940000E-02  6.67104000E-01  1.48097000E-01  9.15560000E+03  1.37360000E+03
  3.12730000E+02  8.85470000E+01  1.02460000E+01  2.87560000E+01  1.02460000E+01
  3.84430000E+00  7.46500000E-01  2.24750000E-01  6.76660000E-02  2.66670000E+01
  5.95570000E+00  1.74400000E+00  5.56290000E-01  1.73150000E-01  5.38940000E-02
  6.67104000E-01  1.48097000E-01  1.87358400E+01  2.82571200E+00  6.40137000E-01
  1.75608000E-01  4.81740000E-02  6.05839000E-01  1.25177000E-01  1.87358400E+01
  2.82571200E+00  6.40137000E-01  1.75608000E-01  4.81740000E-02  6.05839000E-01
  1.25177000E-01  1.18520000E+04  1.77820000E+03  4.04860000E+02  1.14660000E+02
  1.33340000E+01  3.72790000E+01  1.33340000E+01  5.03850000E+00  1.01360000E+00
  3.02500000E-01  9.02780000E-02  3.44930000E+01  7.75620000E+00  2.28200000E+00
  7.16910000E-01  2.14610000E-01  6.42440000E-02  1.37401000E+00  2.28450000E-01
  1.18520000E+04  1.77820000E+03  4.04860000E+02  1.14660000E+02  1.33340000E+01
  3.72790000E+01  1.33340000E+01  5.03850000E+00  1.01360000E+00  3.02500000E-01
  9.02780000E-02  3.44930000E+01  7.75620000E+00  2.28200000E+00  7.16910000E-01
  2.14610000E-01  6.42440000E-02  1.37401000E+00  2.28450000E-01  1.87358400E+01
  2.82571200E+00  6.40137000E-01  1.75608000E-01  4.81740000E-02  6.05839000E-01
  1.25177000E-01  1.87358400E+01  2.82571200E+00  6.40137000E-01  1.75608000E-01
  4.81740000E-02  6.05839000E-01  1.25177000E-01  1.87358400E+01  2.82571200E+00
  6.40137000E-01  1.75608000E-01  4.81740000E-02  6.05839000E-01  1.25177000E-01
  1.87358400E+01  2.82571200E+00  6.40137000E-01  1.75608000E-01  4.81740000E-02
  6.05839000E-01  1.25177000E-01
Contraction coefficients                   R   N=         232
  2.26362740E-03  1.73766691E-02  8.85810663E-02  3.34916989E-01  7.49227380E-01
  4.89058686E-01  1.34849886E-01  5.11182216E-01  5.06672273E-01  1.61744167E-01
  5.00681748E-01  1.85607174E-02  1.16521571E-01  3.80385846E-01  6.42426708E-01
  9.25948446E-01  1.05230571E-01  3.43790816E-01  7.89056784E-01  2.26362740E-03
  1.73766691E-02  8.85810663E-02  3.34916989E-01  7.49227380E-01  4.89058686E-01
  1.34849886E-01  5.11182216E-01  5.06672273E-01  1.61744167E-01  5.00681748E-01
  1.85607174E-02  1.16521571E-01  3.80385846E-01  6.42426708E-01  9.25948446E-01
  1.05230571E-01  3.43790816E-01  7.89056784E-01  2.26362740E-03  1.73766691E-02
  8.85810663E-02  3.34916989E-01  7.49227380E-01  4.89058686E-01  1.34849886E-01
  5.11182216E-01  5.06672273E-01  1.61744167E-01  5.00681748E-01  1.85607174E-02
  1.16521571E-01  3.80385846E-01  6.42426708E-01  9.25948446E-01  1.05230571E-01
  3.43790816E-01  7.89056784E-01  2.26362740E-03  1.73766691E-02  8.85810663E-02
  3.34916989E-01  7.49227380E-01  4.89058686E-01  1.34849886E-01  5.11182216E-01
  5.06672273E-01  1.61744167E-01  5.00681748E-01  1.85607174E-02  1.16521571E-01
  3.80385846E-01  6.42426708E-01  9.25948446E-01  1.05230571E-01  3.43790816E-01
  7.89056784E-01  2.26362740E-03  1.73766691E-02  8.85810663E-02  3.34916989E-01
  7.49227380E-01  4.89058686E-01  1.34849886E-01  5.11182216E-01  5.06672273E-01
  1.61744167E-01  5.00681748E-01  1.85607174E-02  1.16521571E-01  3.80385846E-01
  6.42426708E-01  9.25948446E-01  1.05230571E-01  3.43790816E-01  7.89056784E-01
  2.26362740E-03  1.73766691E-02  8.85810663E-02  3.34916989E-01  7.49227380E-01
  4.89058686E-01  1.34849886E-01  5.11182216E-01  5.06672273E-01  1.61744167E-01
  5.00681748E-01  1.85607174E-02  1.16521571E-01  3.80385846E-01  6.42426708E-01
  9.25948446E-01  1.05230571E-01  3.43790816E-01  7.89056784E-01  2.28777817E-03
  1.76059450E-02  8.97206917E-02  3.39055356E-01  7.44522591E-01  4.93471575E-01
  1.43060213E-01  4.96278419E-01  9.88246542E-01  8.02516465E-03  1.31721057E-02
  2.57651181E-02  1.62851962E-01  3.55251732E-01  6.38239802E-01  9.34869210E-01
  9.38504545E-02  2.92752760E-01  8.45538853E-01  2.28777817E-03  1.76059450E-02
  8.97206917E-02  3.39055356E-01  7.44522591E-01  4.93471575E-01  1.43060213E-01
  4.96278419E-01  9.88246542E-01  8.02516465E-03  1.31721057E-02  2.57651181E-02
  1.62851962E-01  3.55251732E-01  6.38239802E-01  9.34869210E-01  9.38504545E-02
  2.92752760E-01  8.45538853E-01  2.90966555E-02  2.09264994E-01  8.36043900E-01
  8.81146894E-01  1.52516984E-01  1.14643488E-01  9.38523049E-01  2.90966555E-02
  2.09264994E-01  8.36043900E-01  8.81146894E-01  1.52516984E-01  1.14643488E-01
  9.38523049E-01  2.30589061E-03  1.77882990E-02  9.06873835E-02  3.42622403E-01
  7.40520298E-01  5.00852235E-01  1.46856961E-01  4.83494475E-01  4.99340042E-01
  1.29877306E-01  5.48846215E-01  2.03245889E-02  1.28155678E-01  3.94358849E-01
  6.23519234E-01  9.48976657E-01  7.58447981E-02  2.47638038E-01  9.00635960E-01
  2.30589061E-03  1.77882990E-02  9.06873835E-02  3.42622403E-01  7.40520298E-01
  5.00852235E-01  1.46856961E-01  4.83494475E-01  4.99340042E-01  1.29877306E-01
  5.48846215E-01  2.03245889E-02  1.28155678E-01  3.94358849E-01  6.23519234E-01
  9.48976657E-01  7.58447981E-02  2.47638038E-01  9.00635960E-01  2.90966555E-02
  2.09264994E-01  8.36043900E-01  8.81146894E-01  1.52516984E-01  1.14643488E-01
  9.38523049E-01  2.90966555E-02  2.09264994E-01  8.36043900E-01  8.81146894E-01
  1.52516984E-01  1.14643488E-01  9.38523049E-01  2.90966555E-02  2.09264994E-01
  8.36043900E-01  8.81146894E-01  1.52516984E-01  1.14643488E-01  9.38523049E-01
  2.90966555E-02  2.09264994E-01  8.36043900E-01  8.81146894E-01  1.52516984E-01
  1.14643488E-01  9.38523049E-01
Coordinates of each shell                  R   N=         234
 -1.34381938E+00  8.21720526E-04  2.61159356E-04 -1.34381938E+00  8.21720526E-04
  2.61159356E-04 -1.34381938E+00  8.21720526E-04  2.61159356E-04 -1.34381938E+00
  8.21720526E-04  2.61159356E-04 -1.34381938E+00  8.21720526E-04  2.61159356E-04
 -1.34381938E+00  8.21720526E-04  2.61159356E-04 -2.77911747E-02 -2.28696630E+00
  1.68493597E-03 -2.77911747E-02 -2.28696630E+00  1.68493597E-03 -2.77911747E-02
 -2.28696630E+00  1.68493597E-03 -2.77911747E-02 -2.28696630E+00  1.68493597E-03
 -2.77911747E-02 -2.28696630E+00  1.68493597E-03 -2.77911747E-02 -2.28696630E+00
  1.68493597E-03  2.56210006E+00 -2.29055533E+00  1.25731370E-03  2.56210006E+00
 -2.29055533E+00  1.25731370E-03  2.56210006E+00 -2.29055533E+00  1.25731370E-03
  2.56210006E+00 -2.29055533E+00  1.25731370E-03  2.56210006E+00 -2.29055533E+00
  1.25731370E-03  2.56210006E+00 -2.29055533E+00  1.25731370E-03  3.92838544E+00
 -7.33421153E-05 -2.28454201E-03  3.92838544E+00 -7.33421153E-05 -2.28454201E-03
  3.92838544E+00 -7.33421153E-05 -2.28454201E-03  3.92838544E+00 -7.33421153E-05
 -2.28454201E-03  3.92838544E+00 -7.33421153E-05 -2.28454201E-03  3.92838544E+00
 -7.33421153E-05 -2.28454201E-03  2.56326380E+00  2.29109135E+00  1.49030750E-03
  2.56326380E+00  2.29109135E+00  1.49030750E-03  2.56326380E+00  2.29109135E+00
  1.49030750E-03  2.56326380E+00  2.29109135E+00  1.49030750E-03  2.56326380E+00
  2.29109135E+00  1.49030750E-03  2.56326380E+00  2.29109135E+00  1.49030750E-03
 -2.68539917E-02  2.28817910E+00  2.75444839E-03 -2.68539917E-02  2.28817910E+00
  2.75444839E-03 -2.68539917E-02  2.28817910E+00  2.75444839E-03 -2.68539917E-02
  2.28817910E+00  2.75444839E-03 -2.68539917E-02  2.28817910E+00  2.75444839E-03
 -2.68539917E-02  2.28817910E+00  2.75444839E-03 -4.04632551E+00  6.02137296E-05
  5.71100436E-04 -4.04632551E+00  6.02137296E-05  5.71100436E-04 -4.04632551E+00
  6.02137296E-05  5.71100436E-04 -4.04632551E+00  6.02137296E-05  5.71100436E-04
 -4.04632551E+00  6.02137296E-05  5.71100436E-04 -4.04632551E+00  6.02137296E-05
  5.71100436E-04  6.47690702E+00 -8.15294836E-04 -6.93185161E-02  6.47690702E+00
 -8.15294836E-04 -6.93185161E-02  6.47690702E+00 -8.15294836E-04 -6.93185161E-02
  6.47690702E+00 -8.15294836E-04 -6.93185161E-02  6.47690702E+00 -8.15294836E-04
 -6.93185161E-02  6.47690702E+00 -8.15294836E-04 -6.93185161E-02  7.43836574E+00
 -1.61331354E+00  2.13064713E-01  7.43836574E+00 -1.61331354E+00  2.13064713E-01
  7.43836574E+00 -1.61331354E+00  2.13064713E-01  7.43923395E+00  1.61090973E+00
  2.14890460E-01  7.43923395E+00  1.61090973E+00  2.14890460E-01  7.43923395E+00
  1.61090973E+00  2.14890460E-01 -5.17845518E+00 -2.05880276E+00  1.31351438E-03
 -5.17845518E+00 -2.05880276E+00  1.31351438E-03 -5.17845518E+00 -2.05880276E+00
  1.31351438E-03 -5.17845518E+00 -2.05880276E+00  1.31351438E-03 -5.17845518E+00
 -2.05880276E+00  1.31351438E-03 -5.17845518E+00 -2.05880276E+00  1.31351438E-03
 -5.18075892E+00  2.05755682E+00 -9.43914809E-04 -5.18075892E+00  2.05755682E+00
 -9.43914809E-04 -5.18075892E+00  2.05755682E+00 -9.43914809E-04 -5.18075892E+00
  2.05755682E+00 -9.43914809E-04 -5.18075892E+00  2.05755682E+00 -9.43914809E-04
 -5.18075892E+00  2.05755682E+00 -9.43914809E-04 -1.05726844E+00 -4.04554698E+00
  5.28676577E-03 -1.05726844E+00 -4.04554698E+00  5.28676577E-03 -1.05726844E+00
 -4.04554698E+00  5.28676577E-03  3.58089886E+00 -4.06166211E+00  2.35423654E-03
  3.58089886E+00 -4.06166211E+00  2.35423654E-03  3.58089886E+00 -4.06166211E+00
  2.35423654E-03  3.58171468E+00  4.06237023E+00  3.17313237E-03  3.58171468E+00
  4.06237023E+00  3.17313237E-03  3.58171468E+00  4.06237023E+00  3.17313237E-03
 -1.05501107E+00  4.04751254E+00  8.52406840E-03 -1.05501107E+00  4.04751254E+00
  8.52406840E-03 -1.05501107E+00  4.04751254E+00  8.52406840E-03
Constraint Structure                       R   N=          48
 -1.34381938E+00  8.21720526E-04  2.61159356E-04 -2.77911747E-02 -2.28696630E+00
  1.68493597E-03  2.56210006E+00 -2.29055533E+00  1.25731370E-03  3.92838544E+00
 -7.33421153E-05 -2.28454201E-03  2.56326380E+00  2.29109135E+00  1.49030750E-03
 -2.68539917E-02  2.28817910E+00  2.75444839E-03 -4.04632551E+00  6.02137296E-05
  5.71100436E-04  6.47690702E+00 -8.15294836E-04 -6.93185161E-02  7.43836574E+00
 -1.61331354E+00  2.13064713E-01  7.43923395E+00  1.61090973E+00  2.14890460E-01
 -5.17845518E+00 -2.05880276E+00  1.31351438E-03 -5.18075892E+00  2.05755682E+00
 -9.43914809E-04 -1.05726844E+00 -4.04554698E+00  5.28676577E-03  3.58089886E+00
 -4.06166211E+00  2.35423654E-03  3.58171468E+00  4.06237023E+00  3.17313237E-03
 -1.05501107E+00  4.04751254E+00  8.52406840E-03
Num ILSW                                   I              100
ILSW                                       I   N=         100
           0           0           0           0           2           0
           0           0           0           0         402          -1
           0           0           0           0           0           0
           0           0           0           0           0           0
           1           0           0           0           0           0
           0           0      100000           0          -1           0
           0           0           0           0           0           0
           0           0           0           1           0           0
           0           0           1           0           0           0
           0           0           4          40           0           0
           0           0           5           0           0           0
           0           0           0           0           0           0
           0           0           0           0           0           0
           0           0           0           0           0           0
           0           0           0           0           0           0
           0           0           0           0           0           0
           0           0           0           0
Num RLSW                                   I               40
RLSW                                       R   N=          40
  8.00000000E-01  7.20000000E-01  1.00000000E+00  8.10000000E-01  2.00000000E-01
  0.00000000E+00  0.00000000E+00  1.00000000E+00  0.00000000E+00  0.00000000E+00
  0.00000000E+00  0.00000000E+00  1.00000000E+00  0.00000000E+00  0.00000000E+00
  0.00000000E+00  0.00000000E+00  1.00000000E+00  0.00000000E+00  0.00000000E+00
  0.00000000E+00  0.00000000E+00  1.00000000E+00  0.00000000E+00  0.00000000E+00
  0.00000000E+00  0.00000000E+00  1.00000000E+00  0.00000000E+00  0.00000000E+00
  0.00000000E+00  0.00000000E+00  0.00000000E+00  0.00000000E+00  0.00000000E+00
  0.00000000E+00  0.00000000E+00  0.00000000E+00  1.00000000E+00  1.00000000E+00
MxBond                                     I                3
NBond                                      I   N=          16
           3           3           3           3           3           3
           3           3           1           1           1           1
           1           1           1           1
IBond                                      I   N=          48
           2           6           7           1           3          13
           2           4          14           3           5           8
           4           6          15           1           5          16
           1          11          12           4           9          10
           8           0           0           8           0           0
           7           0           0           7           0           0
           2           0           0           3           0           0
           5           0           0           6           0           0
RBond                                      R   N=          48
  1.50000000E+00  1.50000000E+00  1.00000000E+00  1.50000000E+00  1.50000000E+00
  1.00000000E+00  1.50000000E+00  1.50000000E+00  1.00000000E+00  1.50000000E+00
  1.50000000E+00  1.50000000E+00  1.50000000E+00  1.50000000E+00  1.00000000E+00
  1.50000000E+00  1.50000000E+00  1.00000000E+00  1.00000000E+00  2.00000000E+00
  2.00000000E+00  1.50000000E+00  1.00000000E+00  1.00000000E+00  1.00000000E+00
  0.00000000E+00  0.00000000E+00  1.00000000E+00  0.00000000E+00  0.00000000E+00
  2.00000000E+00  0.00000000E+00  0.00000000E+00  2.00000000E+00  0.00000000E+00
  0.00000000E+00  1.00000000E+00  0.00000000E+00  0.00000000E+00  1.00000000E+00
  0.00000000E+00  0.00000000E+00  1.00000000E+00  0.00000000E+00  0.00000000E+00
  1.00000000E+00  0.00000000E+00  0.00000000E+00
Virial Ratio                               R      1.950927675070053E+00
SCF Energy                                 R     -4.902759740171650E+02
Total Energy                               R     -4.902759740171650E+02
RMS Density                                R      7.756088563783970E-09
External E-field                           R   N=          35
  0.00000000E+00  0.00000000E+00  0.00000000E+00  0.00000000E+00  0.00000000E+00
  0.00000000E+00  0.00000000E+00  0.00000000E+00  0.00000000E+00  0.00000000E+00
  0.00000000E+00  0.00000000E+00  0.00000000E+00  0.00000000E+00  0.00000000E+00
  0.00000000E+00  0.00000000E+00  0.00000000E+00  0.00000000E+00  0.00000000E+00
  0.00000000E+00  0.00000000E+00  0.00000000E+00  0.00000000E+00  0.00000000E+00
  0.00000000E+00  0.00000000E+00  0.00000000E+00  0.00000000E+00  0.00000000E+00
  0.00000000E+00  0.00000000E+00  0.00000000E+00  0.00000000E+00  0.00000000E+00
IOpCl                                      I                0
IROHF                                      I                0
Alpha Orbital Energies                     R   N=         170
 -1.90234545E+01 -1.90233826E+01 -1.44387112E+01 -1.42032993E+01 -1.01761098E+01
 -1.01541478E+01 -1.01261119E+01 -1.01260429E+01 -1.01139697E+01 -1.01139179E+01
 -1.20850141E+00 -1.02889706E+00 -9.41110451E-01 -8.71236605E-01 -7.94773183E-01
 -7.66530222E-01 -6.92828513E-01 -6.47068144E-01 -6.02903134E-01 -5.73954795E-01
 -5.64341887E-01 -5.62074093E-01 -5.52673696E-01 -5.23970169E-01 -4.75767853E-01
 -4.69216767E-01 -4.59762207E-01 -4.41211351E-01 -4.31381799E-01 -3.80307990E-01
 -3.61675794E-01 -3.51889360E-01 -3.51765844E-01 -3.29755959E-01 -2.97202444E-01
 -2.50438537E-01 -1.22544192E-01 -4.23922664E-02 -1.05791546E-02  5.35740361E-02
  6.40941738E-02  7.14060670E-02  9.80169251E-02  1.05933459E-01  1.14644931E-01
  1.27224823E-01  1.49373648E-01  1.56027550E-01  1.72420493E-01  1.85021729E-01
  1.99384020E-01  2.05171161E-01  2.06335624E-01  2.16775167E-01  2.23070015E-01
  2.39025403E-01  2.56804807E-01  2.64321494E-01  2.66830605E-01  2.77377156E-01
  2.81212548E-01  2.96804527E-01  3.09951497E-01  3.20251356E-01  3.25242744E-01
  3.36350335E-01  3.52075418E-01  3.74113220E-01  3.89644965E-01  3.91933621E-01
  3.98545238E-01  4.22596900E-01  4.38932500E-01  4.43187103E-01  4.72495021E-01
  4.76774206E-01  4.82542147E-01  5.06222051E-01  5.23341966E-01  5.43961541E-01
  5.45920319E-01  5.46149542E-01  5.47360172E-01  5.71940236E-01  5.72256148E-01
  6.10087466E-01  6.16123107E-01  6.17352186E-01  6.23065475E-01  6.30292779E-01
  6.36217239E-01  6.62335042E-01  6.71419096E-01  6.87963557E-01  6.89505308E-01
  7.08640352E-01  7.22171296E-01  7.28749252E-01  7.30976243E-01  7.34088660E-01
  7.53040948E-01  7.70480702E-01  7.71508495E-01  7.94411046E-01  8.15550631E-01
  8.19341810E-01  8.42522839E-01  8.60867160E-01  8.65483512E-01  8.94971285E-01
  9.07715045E-01  9.12821467E-01  9.24496124E-01  9.25885835E-01  9.70766582E-01
  1.01061971E+00  1.02886361E+00  1.05039488E+00  1.06878923E+00  1.11376078E+00
  1.13512823E+00  1.16946167E+00  1.17002474E+00  1.22523599E+00  1.24696630E+00
  1.25436151E+00  1.29692082E+00  1.30200151E+00  1.30444938E+00  1.32450172E+00
  1.34981099E+00  1.36161045E+00  1.37503819E+00  1.41477647E+00  1.41514092E+00
  1.47904274E+00  1.50763545E+00  1.55695782E+00  1.57458895E+00  1.60107162E+00
  1.67881427E+00  1.68416570E+00  1.68663417E+00  1.71691302E+00  1.75641987E+00
  1.75747993E+00  1.82707363E+00  1.84478213E+00  1.91644409E+00  1.92060782E+00
  1.95026914E+00  1.97914272E+00  1.97927793E+00  2.05268764E+00  2.21207427E+00
  2.25901200E+00  2.34653208E+00  2.40866787E+00  2.66871857E+00  2.72477221E+00
  1.06125683E+02  1.16721743E+02  1.17683561E+02  1.21571122E+02  1.22255340E+02
  1.25985862E+02  1.63619044E+02  1.68063679E+02  2.13408340E+02  2.16098120E+02
Alpha MO coefficients                      R   N=       28900
 -2.40430419E-05  9.20475941E-05 -9.42026795E-04  1.27132307E-04 -9.04739443E-05
 -4.97175122E-08  1.00952300E-02  8.61682362E-03  9.02697425E-06  2.28176961E-04
 -8.12155193E-07  6.30695264E-07 -5.69476669E-05  5.09955785E-04  1.53268279E-06
 -9.83752414E-06  1.81713724E-04 -6.23071729E-07 -3.74566231E-05  1.66453583E-06
 -1.02296626E-02 -8.00829014E-04 -6.85656867E-06 -2.09058114E-04  8.70502861E-07
 -1.17993228E-06  2.49648649E-04 -5.11711430E-04 -1.19693860E-05  4.31806542E-05
 -2.66921485E-04  1.79509901E-05 -5.91590197E-05 -2.53154691E-06 -8.35294278E-03
 -2.98210841E-03  4.51856033E-05  2.08661693E-05  1.45069774E-05  1.43681832E-05
 -2.19452624E-04 -3.75831394E-04 -5.06987053E-06  1.66519314E-05 -1.25398809E-04
  8.16272544E-05  1.16286763E-05 -5.00691072E-06  1.46198384E-03 -1.14014905E-02
 -9.63823284E-05 -2.76220671E-04 -9.26866972E-06 -5.32885217E-06  1.15321767E-04
  1.75096773E-04 -5.72271424E-06  2.19951677E-05 -1.56967767E-04  1.52042759E-04
  1.98586124E-05 -7.36543254E-07  1.10644943E-02 -4.87971872E-03  2.44764505E-05
  3.10374070E-04  7.68674661E-06 -9.15419978E-06 -3.13868566E-04 -3.14236371E-04
 -2.08568972E-05  7.79483640E-05 -7.72761212E-04  2.00956855E-04 -1.78400112E-05
 -2.98039146E-07  7.97948593E-03  6.31751659E-03 -2.55940492E-06 -2.99153279E-04
 -1.76101593E-06 -1.16024752E-06  1.35986520E-03  3.37046371E-05 -8.67854845E-06
  5.65134757E-05 -1.79107998E-05 -4.00764819E-06 -1.84563104E-04  3.44857436E-07
  6.02220219E-03 -1.04130269E-02  1.37495577E-06  1.08185480E-03 -3.70622560E-06
  3.64910347E-06  9.48718722E-04  4.76036456E-03  1.41967866E-06 -7.79078474E-06
  5.73548237E-05 -1.49032288E-05 -3.14447217E-05 -8.00885498E-06  1.34303195E-03
  1.70797311E-03  1.68221945E-04 -7.31159826E-05  4.26966313E-05  6.39164888E-05
 -2.14892531E-04  1.18106043E-05  8.56727981E-05 -3.78302767E-04  1.03571648E-04
 -4.87524910E-05 -1.71959013E-05 -1.72842909E-05 -1.98563209E-03  2.22305988E-04
  4.17568182E-04  8.28472591E-05 -1.08037536E-01 -2.52129710E-01 -9.25097069E-03
 -3.04068646E-04 -6.66655652E-04  2.34931447E-07 -6.30495511E-04 -1.25117168E-03
  1.49280964E-06 -3.21288965E-04  3.83500287E-07  3.35012500E-07 -1.36646831E-04
 -3.07609975E-05  2.81813590E-01  6.57903556E-01  2.25496227E-02  6.69525416E-04
 -1.48955689E-03  9.36935501E-07  1.92590687E-03 -4.10696581E-03  4.23842050E-06
 -5.32446984E-05  4.95238006E-07 -1.25084785E-07 -3.27964680E-04  1.64728002E-04
  2.67096298E-04 -3.74682542E-03 -6.45483427E-04 -4.13986912E-04  5.58530432E-06
  8.88327974E-06  7.74517546E-05  5.98797866E-04  2.77149592E-04  3.15747178E-06
  2.08535277E-04 -1.41778648E-03 -5.68247907E-04  7.30910861E-04 -5.28049523E-06
  5.71306331E-05 -2.28865706E-04  8.40088184E-04 -3.69672497E-04  3.48063823E-06
 -5.38781813E-05  2.06296860E-04 -2.11205090E-03  2.85295524E-04  3.98131579E-05
  2.85257567E-08  2.26344809E-02 -3.83342556E-03  9.45806233E-06  5.12108178E-04
  1.19146314E-06 -3.50647860E-06 -1.27572935E-04 -2.28059514E-04 -2.66647459E-05
  9.59930886E-05 -8.77301646E-04  2.69814970E-04 -9.24829323E-06  1.13397312E-06
  1.53037434E-03 -9.20163332E-03 -1.36117834E-05 -5.89933659E-04 -4.87953191E-07
 -1.85441588E-06  2.05578623E-03 -5.04534352E-04 -1.84375465E-05  6.83456277E-05
 -4.51797604E-04  2.21081502E-04 -7.98496439E-05 -3.37201740E-06  7.37335633E-03
  3.86451818E-03  7.82224120E-05  4.35532974E-04  2.13248797E-05  2.46126727E-05
 -6.18222728E-04  8.64854620E-05 -1.13661951E-05  3.73381186E-05 -2.81464908E-04
  1.83493183E-04 -5.23685955E-06 -1.11106913E-05  3.28537280E-03  5.07645329E-03
 -2.14676470E-04 -6.19131206E-04 -2.13786091E-05  2.33324512E-06  2.60418868E-04
 -7.80780480E-05 -2.12350584E-05  7.78330524E-05 -5.00775378E-04  1.61291399E-04
  9.73187526E-05 -4.20110757E-06 -1.27824186E-03 -3.71377322E-04  8.50977774E-05
  3.07062658E-04  2.57302416E-05 -2.69541653E-05 -5.77451745E-04  2.21774896E-04
 -1.66854493E-05  5.68501795E-05 -4.51590422E-04  1.80215743E-04  3.39905264E-05
  2.15304944E-06 -6.57583485E-03  6.75814250E-03 -6.19223035E-06 -5.50922819E-04
 -1.43152599E-08  9.51174610E-07  1.56008892E-03  7.16894102E-04 -1.94257444E-05
  1.26530953E-04 -3.88069208E-05 -9.20664719E-06  8.18060115E-05  3.30562151E-07
  1.34901613E-02  4.65092013E-03 -5.96251331E-06  2.42713528E-03  2.29200291E-07
  1.67274038E-06  2.14182940E-03 -2.11897903E-03  3.17961310E-06 -1.74486344E-05
  1.28456849E-04 -3.32786442E-05  1.40047539E-05 -1.80385999E-05  3.01225784E-03
 -7.61269072E-04  3.77035959E-04 -1.64447561E-04  9.52360091E-05 -2.78067166E-05
 -4.83140105E-04 -4.91145752E-06  5.34195724E-05 -3.00879951E-03  3.91390107E-04
 -6.05376021E-04  9.52917373E-05  9.92568232E-05 -2.29405367E-03  3.39273251E-04
  4.40751800E-04  5.13443058E-05  2.81806501E-01  6.57965884E-01  2.20036195E-02
  6.24463645E-04  1.40511595E-03 -5.06044876E-07  2.01716606E-03  4.39626662E-03
 -1.34468623E-06 -3.60622753E-04  8.48001296E-08 -8.78048339E-09 -5.64144704E-04
 -2.51896456E-04  1.08019135E-01  2.52292329E-01  7.82746076E-03  1.91689405E-04
 -4.43299546E-04  4.55028213E-07  8.82000075E-04 -2.00655409E-03  2.46835772E-06
 -4.80049825E-04  7.58039436E-08 -1.74480722E-06 -4.78664198E-04  1.90037418E-04
  3.15707986E-04 -3.66360128E-03  5.55416789E-04  1.27443175E-04  7.98870382E-06
  2.88592657E-04 -1.84370781E-03 -2.25683816E-04 -7.34418589E-04 -4.45750075E-06
  1.99393127E-04 -1.17291672E-03  2.95067905E-04  2.84307443E-04 -9.07744147E-07
  4.09857164E-04 -5.24145210E-03 -1.09511607E-04  2.24154900E-04  1.15767555E-05
  2.75879848E-06 -9.01897263E-06  4.66601673E-04 -1.56379995E-04 -2.55756354E-07
 -3.30043529E-08  1.33355513E-04  1.10215274E-05 -4.37885085E-06  3.15161829E-04
 -2.03196126E-06  2.14746037E-07 -3.26488762E-03 -2.67594557E-06 -8.74089340E-06
  4.75195321E-05 -7.44258859E-04  2.12622009E-04 -7.11097954E-05  4.36664796E-07
  8.55295915E-04  1.46300774E-03  8.91082050E-06 -4.14391688E-04  2.07447475E-07
  5.78210336E-07 -5.19980781E-04  1.22706222E-03 -1.10819124E-07  1.09276680E-07
  7.90008693E-06  4.02538885E-05 -6.02243201E-05 -2.24170424E-07  5.19270219E-04
 -1.54342012E-03 -9.14481240E-06  1.21193299E-04  3.04761873E-06 -4.60033861E-08
  2.25239564E-04  6.44978902E-04  9.22029405E-07 -3.77908978E-06  2.89122761E-05
  8.01959491E-07 -3.73724975E-08 -2.65344287E-06 -1.44693885E-03 -9.40453399E-06
  3.04227216E-06  5.68155948E-05 -3.64997567E-06 -4.43516614E-08  4.75595064E-04
 -2.29663583E-07 -1.03242177E-07  6.16641359E-08  8.99352451E-06  3.97450160E-05
  6.02404130E-05 -1.53285336E-07  5.35287597E-04  1.53364351E-03 -7.84464755E-06
  1.21309562E-04  2.62980935E-06 -1.74530246E-08  2.25364291E-04 -6.46243929E-04
 -8.73872670E-06  4.74872162E-05 -7.42824607E-04  2.12430599E-04  7.02822244E-05
  4.70375611E-07  8.76293233E-04 -1.45905384E-03  8.03411882E-06 -4.13992393E-04
 -1.20850310E-06 -1.39474112E-07 -5.25421676E-04 -1.22747003E-03  3.00246052E-01
  7.05975520E-01  1.49079581E-02 -8.01819208E-04 -5.07206803E-07 -8.42651815E-07
  1.76909697E-03 -7.98201884E-07  7.05901963E-08  9.87258415E-04 -9.62131316E-07
  5.68883590E-07 -1.10041457E-04 -4.89425495E-07 -7.82987550E-07  2.18563791E-06
 -2.73032365E-05  3.21446788E-05 -1.24148704E-08 -2.09740376E-06 -3.54776299E-04
  1.43906163E-06 -2.61278098E-05  1.82404887E-05 -2.16912097E-05  2.72609983E-08
 -4.84300418E-05  5.98716709E-08 -1.96944669E-06  2.38146777E-04  1.69565578E-05
  1.25207462E-04 -7.81020009E-06 -2.04496423E-06  2.36887651E-04  1.68248573E-05
 -1.24729586E-04 -7.77467683E-06 -2.02761751E-05 -6.21766379E-05  6.79185084E-04
  2.37342400E-05  7.08341505E-05 -5.15806066E-08 -9.43122418E-04 -1.01170079E-03
  2.10032218E-07  6.18598386E-04  7.24350117E-07  3.65662042E-07  5.06198675E-04
 -1.27243331E-03 -2.02820713E-05 -6.21604300E-05  6.79232137E-04  2.38273567E-05
 -7.04630151E-05 -1.35303372E-08 -9.44282928E-04  1.00925612E-03 -5.12227823E-07
  6.18641062E-04 -4.93860649E-07  1.54609279E-06  5.03572318E-04  1.27293133E-03
 -9.39233357E-05 -9.69275507E-04  5.82589457E-04 -1.72561622E-04  4.89512093E-07
  9.22779689E-05 -2.90548505E-04  2.25667945E-04 -2.77448954E-05  3.96727270E-06
  9.23052800E-05 -2.88534452E-04  2.24034399E-04  2.80530197E-05  3.89513614E-06
 -9.43883644E-05 -9.64957572E-04  5.79055813E-04  1.69678996E-04  1.45133626E-06
  7.89047547E-06 -3.62715509E-05  3.34258017E-04  2.89437967E-05 -1.89478829E-08
 -2.94669049E-07  6.26133387E-04  8.39145387E-06 -3.19168676E-05 -4.23974011E-05
  1.05108272E-05  1.64253518E-07  5.56605782E-04 -1.38211971E-07  6.92571367E-07
 -5.73224496E-07 -7.93268516E-05 -1.23936108E-04 -6.96345405E-05 -8.32020134E-06
  3.45641036E-04 -1.17882779E-03  1.65670396E-05  4.47157418E-04 -3.54953355E-06
  7.54622181E-06  2.28324385E-04 -8.20521978E-04 -6.29242917E-06  3.99202543E-05
 -9.58019368E-04 -3.91619219E-04  1.20660197E-05  1.00180128E-05 -8.67979358E-04
  1.80582317E-03 -9.74036032E-05 -1.20950668E-03 -6.38657935E-05 -3.82653177E-05
 -8.51987381E-04 -1.81764792E-03  6.91006364E-06 -1.33218919E-05  1.66020186E-03
  2.97994317E-05 -2.19288641E-08 -6.15696832E-06  5.04911300E-04 -7.19276218E-06
  3.26676038E-04  1.47283519E-03  1.11881707E-04 -5.60750974E-08 -5.49323033E-03
  3.49514440E-06 -6.29241581E-06  3.99161614E-05 -9.57809743E-04 -3.91485766E-04
 -1.18296239E-05  1.00657246E-05 -8.55810861E-04 -1.81169735E-03 -9.82549728E-05
 -1.20932705E-03 -6.32277574E-05  3.83379665E-05 -8.50855050E-04  1.81805216E-03
  6.85066380E-07 -5.34840678E-07 -7.99447437E-05 -1.23918036E-04  6.96826921E-05
 -8.20286140E-06  3.59920685E-04  1.18553334E-03  1.63219098E-05  4.46694008E-04
 -2.49446208E-06 -8.18627122E-06  2.28973502E-04  8.19709438E-04 -3.02934645E-07
  7.24302624E-06 -4.07866101E-05 -5.04854854E-05 -1.40115525E-09 -6.48885855E-07
  1.33546230E-04 -1.02654870E-06  1.80986435E-05 -3.26840454E-05  3.38351002E-06
  1.75179635E-07 -8.84717825E-05 -1.71776380E-07  3.00060985E-01  7.05983399E-01
  1.46759579E-02 -1.02725392E-03  7.65601863E-09  4.44866795E-04  2.03256214E-03
 -4.73932176E-07 -3.56130997E-04  8.69464137E-04 -2.34964408E-06 -1.25334888E-07
 -5.15944536E-04  1.26681429E-07 -1.01368145E-04 -1.48576543E-04  4.57928402E-04
 -6.56331450E-04  1.56631014E-04 -1.01448316E-04 -1.46794609E-04  4.57843954E-04
  6.55500239E-04  1.56891827E-04  2.52116008E-07 -6.96474300E-06  1.63062199E-05
 -8.65108025E-06 -3.21215188E-06 -1.77133311E-07 -6.05127566E-07  9.95078526E-06
 -1.52364058E-06 -1.20641447E-05 -4.17488559E-07 -1.70660658E-06  1.89279798E-05
 -2.90124333E-05  2.53071182E-07 -6.98137021E-06  1.65210459E-05 -8.61619802E-06
  3.20471245E-06 -1.85972262E-07 -8.27059626E-07 -1.02071592E-05 -1.71809693E-06
 -1.20986933E-05 -4.87661051E-07  1.73064127E-06  1.88161790E-05  2.91133135E-05
  4.71860834E-05  7.50623201E-04 -1.86915634E-04  4.51040468E-05 -1.00207798E-05
 -3.68876041E-04 -1.40304102E-03 -5.19351871E-04  1.48250285E-04 -1.11023846E-05
 -3.68571135E-04 -1.40420422E-03 -5.21492036E-04 -1.46222530E-04 -1.07062949E-05
  4.70287308E-05  7.50368919E-04 -1.88561560E-04 -4.60193934E-05 -9.81537658E-06
 -3.29488705E-04 -5.53919027E-04 -1.74439578E-03 -1.68878884E-04  1.84505463E-07
  2.66920883E-06  5.92605631E-03 -8.02529177E-06  2.87388620E-06  7.54272905E-04
  1.06187563E-06 -1.56471577E-06  1.92567132E-03  1.35635501E-07 -1.28635253E-04
 -1.19648990E-04 -1.69231311E-03 -2.65007582E-04 -1.04089150E-04  7.28526792E-06
 -7.18244014E-03 -9.19073212E-03  8.02874278E-05 -2.01372131E-03  4.01092784E-05
 -2.65729892E-05  1.08177943E-03 -2.10085773E-03  9.84345445E-04  2.66633793E-03
 -2.12509896E-03  7.45380451E-05 -3.25443509E-04 -1.79051602E-07 -8.38002418E-03
  6.10795224E-03  1.45754865E-04  5.50593082E-04  1.25456910E-04  2.05568525E-04
  1.48518738E-03 -3.35291612E-03  2.99499728E-01  7.06812796E-01  3.04820799E-02
  7.16662945E-04 -3.18341971E-07 -4.87015863E-05  6.84233690E-03  2.99012838E-06
 -4.61270446E-04 -1.81011664E-03  2.40632602E-04 -7.28932777E-07 -1.80540805E-03
  7.27968153E-07  9.84683280E-04  2.66711649E-03 -2.12452362E-03  7.45384608E-05
  3.25641870E-04 -2.60061670E-07 -8.38737141E-03 -6.10019498E-03  1.45663442E-04
  5.50009186E-04  1.26541126E-04 -2.07003043E-04  1.48745131E-03  3.35181887E-03
 -1.28722150E-04 -1.19868284E-04 -1.69173460E-03 -2.65168726E-04  1.04205159E-04
  7.67237466E-06 -7.18571550E-03  9.18719684E-03  8.90495504E-05 -2.01253843E-03
  3.94361284E-05  2.70471977E-05  1.08225443E-03  2.10044845E-03  5.24239622E-07
 -7.18900741E-06  5.22215337E-05  8.09731426E-05 -1.80732109E-07 -1.22581820E-06
 -5.77746169E-04  3.01652044E-06  6.47480186E-06  2.12634776E-04  4.47483214E-06
 -7.46935489E-07  1.89020253E-04  5.55026551E-07 -3.42904715E-05 -1.83070720E-04
  5.73002850E-04 -7.04600423E-05  4.95666912E-08 -9.99442884E-05  6.98195037E-03
 -4.13683741E-06  1.04305828E-03 -5.68626083E-04  6.12259598E-04  2.45502557E-06
 -2.50560552E-03  1.02892530E-06  6.08513908E-05 -6.69419167E-03  4.88330200E-04
 -4.12852374E-04 -1.28045665E-04  6.08222254E-05 -6.69180605E-03  4.88550766E-04
  4.11424968E-04 -1.28845950E-04  6.50359919E-07  1.85876832E-05 -4.25497130E-05
  6.20760367E-05 -6.47401976E-06  1.31565155E-07 -4.23820100E-05  1.13301830E-04
 -5.74122820E-07  9.99745722E-06 -4.33306838E-08  3.03519537E-07 -2.15064711E-05
  1.78585120E-04  6.49317756E-07  1.86256280E-05 -4.31627883E-05  6.20170184E-05
  6.54491427E-06  2.11605731E-07 -4.18410526E-05 -1.12475755E-04  1.41210526E-07
  1.02694896E-05  2.91778356E-07 -6.26613608E-07 -2.10531039E-05 -1.79298827E-04
  5.03294804E-04 -7.94444687E-03 -5.98217431E-04 -1.12129217E-03  8.56654596E-06
 -1.01336301E-04  2.87997213E-03 -1.35674848E-03  9.39392093E-05  1.30146735E-04
 -1.00985232E-04  2.87923257E-03 -1.35559650E-03 -9.36308845E-05  1.29614555E-04
  5.03452307E-04 -7.94266964E-03 -5.96250118E-04  1.12205609E-03  1.03190868E-05
  2.99454598E-01  7.06689581E-01  3.13544281E-02 -6.15867170E-04 -6.10014772E-07
  1.91508111E-06  2.56317413E-03 -4.81621597E-05  4.17128512E-05 -8.18428067E-04
 -1.30074182E-06  2.17738081E-06 -3.16597931E-03  3.57400893E-06  2.55634944E-03
  6.35898819E-03 -1.88787550E-03  1.00111531E-05 -3.02916689E-04  3.47928622E-06
  9.97821792E-03  2.27686903E-03 -5.00979086E-05  1.56192121E-04 -9.59918701E-06
 -3.83431809E-06  2.00678263E-03  4.10568729E-03 -1.81337949E-04 -1.92016573E-04
 -2.10781736E-03  3.78375128E-04 -1.87793374E-04 -7.00416561E-06  8.76576325E-03
 -5.72621959E-03  1.64012191E-04 -1.74384901E-03  3.26510449E-05  3.92990823E-05
  7.74198740E-04  2.69939541E-03  2.89573840E-04  9.05749275E-04 -1.64614815E-03
  4.44331985E-04  4.96572563E-08 -2.50757893E-05  3.05693266E-03  4.27802745E-05
 -3.82844923E-04 -1.93025034E-04 -4.26876920E-05  7.80307205E-07  3.08189360E-03
 -1.88497187E-06 -1.81379201E-04 -1.92140216E-04 -2.10682355E-03  3.78768858E-04
  1.87567835E-04 -6.95491579E-06  8.68895492E-03  5.76259388E-03  1.63861888E-04
 -1.74263205E-03  3.10060564E-05 -3.74399484E-05  7.69781131E-04 -2.69831676E-03
  2.55933221E-03  6.36605024E-03 -1.88757688E-03  1.07519001E-05  3.03040970E-04
  3.60109771E-06  9.89817358E-03 -2.32032143E-03 -5.31803062E-05  1.55863733E-04
 -1.28939880E-05  5.02888029E-06  2.00574591E-03 -4.10408284E-03 -2.26224986E-05
 -8.96007919E-05  2.02120778E-04  1.82483306E-04 -2.32262990E-07  6.29292823E-07
 -5.23077407E-04  7.28933750E-06 -1.31367681E-05  5.08082862E-04 -1.82948477E-06
 -1.75718990E-06 -1.91283901E-03  1.31977912E-06  2.05438077E-06 -3.89914426E-05
  2.68490971E-04 -2.34442977E-05  2.77033178E-08 -3.17440355E-05  6.31108624E-03
 -6.16306196E-06  7.59122292E-04 -2.42178709E-04  1.94606507E-04  8.85377381E-07
 -7.83403418E-04  2.82723945E-07  2.58729196E-04 -5.82184352E-03  8.84619236E-04
 -1.19891059E-03  1.77974710E-04  2.59044492E-04 -5.81944958E-03  8.86311864E-04
  1.19657143E-03  1.79041235E-04  1.58632651E-06  8.59753321E-05 -6.39794203E-04
 -1.17441309E-04 -1.20262055E-04 -8.50663042E-08  1.57327188E-04  8.58993302E-04
  1.11419026E-06 -5.50791484E-04  3.59633809E-07  7.47805796E-07  7.20302813E-05
  5.88366832E-05  1.58737923E-06  8.60467723E-05 -6.40395840E-04 -1.17654677E-04
  1.20176240E-04 -3.46891311E-07  1.55659489E-04 -8.60698341E-04  3.62579827E-06
 -5.50827309E-04  9.55328815E-07 -1.50147908E-06  7.12467317E-05 -5.94689311E-05
 -6.15263783E-05  7.26059111E-04  1.10303365E-03  1.94298814E-04  9.40295272E-06
  5.41152345E-04 -6.51384170E-03  1.57715246E-04 -1.41065481E-03 -1.02496604E-05
  5.40987727E-04 -6.51131816E-03  1.64661552E-04  1.40655879E-03 -9.65315285E-06
 -6.11598251E-05  7.28093422E-04  1.10941163E-03 -1.91723988E-04  7.20372102E-06
 -1.30006231E-03 -2.88955426E-03 -1.16572440E-03 -9.07568320E-05 -3.93786546E-04
 -8.52405136E-07  3.17837354E-03 -5.58072986E-03  2.88125337E-05  6.32899697E-04
  1.80729456E-06 -8.75021724E-06  1.68219284E-03 -4.79483279E-03 -1.26062717E-01
 -2.97396215E-01 -1.44614418E-02 -2.16725446E-04 -8.09163846E-04  4.61568528E-06
 -6.11205577E-03 -5.61047982E-03 -1.52061809E-05 -1.39968842E-03  8.58820363E-06
 -2.19523573E-06  5.08685047E-04  1.88361841E-04 -3.78413162E-03 -8.83090232E-03
 -1.44249814E-03 -4.39510790E-05 -2.33731097E-04 -7.01204976E-06 -8.19379713E-03
 -7.50145164E-03  5.98972179E-05 -8.51474197E-05  3.31959485E-05  2.34660338E-05
  1.06615869E-03 -1.42620135E-03  3.15967420E-05  1.69164518E-04 -8.04013507E-04
  1.53287920E-04 -2.26623316E-04 -4.09492444E-06  7.35110883E-03 -1.29443300E-02
 -1.81955801E-04 -1.04618029E-03 -1.21666676E-05 -4.48857147E-05 -9.14526818E-04
  1.10443182E-03  7.02187236E-03  1.68191613E-02 -7.84470438E-04  3.53816238E-04
 -6.94725344E-05  2.54104783E-06  8.88934926E-03 -1.59147030E-02  1.20610163E-04
  5.31589063E-04 -9.00834200E-06 -1.23767334E-05 -3.65393506E-03  1.72524194E-04
  2.71502802E-01  6.40834577E-01  2.81577265E-02  3.62138162E-04 -1.23181237E-03
 -3.44625331E-06  5.91128738E-03  1.47540787E-03 -7.08519237E-05 -2.64390858E-04
 -1.56568746E-05  7.60783432E-06  1.23602349E-03  2.93335069E-03 -7.59494187E-07
  2.10229804E-05 -1.85993679E-04 -4.93254202E-05 -1.70023899E-04  6.31391314E-07
  2.61267628E-04 -1.26123656E-03 -8.54422033E-06 -3.95699281E-04  4.17534645E-07
  3.67367036E-06  1.47589771E-04 -7.08198949E-04  3.46951240E-07 -8.61624604E-06
  8.88049579E-05 -7.42041489E-05 -6.24061346E-05 -1.00677185E-05  3.48548424E-03
  2.71741345E-03  4.01511979E-04 -1.76228105E-04  1.31750275E-04  1.53899964E-04
 -1.90243627E-04  3.82120287E-04  1.85665001E-04 -9.69630426E-04  4.84146456E-04
  1.46181168E-04  2.72172886E-05  2.96093645E-05 -5.31506658E-03  2.58335001E-04
  1.82784130E-03  1.71950214E-04 -1.26775340E-07 -6.39528150E-06  7.35796520E-05
  6.06543464E-05 -8.32813122E-06  1.39241872E-07 -5.76254781E-04  1.41536335E-05
  2.90367537E-06  2.64618547E-04  1.05675073E-07  2.05860240E-06 -2.27011660E-04
  6.97256727E-05  6.24267402E-07  4.10239583E-05 -3.25087711E-04 -6.56383208E-05
  8.99329096E-05 -1.55653055E-07  7.28879301E-04 -3.71886235E-04  1.28502162E-07
 -2.56956370E-04  1.60791441E-07 -4.33003643E-07  2.88205848E-04 -1.43402590E-04
  2.04711579E-04 -7.13900360E-03 -1.21552361E-03 -1.44357558E-03  1.58626249E-05
  4.54638716E-04 -5.80852416E-03  1.22269504E-03 -1.32159252E-03  1.06513714E-05
 -3.53455354E-04  5.12510589E-03 -1.07368489E-03 -1.24545704E-03 -4.27014415E-05
  2.60532315E-04  4.14018527E-03  4.47539015E-04 -1.79996209E-03 -2.25197789E-06
 -3.54729307E-03 -7.88347682E-03 -3.18532931E-03 -2.48450848E-04  1.44364187E-04
 -1.59937028E-06  8.69075217E-03  2.00493257E-03  8.03799091E-05  1.73043168E-03
  6.91119016E-06  1.07011941E-06  4.60432458E-03  1.75246095E-03  2.71489878E-01
  6.40984880E-01  2.65189335E-02  3.05821834E-04  9.51410572E-04  1.74855552E-06
  1.95603962E-03 -8.95222564E-03 -1.21276099E-04 -2.06684727E-03 -1.49713335E-05
 -1.51985780E-05  2.51293754E-03 -4.32411250E-03  6.43248731E-03  1.56824832E-02
 -2.92160664E-03  4.96296001E-04 -1.68864576E-04 -3.92733804E-06  4.10914725E-03
  1.57985887E-02  2.64021285E-04  7.22833175E-04  2.25638671E-05  4.66196958E-05
 -4.40061316E-03 -1.95154876E-03  8.60497848E-05  4.61730059E-04 -2.19761957E-03
  4.18932326E-04  8.25395433E-05 -1.12166385E-05  2.01150243E-02  4.76718478E-03
 -4.94827450E-04 -2.85885496E-03 -3.12666425E-05  1.57480599E-05 -2.50421617E-03
 -4.02689097E-04  2.45833459E-03  6.24927144E-03 -3.16360836E-03  3.51005054E-04
  2.79814625E-04 -7.81514505E-06 -2.20843820E-03 -7.19434525E-03  2.37120647E-04
  4.96728946E-04  4.18824088E-05 -5.18192689E-05 -2.67397238E-03  2.41408524E-03
  1.26036546E-01  2.97723698E-01  1.09237331E-02  9.33814343E-05 -2.04555200E-04
  4.20848411E-06 -2.49849446E-03  1.04301475E-02 -9.32022653E-05 -2.48214188E-03
 -4.44478625E-06  1.50737451E-05  2.25010585E-03  3.18172608E-03 -2.07811265E-06
  5.75031149E-05 -5.08777537E-04 -1.35949038E-04  6.17863382E-05  1.34584981E-06
  7.15271169E-04  4.65135693E-04 -2.18461409E-05 -1.08196753E-03 -9.23749637E-07
 -1.13662973E-06  3.98684625E-04  2.59446480E-04  9.52573920E-07 -2.36238674E-05
  2.43221211E-04 -2.03052088E-04  2.29198357E-05 -2.75361910E-05  9.52678040E-03
 -1.00324678E-03  1.09274891E-03 -4.82534601E-04  3.59011609E-04 -5.48931758E-05
 -5.19535243E-04 -1.39931046E-04  2.65779036E-04 -9.38849229E-03  9.71366716E-04
 -2.66224276E-03  2.97100742E-04  3.23139547E-04 -7.79290592E-03  1.05597391E-03
  1.93660118E-03  2.45672098E-04  8.18594990E-07  5.59822359E-05 -4.16500426E-04
 -2.99013525E-05 -1.49175928E-04  9.83560558E-08  4.47385697E-04  5.93442000E-04
  2.57444140E-06 -8.53927932E-05 -3.20088038E-07  3.00771094E-06  1.76839769E-04
  3.03822724E-04  5.41816529E-07  3.86736516E-05 -2.71276727E-04  1.61691148E-05
  1.19231394E-04  8.74286911E-08 -2.95771774E-05 -4.61004751E-04  2.80651874E-06
  1.05748733E-04 -5.24340589E-08 -3.23790069E-06 -1.08195658E-05 -2.77717367E-04
  6.46755660E-04 -2.03926359E-03 -7.47315386E-04  1.08105068E-03  1.89882270E-05
 -8.99337737E-06  1.06710997E-03 -2.19288837E-04  3.65038575E-04 -5.20148382E-05
  2.86314009E-04 -2.93473213E-03  6.27667171E-04  5.71003201E-04 -3.32336493E-05
  6.26457502E-04 -6.16535838E-03 -1.34934660E-03  1.09459405E-04  2.44603640E-05
  4.84270389E-05  1.70256404E-04 -5.02766728E-04 -3.16300378E-05 -2.43496532E-04
  2.35990581E-08 -1.20705264E-03 -8.14607707E-03  2.24467920E-06 -3.11800210E-04
 -3.30386690E-06  5.60403944E-06 -8.04986954E-04 -7.98432423E-04  4.88687254E-03
  1.15366558E-02  1.86239216E-04  1.85541381E-04 -1.47462126E-04  2.18312875E-06
  5.17610568E-03 -8.46363596E-03 -1.57516586E-05 -2.54377377E-04 -1.19528667E-05
  6.20382001E-06  1.90116911E-03  1.02731160E-03 -1.71565406E-01 -4.04817214E-01
 -1.87843716E-02  3.15525930E-04 -9.29989481E-04 -4.86115198E-06  3.02046760E-03
 -5.08022866E-03  2.78043436E-05 -8.67404314E-04 -5.65499598E-06 -1.16809578E-05
 -1.96847447E-04 -9.45768961E-04 -2.71542660E-04 -5.50395631E-04 -5.75776260E-04
  8.07802949E-05 -4.16326179E-04 -3.43838644E-06 -6.49263246E-04 -1.01828366E-02
 -1.01156944E-04  1.75006261E-04 -1.57530844E-05 -8.54558974E-05  1.07762096E-03
  4.71852255E-03  2.45306070E-01  5.78955414E-01  2.56498881E-02 -3.69885432E-04
 -1.08647937E-03  8.20998948E-07 -2.24412013E-03 -2.28817327E-03  3.20577106E-05
  1.52672038E-04  3.47540871E-05 -3.68650009E-05  1.07451882E-03 -2.51746687E-03
 -6.56334926E-03 -1.53245969E-02 -1.63517369E-03 -3.07308379E-04 -5.60413130E-05
  7.70436542E-07 -5.22284966E-03 -1.06575898E-02  1.20777318E-05  2.93561094E-04
  1.65026400E-05  1.02194531E-05 -3.13856973E-03 -1.26361567E-04  1.98430105E-07
 -3.60327680E-06  3.00192429E-05  3.51596376E-05 -3.40204998E-05 -4.19377796E-08
 -1.74763774E-04  9.96526624E-04 -2.61280726E-06  6.54533952E-05 -8.32180365E-07
 -1.50039703E-06  1.33878906E-04  1.55823898E-04 -3.07158131E-08  4.90551698E-06
 -5.99732392E-05  4.52317095E-05 -2.24223918E-04 -1.05555695E-05  4.30978104E-04
  3.00482406E-05  1.21070982E-04 -2.65040193E-04  3.33392592E-06  9.91425563E-05
 -1.48563285E-04  1.42774406E-04 -1.76767005E-05 -3.36931943E-04  4.60769778E-04
 -3.70148407E-04  6.48561986E-05  4.65877828E-05 -1.19229131E-03 -1.99843980E-04
 -3.84981147E-04 -2.15314197E-05  5.49987505E-07  9.52789412E-06  2.03886973E-05
  1.52461781E-05 -5.13106069E-05  1.72964868E-07 -3.78018563E-05  3.01116325E-04
 -1.39678077E-06 -1.68119104E-05 -3.03884520E-07  3.65627051E-07  1.95847502E-05
  1.00446943E-04 -9.83516713E-08  4.36032305E-06 -4.81566483E-05  3.14805025E-06
 -6.78876715E-05 -1.75383954E-07  5.34862378E-05  4.05464363E-04  1.61957824E-06
  5.79146516E-05  7.76389446E-07  3.43643398E-07 -2.29418936E-05  6.03253129E-05
  4.38222286E-04 -5.87040444E-03 -9.35845411E-04 -1.34097380E-03  1.03952595E-05
  1.26043684E-04 -6.36332376E-03  1.14331629E-03 -1.48446980E-03 -1.62838136E-05
  1.45406423E-04  5.05706131E-03 -8.40707192E-04 -1.52247080E-03  2.43675421E-05
 -3.68402996E-04  4.14813834E-03  5.16734528E-04 -1.35722884E-03 -7.44560971E-06
  2.74227829E-04  9.63601708E-04 -2.84417756E-03 -1.78644884E-04  4.29870457E-05
  4.70447184E-07 -6.82211511E-03  1.40157360E-03  1.92810109E-05 -1.76426893E-03
 -1.39890113E-05  2.10500146E-06 -4.54773929E-03  1.43408135E-04 -5.81431740E-03
 -1.32308878E-02 -4.26636799E-03 -3.88948773E-04 -2.39921520E-04  8.57494549E-06
 -1.00250452E-03  7.89236674E-03  5.40025466E-06  1.60057055E-04  1.20162792E-05
 -7.23003036E-06 -3.94505699E-03  3.19062242E-03  2.45296492E-01  5.79207188E-01
  2.33409537E-02 -2.13034134E-04  6.21329565E-04 -1.16783109E-05  1.76698215E-03
 -7.24180038E-03  1.63631027E-04 -1.93142689E-03  8.91030461E-05  7.46545015E-05
  2.60196723E-03  4.75517702E-03 -1.53367517E-03 -3.10811102E-03 -3.25531327E-03
  4.57982067E-04  7.35213976E-05 -1.95415168E-05 -3.67359892E-03  1.84177274E-03
 -5.66021741E-04  9.93008393E-04 -9.34500971E-05  1.53628807E-05  6.08540615E-03
 -8.37991182E-04  1.71552817E-01  4.05179938E-01  1.54792960E-02 -9.18371250E-05
 -2.64834040E-04 -1.22524013E-05  2.63283737E-03  8.57495371E-03  1.61993310E-04
 -2.11240917E-03  8.07220567E-05 -6.48977335E-05  2.37082178E-03 -4.14207011E-03
 -3.77435121E-03 -8.44520061E-03 -3.94038419E-03 -3.01248742E-04  2.76016249E-04
  9.38906635E-06  7.71263280E-04 -4.54155304E-03  1.49000992E-06  6.38545484E-05
  7.80821990E-06  9.82402306E-06 -3.05622225E-03 -3.34471299E-03  1.11203432E-06
 -2.02132844E-05  1.68704199E-04  1.98740499E-04  6.03331331E-06 -1.03274614E-07
 -9.89359132E-04 -1.70720340E-04 -1.35577462E-05  3.69512829E-04 -2.37516887E-06
 -1.07817038E-06  7.57636135E-04 -2.55038830E-05 -1.73635249E-07  2.77335638E-05
 -3.39206249E-04  2.56501597E-04  3.95793025E-05 -5.91751352E-05  2.43172341E-03
 -1.13752457E-05  6.84322579E-04 -1.49814890E-03  1.62699055E-05 -1.63573396E-05
 -8.40308019E-04 -2.51670183E-05  8.73182758E-05 -4.39602970E-03  6.78909283E-04
  1.08398435E-04  1.15385586E-04  7.65081686E-05 -4.23986602E-03  7.96471709E-04
  2.26833624E-05  1.30945541E-04  1.21842401E-06  3.87005323E-05 -8.35515399E-05
  5.09908945E-05  5.73321938E-05  2.23445281E-08  5.28680303E-05 -3.57800151E-04
  8.19317332E-07  1.23158482E-04  7.72245268E-07  1.19764429E-06 -1.36534530E-05
  1.00487731E-04  1.33240056E-06  3.96582210E-05 -7.21302185E-05  5.31474386E-05
 -3.61815347E-05  1.99010810E-07  3.63809063E-05  2.33532793E-04  1.60055371E-06
  1.10487899E-04  1.12459926E-06 -1.61565844E-06 -6.41648352E-06 -1.29496798E-04
  1.26435813E-04 -3.97855094E-03 -1.05495108E-03  2.84665663E-04  1.32932633E-05
  7.69954135E-04 -2.68522717E-03  6.78000968E-04  3.71391441E-04  2.78539982E-05
  7.66184004E-04 -4.70523927E-03  1.03505548E-03  1.56286302E-04  2.12869513E-05
  2.69410830E-04 -5.75139075E-03 -1.30654203E-03  1.96090110E-04  1.60232770E-05
 -8.12992762E-03 -2.71799680E-02  7.28111834E-02 -6.42966596E-02 -1.08159065E-05
 -2.68839905E-05  3.06542385E-01 -1.57733941E-03  9.36343071E-04  1.19247236E-02
 -1.13911993E-05  7.23844137E-05  1.22276131E-01  3.85551939E-05 -7.96967620E-04
 -2.53890530E-03  1.68658796E-02 -1.65356159E-02  1.04432565E-02  4.62274852E-05
  2.73624590E-02 -1.03438016E-01 -1.27767224E-03  2.94918836E-04 -7.26580219E-05
 -2.32641474E-06  4.21164121E-02 -6.47660861E-02  4.15832136E-04  2.25316513E-03
 -1.58264113E-02  1.06886103E-03 -4.69918493E-04 -1.18763882E-04  9.78237190E-02
  7.44832208E-02  3.34841832E-03 -5.50614558E-03  6.39524165E-04  7.31359646E-04
 -8.76505818E-03 -2.21887971E-02  5.21666803E-04  2.33729070E-03 -1.13584037E-02
  1.73701298E-03  3.21743564E-07 -2.94644777E-04  1.81294610E-01  1.61264558E-03
 -7.59429246E-03 -1.73418746E-02 -8.50887383E-04 -9.45676110E-06  1.35693987E-03
 -2.27406212E-05  4.16046165E-04  2.25418223E-03 -1.58295012E-02  1.08168527E-03
  4.70259771E-04 -1.15326323E-04  9.49034736E-02 -7.29133295E-02  3.33019495E-03
 -5.49139608E-03  6.65988457E-04 -7.65376160E-04 -8.77391441E-03  2.22310670E-02
 -7.93899797E-04 -2.52817305E-03  1.67868515E-02 -1.65296445E-02 -1.04143930E-02
  1.91160914E-05  2.44026869E-02  1.02009736E-01 -1.32289609E-03  2.67297016E-04
 -6.70335146E-05  1.08693981E-05  4.22229376E-02  6.47824578E-02 -5.31091627E-02
 -1.85412387E-01  3.38748522E-01 -1.10639113E-01 -4.45949449E-05 -3.18256269E-05
  1.69216918E-01  1.32917847E-04 -2.80593553E-04 -1.02846259E-01 -3.61594985E-05
 -1.51992921E-04 -1.20048633E-01 -1.59588759E-04  1.18334507E-04  6.68778156E-05
  4.05786791E-03 -8.15773507E-04  1.83215021E-06 -4.94207205E-04  1.17543436E-01
 -2.34942239E-04  1.55722931E-02 -7.63250894E-03  3.98969554E-03  1.68754321E-05
 -8.56539487E-03 -3.18858939E-06  3.95530263E-03 -1.13746996E-01  1.59134542E-02
 -2.47736630E-02  3.10495890E-03  3.96524703E-03 -1.13574492E-01  1.59399526E-02
  2.46937544E-02  3.11109268E-03 -3.13583942E-02 -1.10180769E-01  4.52063077E-01
  5.53546801E-02  1.24095409E-01 -4.96547006E-05  4.83912243E-02  1.59020109E-01
 -2.85886643E-05 -2.80035825E-02 -1.89607986E-05 -4.86120063E-06 -4.83982109E-02
  4.17386717E-02 -3.13634563E-02 -1.10197759E-01  4.52125840E-01  5.55151501E-02
 -1.24041248E-01  8.44019862E-05  4.85634547E-02 -1.59128758E-01  1.52677781E-04
 -2.80056764E-02  3.77151564E-05 -8.31255796E-05 -4.83224589E-02 -4.19168567E-02
  1.33737235E-02  2.81964247E-02  2.52589141E-02  8.44540096E-03  3.03767080E-04
  5.15716943E-03 -7.48471402E-02 -5.79024429E-03 -1.96191646E-02 -2.95061943E-04
  5.15668436E-03 -7.48112953E-02 -5.54432507E-03  1.94844373E-02 -2.77867526E-04
  1.33597458E-02  2.81057234E-02  2.53926382E-02 -8.27614760E-03  2.74755252E-04
 -1.00198476E-05 -3.58933877E-05  1.58392693E-04 -2.67204917E-05 -5.26392518E-02
  2.76969329E-05 -1.16631402E-04  8.80301088E-01  1.75234114E-04 -3.42877440E-05
  5.31761415E-05  1.03230591E-04  1.81625375E-05 -1.04154663E-02 -1.64564449E-03
 -4.94421532E-03 -1.24107025E-03 -1.13612364E-02  6.53283156E-03  1.31109518E-05
 -6.54368127E-01  6.04519120E-01 -4.16472643E-04  1.62764762E-02  9.15118356E-06
  2.01054218E-04  3.49659340E-02  4.56388425E-04 -2.78933809E-04 -1.22901149E-03
  7.01890381E-03  2.07450997E-05 -8.37690903E-04 -2.73580307E-05 -5.96699441E-01
 -4.51749608E-01  7.94209910E-04 -4.01354114E-03  3.53585600E-04  3.29110467E-04
  1.14726982E-02  1.02944449E-02  2.43865630E-07  1.65763239E-06 -1.18956329E-05
 -1.22499319E-08  5.65316169E-04 -2.23523648E-06 -5.38756281E-05 -7.03147741E-01
  4.18282653E-05  5.60237753E-07 -9.28302945E-06  1.14965853E-04  1.37536647E-05
  1.73165132E-02  2.78370590E-04  1.22846056E-03 -7.04468783E-03 -2.13212940E-05
 -8.36881774E-04  2.73275681E-05  5.96658909E-01 -4.51905877E-01 -1.16253979E-03
  3.97219186E-03 -3.13653228E-04  3.16119518E-04 -1.14813886E-02  1.02964427E-02
  1.63719314E-03  4.91622586E-03  1.32876252E-03  1.13055531E-02  6.49907669E-03
  1.57671498E-06  6.55002471E-01  6.03956577E-01  7.17020341E-04 -1.62614416E-02
  1.00929328E-06  2.79259441E-04 -3.49631171E-02  4.98301603E-04 -3.11354699E-06
 -1.26380372E-05  4.71058499E-05  2.63474620E-04 -3.71804624E-01  2.02026379E-04
 -9.94780670E-05 -1.02851887E-01  1.45632504E-05  3.67886821E-06 -7.02678831E-05
  7.91493883E-05 -1.92306938E-04  1.59487130E-01  2.21129156E-07  4.83919850E-07
  2.42479079E-06 -1.11581218E-06 -1.16237542E-03  1.11709953E-06  1.02442105E-04
  8.58311784E-02  1.20789976E-05 -8.16323546E-06  8.60486175E-06  1.63946855E-03
  5.67646770E-08  5.55101949E-03  2.33397987E-03  4.16563057E-02  1.26662772E-03
  1.36065714E-02 -3.89806924E-03 -2.32426144E-03 -4.18391667E-02 -1.22746370E-03
  1.36314008E-02  3.92932881E-03 -4.22833752E-02 -1.48471760E-01  6.10153276E-01
  7.72373713E-02  1.01450740E-01 -3.08603131E-05  1.35641756E-01  1.11230637E-01
  9.12906865E-06 -5.17752152E-02  1.62535633E-05 -5.99020866E-05 -1.24814040E-02
  2.48446841E-02  4.22832056E-02  1.48471393E-01 -6.10165021E-01 -7.73550319E-02
  1.01358037E-01 -7.46743573E-05 -1.35697741E-01  1.11272194E-01 -1.62393821E-04
  5.17562601E-02 -7.09355495E-05  1.24124668E-05  1.24057651E-02  2.49069289E-02
  8.63126308E-04  1.95999695E-01  1.56383259E-01 -2.03250079E-02  2.08126102E-05
  1.83484427E-03 -3.40903305E-02  4.74240479E-02  2.58027646E-02  4.82527098E-04
 -1.82210265E-03  3.39737312E-02 -4.74128577E-02  2.58594353E-02 -4.34485161E-04
 -8.13772712E-04 -1.95894180E-01 -1.56145468E-01 -2.02715851E-02 -5.74150264E-05
 -3.78370020E-03 -1.17950850E-02  2.18717607E-02  1.51925499E-02 -2.55488493E-06
  6.20845649E-05  5.68052732E-03 -8.10249355E-04  3.46900410E-04 -4.59844693E-03
  1.12431051E-04  4.54655470E-06 -2.32132597E-02  2.84624694E-05 -4.38231126E-03
 -1.42894918E-02  3.23682503E-02  1.77615182E-02  1.23569158E-02  8.82572427E-05
 -2.43063029E-02 -2.93799520E-02  3.45144007E-04 -3.27206118E-02  9.36260777E-05
 -4.01998330E-04  1.86071125E-02  1.61953301E-02 -1.20114329E-02 -4.03108893E-02
  1.09632922E-01  3.78401156E-02  3.83394054E-02 -1.01608331E-04 -6.78350371E-02
  5.21885695E-02  1.43649755E-03 -9.16132237E-03  1.27633483E-03  1.90124834E-03
 -1.16155265E-02  6.65234109E-02 -3.63567631E-02 -1.23815874E-01  3.37342878E-01
  1.29098226E-01 -4.80994127E-05 -3.54363006E-04  1.72540420E-01  6.78212650E-04
 -2.02021988E-03 -1.13474576E-01  1.85920117E-03  8.61770008E-06  1.04852431E-01
 -7.42158162E-05 -1.20090319E-02 -4.03027024E-02  1.09612291E-01  3.78144437E-02
 -3.83612561E-02 -1.03169583E-04 -6.91609465E-02 -5.15469607E-02  1.40992132E-03
 -9.16412540E-03  1.25830899E-03 -1.89816172E-03 -1.17187593E-02 -6.64781531E-02
 -4.38171390E-03 -1.42883082E-02  3.23972447E-02  1.77555333E-02 -1.23595414E-02
  8.12895147E-05 -2.55882044E-02  2.87641479E-02  4.34215869E-04 -3.26965448E-02
  6.63754983E-05  4.67134130E-04  1.85973365E-02 -1.61446152E-02 -7.47738670E-04
 -2.72947241E-03  6.14958071E-03  1.36985896E-02  9.15075779E-06  8.43767045E-06
  6.94515594E-03  1.25145371E-04 -1.81517116E-05 -2.26958921E-03  3.74286197E-05
 -1.70577245E-05  2.00373663E-02  2.56740339E-05 -5.48939753E-02 -1.95781600E-01
  4.00560809E-01 -6.19484577E-02 -9.01594383E-07  2.50353940E-02  1.17569025E-02
 -5.81212254E-05 -4.65858845E-04 -5.45334867E-02  8.08588744E-03  2.80616818E-05
  5.02909531E-02 -3.71799084E-05  1.20975893E-01 -2.13248213E-02 -4.57863865E-02
  3.41274424E-02 -4.18837943E-03  1.20971759E-01 -2.12985958E-02 -4.57681522E-02
 -3.41385091E-02 -4.23811123E-03  8.12911776E-04  2.97007555E-03 -1.24176240E-02
  3.01176181E-03 -9.49006008E-04  7.74914707E-07 -2.15968728E-03  2.97650021E-03
 -8.30004141E-06  1.57511544E-03 -1.21312949E-05  1.51088205E-05 -1.75741055E-03
  5.03015273E-03  8.11191565E-04  2.96456935E-03 -1.24075163E-02  3.00903091E-03
  9.49409547E-04  7.50992631E-07 -2.13802769E-03 -2.95431558E-03  6.22268867E-06
  1.58036646E-03 -6.17295725E-06 -1.88468504E-05 -1.74699741E-03 -5.04548149E-03
  1.11931128E-02 -1.10091695E-01 -9.18185759E-03 -5.40705041E-03  7.36135538E-05
  2.88066800E-02  4.08667627E-02  1.88489503E-02  1.70710200E-02  1.40037462E-03
  2.87758356E-02  4.09104505E-02  1.90279262E-02 -1.71912168E-02  1.39620568E-03
  1.12068011E-02 -1.10100801E-01 -9.03291691E-03  5.48616353E-03  5.86791532E-05
 -4.14416894E-02 -1.40789517E-01  3.89568649E-01  9.55582019E-03 -5.01102519E-05
  1.19599330E-04 -3.49678969E-02 -1.25395132E-03  1.56997551E-03 -9.41425106E-02
  1.14366857E-04  2.74589149E-05 -4.69941515E-02  1.04629769E-04 -2.73296605E-02
 -9.25845873E-02  2.46933146E-01 -2.69960358E-03  7.39465420E-02  5.67768149E-05
  1.09282048E-01 -6.54158694E-03 -2.62096364E-03 -6.88526918E-02 -4.34058050E-04
 -2.26793900E-04 -1.75303402E-02 -3.87408467E-02 -1.59734567E-02 -5.34129896E-02
  1.33889327E-01 -5.90723788E-02  3.22434664E-02 -2.08204009E-04 -5.71454679E-03
  8.93779899E-02  6.14368858E-03 -4.76975250E-02  5.85834602E-04  8.94800464E-04
  3.22796153E-02 -1.20742067E-03 -5.42020995E-03 -1.71471484E-02  3.55303463E-02
 -1.08076780E-01  2.19631117E-05 -3.78541807E-04  2.25806132E-01  1.05445007E-03
 -1.29776342E-02 -3.02659576E-02 -1.82396790E-03  1.12047074E-05 -4.22210368E-02
  3.66546315E-05 -1.59674975E-02 -5.33928846E-02  1.33844288E-01 -5.90468441E-02
 -3.22188866E-02 -2.01332061E-04 -7.58808002E-03 -8.83640906E-02  6.08492857E-03
 -4.77030625E-02  5.75997322E-04 -8.98406927E-04  3.21809119E-02  1.24996171E-03
 -2.73200445E-02 -9.25518137E-02  2.46868332E-01 -2.72508426E-03 -7.39146377E-02
  2.96486184E-05  1.07426937E-01  5.42426175E-03 -2.56081592E-03 -6.87934350E-02
 -4.11278726E-04  3.40452193E-04 -1.74480311E-02  3.88355371E-02 -8.98724486E-03
 -3.22296389E-02  7.22736266E-02  2.17905504E-01  1.64580062E-04  5.89124443E-05
  3.98372696E-02  2.58320796E-04 -4.07537848E-04  2.50771244E-03 -5.75219181E-05
  1.01852509E-05  1.01884924E-01  6.89126009E-05  1.64935229E-02  5.82654153E-02
 -1.14257102E-01 -9.87187265E-03  7.24225633E-06 -1.03150616E-02  1.64279679E-01
 -2.06315985E-04  2.96329400E-02 -7.62349131E-03  4.27366517E-03  2.48251186E-05
  5.27722374E-04 -5.04281483E-06 -3.23728401E-02 -2.05531747E-01  3.98056179E-02
 -5.50687977E-02  5.73856913E-03 -3.23655256E-02 -2.05379326E-01  3.98602282E-02
  5.49500872E-02  5.77934916E-03  1.08387530E-02  3.82750208E-02 -1.62446964E-01
  3.12047365E-02 -3.19599369E-02  2.01667391E-05  8.01262761E-03 -1.50821217E-02
  3.61514073E-05  4.15831490E-03 -1.83662899E-06  4.79055185E-05  5.38871025E-03
  1.52351187E-02  1.08194518E-02  3.82080824E-02 -1.62191274E-01  3.11643869E-02
  3.19528999E-02 -8.80774043E-06  8.09617033E-03  1.51459138E-02  3.25711640E-05
  4.14256651E-03  7.32181650E-06 -4.93457097E-05  5.42807331E-03 -1.52292019E-02
  4.48013601E-02 -5.63265222E-02 -4.31166266E-02  4.68479557E-02  4.69315857E-04
  2.60835161E-02 -4.82636533E-02 -1.68440992E-02  7.09537503E-03 -9.31824007E-04
  2.60808858E-02 -4.83185421E-02 -1.66458765E-02 -7.17110115E-03 -9.27727316E-04
  4.48083646E-02 -5.62586527E-02 -4.28344586E-02 -4.67220764E-02  3.98851320E-04
 -2.46283076E-02 -8.64460251E-02  2.90209694E-01 -1.76338405E-01 -1.00914068E-04
  7.32861417E-05 -1.33150753E-01  7.82032786E-04 -9.62751367E-04 -5.25912500E-02
 -5.52472600E-05 -2.35340258E-05  6.85221762E-02  5.61122970E-06  6.60951479E-03
  2.16695563E-02 -4.82912148E-02 -1.14307846E-01  1.43018304E-02  8.40090605E-06
 -5.48469429E-03  3.63127398E-02  2.08354085E-03  2.40448101E-02  5.18165876E-04
  2.54975970E-05 -5.37797968E-02 -4.75425766E-02  2.53667447E-02  8.63352404E-02
 -2.37840387E-01  1.38360430E-02 -5.41675829E-02  3.31789970E-04  4.43726423E-02
 -3.13739001E-02 -4.21269400E-03  5.36475775E-02 -2.39179819E-07 -1.70695112E-04
  1.82533612E-02 -2.91523774E-02  2.15183630E-02  7.27751348E-02 -1.97678010E-01
  1.41261228E-01 -7.12522041E-05  1.25393444E-03 -4.68676837E-02 -7.21624911E-04
  8.68028485E-03  5.05967098E-02  2.08041005E-03 -2.17608584E-05  7.58859033E-02
 -1.22247376E-05  2.53851412E-02  8.63989612E-02 -2.38044566E-01  1.39230299E-02
  5.41594361E-02  3.16574368E-04  4.58180015E-02  3.08512877E-02 -4.21372029E-03
  5.36900540E-02  2.28866734E-05  1.50672134E-04  1.82618369E-02  2.91174434E-02
  6.63996682E-03  2.17760493E-02 -4.86595248E-02 -1.14294281E-01 -1.42503980E-02
  2.39241835E-05 -4.28761001E-03 -3.56587104E-02  2.06248151E-03  2.40803380E-02
  5.94613420E-04 -5.55336775E-05 -5.37071132E-02  4.75133043E-02 -1.61865932E-02
 -5.77864711E-02  1.30559937E-01  2.92866749E-01  1.79387874E-04  2.36206249E-06
 -1.23834187E-02 -8.35471225E-05  3.29755795E-04  1.74509008E-02  4.01092259E-05
  7.62242506E-05  6.48641413E-02  1.27360456E-05 -2.03262463E-02 -7.23252960E-02
  1.48519308E-01  6.60375260E-02 -3.77620726E-05  1.62256800E-02 -5.58162928E-02
  1.06652756E-04 -1.98811076E-02  2.86966926E-04  3.80754132E-04 -8.21330221E-06
 -2.02214104E-02  2.61730904E-05  5.65658488E-02  1.39427539E-01 -2.91070887E-02
  4.10758584E-02 -3.95913603E-03  5.65530498E-02  1.39294400E-01 -2.91476875E-02
 -4.09817321E-02 -3.98706771E-03  1.32889561E-02  4.69414844E-02 -2.07149688E-01
  5.13041549E-02 -3.39997626E-02  1.62179327E-05  2.89035848E-02 -3.21301511E-02
 -1.98659200E-05 -2.61550770E-03 -2.52420963E-06 -2.42690979E-05  1.64791485E-02
  1.04500158E-02  1.32752572E-02  4.68926842E-02 -2.06933935E-01  5.12576871E-02
  3.40372584E-02 -1.85082846E-05  2.89254074E-02  3.21940222E-02 -7.46627405E-05
 -2.64247258E-03  2.01804330E-06  3.13647036E-05  1.65051364E-02 -1.03801883E-02
 -1.02095813E-02  1.00141895E-01 -3.17631156E-02  9.21793521E-03 -3.81836241E-04
 -4.43907706E-02  2.86410501E-02  2.67533759E-03 -3.47333136E-02  9.82310087E-04
 -4.44156236E-02  2.84877786E-02  2.56725650E-03  3.48460772E-02  9.85260035E-04
 -1.02858296E-02  1.00091477E-01 -3.17736246E-02 -9.21313131E-03 -4.02678501E-04
 -1.43802905E-05 -4.98090140E-05  1.51694948E-04 -5.36202335E-05  1.46636968E-01
  3.74689084E-05 -2.20841027E-05 -1.53412811E-01 -1.35810551E-06 -3.76235431E-05
  3.34007794E-05  3.97037639E-07  6.41059781E-05  1.00383391E-01  3.42888521E-02
  1.18673507E-01 -3.59919194E-01 -6.88631098E-02  1.35167781E-02 -1.51662749E-05
 -1.87994817E-02 -1.06015524E-01 -5.14521599E-05  5.25014640E-02 -6.01191858E-05
 -6.28821639E-05 -6.45066217E-02  1.53443401E-02  3.41192570E-02  1.17965918E-01
 -3.54249338E-01  6.64705929E-02  1.28165080E-02  3.67598721E-05 -3.81219115E-02
 -1.68146738E-01  4.98431823E-04  5.05734544E-02 -2.10037867E-05  2.53809291E-05
 -6.68412336E-02 -1.20749159E-02  7.80275290E-06  2.68538570E-05 -8.23712772E-05
  8.20326089E-05  1.53950170E-01  1.88426379E-05 -3.61048009E-05 -2.30324917E-01
 -2.85424664E-05  7.25425934E-06  6.94922769E-06  4.57809582E-04 -4.49810357E-05
 -9.73174224E-02 -3.41020143E-02 -1.17906986E-01  3.54106992E-01 -6.64783009E-02
  1.28815855E-02  1.06679971E-05  3.81030952E-02 -1.68184832E-01 -4.93218036E-04
 -5.05314853E-02 -5.80910307E-06  1.24699433E-05  6.68166684E-02 -1.20849525E-02
 -3.42924680E-02 -1.18687129E-01  3.60009432E-01  6.87631998E-02  1.35048651E-02
  1.10847789E-05  1.86691350E-02 -1.06040560E-01 -9.11014964E-05 -5.25067668E-02
  4.02017451E-05 -5.30931261E-05  6.44643447E-02  1.53717488E-02 -9.66359558E-06
 -3.40757182E-05  7.19782334E-05  1.05035170E-04 -6.84078972E-03  3.92284940E-05
 -3.03601547E-05  5.37873836E-02  1.14649659E-05  4.62376526E-06 -8.07759463E-06
 -4.75887939E-05 -6.02114377E-07  4.44686497E-02 -8.41086610E-06 -2.99475143E-05
  6.18078311E-05  4.77966604E-05  4.69997669E-02  1.99703290E-05 -4.00064889E-06
  6.48095308E-02 -1.12451992E-06 -4.55374119E-08 -3.12815255E-06  3.41442178E-03
 -1.97866136E-05 -2.55984507E-02 -1.49706444E-02 -8.55435333E-03  1.81285754E-04
  1.04623677E-03  2.53828588E-03  1.50251916E-02  8.63020007E-03 -1.90331559E-04
  9.96865336E-04 -2.54000144E-03 -2.89375128E-03 -1.02197418E-02  4.48989225E-02
 -5.61109463E-03  6.30019145E-03  6.63292137E-06  1.29653643E-02  6.69329845E-03
 -2.23908000E-05 -2.81732583E-03 -1.90501051E-06  4.65598944E-07  2.43072574E-03
  2.09281824E-03  2.90532786E-03  1.02607783E-02 -4.50819797E-02  5.63017177E-03
  6.28929747E-03  9.31532859E-06 -1.29268010E-02  6.70335824E-03  2.22932860E-05
  2.81147960E-03 -4.21333713E-06  4.03992857E-06 -2.40717842E-03  2.07746737E-03
 -6.60680730E-02 -1.32105436E-01 -4.42879028E-02 -5.20627869E-02  7.65803778E-05
 -6.60976452E-02 -1.49742035E-01  5.50015946E-02 -5.01811364E-02 -1.51232548E-04
  6.60841668E-02  1.49746316E-01 -5.49791335E-02 -5.01626513E-02  1.40687298E-04
  6.61125591E-02  1.32138971E-01  4.42181031E-02 -5.21117921E-02 -1.29482951E-04
  6.86594276E-03  2.32033864E-02 -5.15370021E-02 -2.38711222E-01 -5.70257669E-05
 -2.30989092E-04 -4.83274280E-02  5.61873930E-04 -2.77376072E-04  4.27267249E-03
 -1.06788921E-04 -6.01771050E-05  1.41096588E-01  2.32523693E-05  2.34270998E-02
  8.11242420E-02 -2.53434310E-01  1.07903038E-03 -3.15822518E-02 -3.42307721E-04
 -2.15607321E-01 -4.40265464E-02 -7.23675223E-04  2.59767154E-02 -5.32990005E-04
  7.84658077E-05  3.89758855E-02 -4.07489381E-03 -7.37442199E-03 -2.57861011E-02
  8.05850461E-02  1.41184500E-01  7.69915448E-02 -1.04521125E-03 -1.27322815E-01
 -3.81862968E-02 -2.03782627E-03 -1.48446252E-02 -1.77582155E-03 -2.38572287E-03
 -6.10540952E-02  2.64291999E-02 -3.37060652E-02 -1.16873671E-01  3.79418981E-01
 -3.27280149E-02  4.57652132E-05 -5.26693973E-03 -2.37057446E-01 -5.82691092E-04
  4.18397739E-03 -1.97237513E-02 -4.23535432E-03  1.16130591E-05 -9.27403653E-02
  4.53609398E-05 -7.38798076E-03 -2.58327456E-02  8.07182061E-02  1.41118016E-01
 -7.70632468E-02 -1.07736314E-03 -1.26127858E-01  3.75279220E-02 -2.03527833E-03
 -1.48688176E-02 -1.76616544E-03  2.41266065E-03 -6.10831461E-02 -2.63915204E-02
  2.34317502E-02  8.11412001E-02 -2.53521767E-01  1.21151662E-03  3.15999101E-02
 -3.24138701E-04 -2.14563919E-01  4.48253877E-02 -6.07537842E-04  2.59821913E-02
 -5.03892079E-04 -1.06131900E-04  3.90524314E-02  4.03940428E-03 -1.85893800E-02
 -6.64785379E-02  1.54848287E-01  2.14245539E-01  9.37384015E-05 -8.37397760E-05
 -5.37868838E-02 -2.89755683E-05 -6.10049449E-05  3.29500123E-02 -5.23790628E-05
  5.58224398E-05  3.30219698E-02  4.05920769E-05  1.82815057E-02  6.60376338E-02
 -1.49111715E-01 -2.12458691E-01  1.01561902E-04 -2.54233995E-02 -2.09243844E-01
  1.33961443E-04 -1.36505895E-02  8.90690346E-03 -1.25535130E-02 -3.26075998E-05
  5.25967634E-02 -2.91684128E-05 -9.95205325E-02  6.80658966E-02 -1.17369241E-02
 -2.69570357E-03  1.24292911E-03 -9.94980140E-02  6.80725905E-02 -1.17506221E-02
  2.71272736E-03  1.24235100E-03  1.17586744E-02  4.18112860E-02 -1.90922648E-01
  6.30999219E-02  3.66874878E-03 -3.77587896E-05  2.72224108E-02 -1.30401540E-02
 -2.88739620E-05 -6.40051819E-03 -1.46373812E-05 -9.75049512E-06  1.15432561E-02
  1.59564170E-02  1.17577226E-02  4.18077405E-02 -1.90908525E-01  6.31113924E-02
 -3.57006232E-03 -3.96463531E-05  2.72311518E-02  1.31569258E-02 -5.63235226E-05
 -6.40773744E-03 -3.51381921E-06  9.91235622E-07  1.15826667E-02 -1.58974285E-02
 -4.77464107E-02 -8.88883017E-02 -2.49550748E-02 -5.13005823E-02 -2.15558488E-04
  1.51560842E-02  2.73431036E-02  2.69031055E-02  4.15489528E-02 -1.66196101E-03
  1.51448715E-02  2.73128577E-02  2.67850451E-02 -4.15122234E-02 -1.67609637E-03
 -4.77591941E-02 -8.89774158E-02 -2.49238418E-02  5.12868342E-02 -1.88512148E-04
  8.21345207E-06  2.88004740E-05 -9.62068686E-05  1.47842173E-05 -2.32869641E-01
 -9.30589751E-05  4.23551963E-05 -2.67046633E-02 -1.50201911E-05  2.23573449E-05
 -8.74074944E-06 -2.42869793E-04 -6.08960479E-05 -4.86234150E-02 -2.51181716E-02
 -8.78627092E-02  3.03572662E-01 -1.10675263E-01  4.10669855E-03  7.91559874E-05
  2.92552046E-02  3.44761588E-02 -4.91084999E-04 -9.32307007E-03  2.50400311E-06
 -2.57061014E-05 -2.65028849E-02 -6.63965387E-04  2.16296336E-02  7.56237945E-02
 -2.61753844E-01 -1.52123317E-01 -1.89073713E-02  2.39642023E-05  3.74863268E-02
 -4.04803471E-02 -4.10577993E-04  3.67649716E-03 -7.52285135E-05 -6.58830236E-04
  2.77053732E-02 -3.86527560E-04  1.80767847E-06  6.54604046E-06 -3.26406082E-05
  7.06155894E-05  2.79859953E-01  3.00129874E-05  2.52376950E-05  2.78055108E-02
 -4.66148455E-06 -1.53000987E-05  6.57841852E-06 -2.49474586E-03  1.74839149E-05
 -2.40814755E-02 -2.16352626E-02 -7.56432297E-02  2.61819388E-01  1.52006513E-01
 -1.89608683E-02 -3.34345374E-05 -3.74128343E-02 -4.04848967E-02  4.11562869E-04
 -3.68174432E-03  1.04211738E-04 -6.56418028E-04 -2.76805631E-02 -4.04373715E-04
  2.51117314E-02  8.78407899E-02 -3.03521299E-01  1.10735260E-01  4.09131611E-03
 -1.33259379E-04 -2.91628621E-02  3.44707710E-02  5.51447118E-04  9.32551916E-03
 -8.09709959E-07 -5.48320764E-05  2.65078062E-02 -7.20668098E-04  1.16468492E-05
  4.17321837E-05 -9.88644339E-05 -4.35037772E-07 -1.27168675E-02 -1.41594037E-04
  5.90280673E-06 -2.21150235E-02 -1.92085243E-05 -1.59782087E-05  2.99952980E-06
  2.40336830E-05  4.99496485E-06 -4.75159763E-02 -3.49517627E-06 -1.26117548E-05
  2.82635449E-05  8.88464555E-05  2.01219746E-01  8.13106003E-05  7.02868473E-05
  6.92748763E-02  2.07337383E-05  6.17502538E-06  1.25223467E-05  1.01383190E-02
 -1.49677366E-05 -1.52950403E-02 -7.73086390E-02 -4.34381689E-02  1.14168197E-02
 -8.46369549E-03  8.63530645E-03  7.73396733E-02  4.33755558E-02 -1.14111531E-02
 -8.44942214E-03 -8.65794811E-03  5.28276173E-03  1.87788125E-02 -8.41264668E-02
  2.64241593E-02 -2.86728639E-03 -4.88591973E-05 -3.00474319E-03 -1.22314537E-02
 -2.82629122E-05  3.52301528E-03 -1.47360037E-05 -1.12125258E-06  4.27737378E-03
 -1.21599929E-03 -5.29836362E-03 -1.88341423E-02  8.43740965E-02 -2.64218851E-02
 -2.74557546E-03 -7.61191313E-05  3.02051078E-03 -1.22060107E-02 -2.54850994E-05
 -3.51728468E-03  1.70434034E-06  1.13775755E-05 -4.26890739E-03 -1.21405818E-03
  8.17809180E-02  8.83829029E-02  1.82490475E-03  4.87194618E-02  4.80801452E-05
 -7.68900602E-02 -9.94331973E-02  4.31498227E-03 -4.76976191E-02 -8.82030548E-04
  7.68587898E-02  9.94146250E-02 -4.33468141E-03 -4.76990513E-02  8.60295055E-04
 -8.17580497E-02 -8.83687421E-02 -1.77244425E-03  4.87339761E-02  1.90520979E-06
 -2.27472704E-02 -7.91036904E-02  2.63701785E-01  2.03016123E-01  1.28320584E-04
 -2.52475012E-04  1.35636295E-02 -6.42906377E-04  6.97084829E-04  6.53523601E-03
 -2.27284471E-04  6.57302210E-05 -9.45249273E-02 -4.04237618E-06  2.03899058E-03
  7.46185393E-03 -3.30701488E-02 -1.37905349E-01  1.93541556E-01 -7.12828197E-04
  1.16393176E-01  7.98701834E-02 -1.65074455E-03  6.73553135E-03 -6.03336644E-04
  5.02376038E-06 -7.51372146E-02  4.15579011E-03  2.06049255E-02  7.19221917E-02
 -2.42780498E-01  5.46098081E-02  1.44394104E-01 -2.32227776E-03  1.57613449E-01
 -9.56491110E-02 -1.24884186E-04 -4.33843596E-05 -8.61993800E-04 -2.07854130E-03
  1.42145336E-02  3.37904981E-02 -1.80454714E-02 -6.27596414E-02  2.24574397E-01
  1.04204048E-01  4.52895552E-05 -9.58592418E-03 -1.23874006E-01  7.09622385E-04
 -3.18213815E-03  1.29201916E-02 -6.59811170E-03 -9.99930958E-06  9.61060101E-02
 -3.98148510E-05  2.06106908E-02  7.19424762E-02 -2.42855573E-01  5.46385760E-02
 -1.44524592E-01 -2.39003312E-03  1.56390763E-01  9.63186265E-02 -1.26763509E-04
 -3.25617304E-05 -8.50437065E-04  2.06107747E-03  1.42223722E-02 -3.37998185E-02
  2.02862695E-03  7.42571864E-03 -3.29536309E-02 -1.38109913E-01 -1.93638861E-01
 -7.95980694E-04  1.15219987E-01 -8.06567850E-02 -1.74415739E-03  6.72392870E-03
 -5.69878140E-04  3.94107847E-05 -7.51379252E-02 -4.08826326E-03  1.70510640E-02
  6.12273893E-02 -1.50315272E-01 -8.64700417E-02 -4.59298776E-05 -2.36443322E-04
  5.99567051E-02  4.22857842E-05 -4.62324164E-04 -5.01111177E-02 -1.40370665E-04
 -5.09158663E-05 -2.25492535E-02 -1.76306928E-05  3.27691578E-03  1.21677125E-02
 -3.29607230E-02 -2.21715012E-01  2.11300197E-04 -2.10670650E-02 -7.40788716E-02
 -3.47240704E-07 -2.83163701E-03 -4.34623860E-03 -7.74422135E-03 -1.43582063E-06
  1.89223148E-02 -1.29139362E-06 -6.84648513E-02 -3.72595094E-02 -1.33035641E-03
 -1.39316036E-02  4.68184147E-03 -6.83433846E-02 -3.71870927E-02 -1.33207781E-03
  1.39142561E-02  4.68693440E-03 -1.25691053E-02 -4.47841405E-02  2.06941646E-01
 -7.12492257E-02 -5.98256226E-02 -1.07451156E-04 -2.24052506E-02 -9.27333009E-03
 -3.79321652E-05  9.13918189E-03 -8.35959520E-06  7.23501703E-06 -3.82569826E-03
 -1.35574423E-02 -1.25683768E-02 -4.47814488E-02  2.06931500E-01 -7.13146591E-02
  5.97668792E-02 -1.74342022E-04 -2.24468565E-02  9.19010748E-03 -5.07097905E-05
  9.14468739E-03 -2.07051959E-05  9.40543260E-06 -3.87209783E-03  1.35257686E-02
 -4.26202626E-02  4.98575109E-03 -1.78850249E-02  1.94028675E-02 -1.89635510E-05
 -9.26599840E-02 -1.48093771E-01  2.48340363E-02 -3.71030682E-02 -1.73768177E-03
 -9.27201868E-02 -1.48125898E-01  2.49373090E-02  3.70638255E-02 -1.71812342E-03
 -4.26669712E-02  5.06780853E-03 -1.78466568E-02 -1.93611702E-02 -2.42154973E-06
  4.07503732E-03  1.47548450E-02 -4.75337514E-02 -7.97423901E-02 -1.81387619E-04
 -9.71044808E-04  6.42081611E-02 -1.34148910E-03  9.82880382E-04  7.73250045E-03
 -1.51417623E-04  7.00487738E-05 -6.71131803E-02  2.17927795E-05 -1.01020166E-02
 -3.49052971E-02  1.14607779E-01 -6.96131929E-02 -1.64305344E-01 -8.19915400E-04
  8.12945668E-02  4.07721731E-02 -2.41490155E-03 -7.54778586E-03 -8.59076200E-04
 -6.16816530E-05  5.12994012E-03  5.71055116E-03  2.40074046E-04  1.12896464E-03
 -8.45110852E-03  1.87827733E-02 -1.54753819E-01 -3.06756225E-03  1.32174383E-01
 -6.71866528E-02  1.02785877E-03 -1.80264883E-02 -7.07194540E-04 -2.29212603E-03
  4.70278184E-02  3.44084407E-02 -8.00942463E-04 -2.25079692E-03  6.34986938E-03
  2.57177033E-01 -2.43494214E-04 -1.33728185E-02 -2.26529965E-02  1.31735974E-03
 -7.32382628E-03 -1.19199466E-02 -8.40332378E-03  1.25924818E-05  6.25141932E-02
 -1.36670172E-04  2.18729724E-04  1.05434808E-03 -8.19968412E-03  1.85374175E-02
  1.54939415E-01 -3.01288671E-03  1.29950102E-01  6.83828432E-02  1.06633002E-03
 -1.80306980E-02 -7.29799384E-04  2.29151123E-03  4.69916434E-02 -3.44253165E-02
 -1.00983058E-02 -3.48916284E-02  1.14536127E-01 -6.91228586E-02  1.64458053E-01
 -7.00771053E-04  7.89132930E-02 -4.21621939E-02 -2.51166214E-03 -7.55495942E-03
 -9.07028753E-04  1.03465649E-04  5.14991056E-03 -5.66609029E-03  1.45844545E-02
  5.22500741E-02 -1.30783589E-01  1.28202881E-01  5.08389402E-05 -1.77528293E-03
  4.87533175E-03  8.96852007E-05 -8.69610996E-04 -4.55772562E-02 -1.77526011E-04
 -7.74300332E-05 -6.52176339E-02 -1.20193364E-04  1.99339202E-03  7.30891757E-03
 -1.77553676E-02 -2.62248118E-01 -2.90679868E-04 -2.55149561E-02  1.93339033E-02
 -2.98410836E-04  4.06301565E-03  1.54205030E-03 -5.36364435E-03 -1.74350394E-05
  4.26979938E-03 -3.12735873E-05 -7.28569892E-02 -1.07105630E-01  4.18848444E-03
 -3.32629796E-02  7.17965465E-03 -7.31654409E-02 -1.07001089E-01  4.24494539E-03
  3.31957114E-02  7.21780393E-03 -1.75003140E-02 -6.23193610E-02  2.84955620E-01
 -2.10250799E-02 -1.84902827E-01 -8.83354047E-04  9.64499203E-03 -5.27169810E-02
 -3.51055341E-04  5.92266448E-03 -7.23042597E-05 -9.58322410E-05  1.13281409E-02
 -8.81273427E-03 -1.75188071E-02 -6.23849480E-02  2.85251057E-01 -2.13800355E-02
  1.84882044E-01 -1.05968014E-03  9.52413893E-03  5.25771681E-02 -3.86843979E-04
  5.92113617E-03 -6.71850901E-05  1.34158309E-04  1.12712770E-02  8.78891909E-03
  1.11679078E-01  7.94523694E-02  3.58286797E-02  1.20686342E-02 -2.81480415E-05
  6.49457817E-02 -3.89162554E-02 -1.57707820E-02 -1.95288931E-02 -2.18771793E-03
  6.50214724E-02 -3.88077750E-02 -1.56251108E-02  1.94117453E-02 -2.18548559E-03
  1.11598782E-01  7.95760154E-02  3.60023822E-02 -1.19823639E-02 -5.62928757E-05
  4.85331239E-06  1.96086807E-05  5.37643529E-05 -6.19957250E-04  1.96988902E-03
  1.49553802E-01  7.88867868E-04  2.69272577E-03  1.55005561E-02  2.51703194E-04
 -4.96171760E-02 -3.59182542E-05 -5.57279102E-05 -2.33306044E-04  5.14759150E-05
  1.84470783E-04 -7.28848951E-04  1.19850512E-03 -9.72771766E-04  4.40487455E-02
 -1.65168919E-03  1.47546047E-03  1.48855358E-02 -1.14642214E-05  1.07502703E-03
  1.74560337E-02  4.69739584E-04 -6.44912052E-05 -1.18936292E-04 -4.12904637E-04
  1.28195809E-03 -3.71074511E-04 -7.40528473E-04  1.27228295E-02 -8.58568045E-04
 -8.60029414E-04  5.18818122E-03 -2.07157894E-04 -3.76687407E-03  6.31497893E-04
 -6.12198731E-05  8.21389210E-05 -6.44258947E-05 -2.19766312E-04  6.86841408E-04
  1.18092735E-04  1.02502736E-03  8.81293792E-03  6.47036688E-04 -1.52425434E-03
 -3.19911418E-03  4.69856181E-05 -3.79374266E-03 -4.98843715E-05 -2.16397450E-04
  8.96887879E-04  1.13666887E-04  3.99323731E-04 -1.35933459E-03  1.52493426E-03
 -6.82896982E-04  1.27158203E-02  1.51266028E-03 -8.86615761E-04  5.17238064E-03
 -3.62058832E-05 -3.76863728E-03 -6.46662603E-04 -2.37282987E-04 -1.20889661E-04
 -2.12237178E-05 -7.59739433E-05  3.74063130E-04 -2.32807909E-03 -1.91785866E-04
  4.40187733E-02  2.31764976E-03  1.18095571E-03  1.49776856E-02 -7.09951128E-05
  1.06375564E-03 -1.74642672E-02 -1.09874378E-04  6.09108773E-05  1.23145430E-04
  4.42560223E-04 -1.14692783E-03  1.42671115E-03  1.02189518E-03  5.46375140E-01
  1.40508521E-04 -4.27071576E-04  5.70671440E-02 -5.01338748E-04 -2.29648101E-03
 -2.77162146E-06 -6.70910535E-04  3.71557388E-04  6.49982693E-05  2.32936515E-04
 -5.15952809E-04 -4.68543608E-04  3.57317765E-03  3.31285788E-03  4.17912006E-04
  1.41978252E-03  5.46743863E-03  1.15732253E-06 -2.36659673E-03  1.78187533E-04
 -5.34152103E-05  3.42195646E-04 -1.62104582E-03 -7.71476482E-04  2.40118444E-04
 -1.81005187E-04  7.84982571E-04  1.44312226E-03 -5.98920271E-04  1.57631946E-05
  1.68518015E-04  6.51897662E-04 -2.52895893E-04 -9.00525517E-04  4.09781827E-03
 -9.23799574E-04 -2.13211171E-03  2.96424679E-01 -9.09792627E-05 -5.06550193E-04
  1.33019081E-01 -7.94637180E-07  2.63349331E-02  4.28963607E-02  1.28304925E-05
 -1.37497856E-04 -8.98192170E-05 -3.20073630E-04  1.48266870E-03  3.91835001E-04
  1.70002655E-03  2.96491359E-01  2.02388553E-04  5.78032110E-04  1.33049935E-01
  1.53947375E-04  2.63854385E-02 -4.28745830E-02  2.05889131E-04  3.74031746E-05
  8.03884350E-05  5.46058835E-04  8.36685028E-04 -2.80811557E-04  8.24440675E-03
  5.29106258E-04 -2.37021523E-05 -4.85145276E-05  1.37934651E-04  2.16214381E-03
 -1.99427393E-04 -6.36862012E-04  2.69026312E-04  1.53457805E-04  2.18402801E-03
  6.51122373E-04  2.24337928E-04 -2.68433565E-04 -1.90469309E-04  8.22270726E-03
  9.50122341E-06  3.26397390E-05 -1.36129706E-04  1.05682813E-05  2.26158815E-01
 -1.28423317E-03 -3.47634309E-04  2.83633867E-01 -9.97723491E-05 -9.32358639E-05
  4.68884735E-04 -9.49659549E-06 -1.34732935E-04 -2.07194473E-02  5.22565737E-03
  1.86509397E-02 -7.58916746E-02  1.95324523E-01 -6.36934920E-02 -2.62875105E-04
 -2.06488813E-01  1.47122085E-01 -4.24555284E-04  3.66940028E-03  3.20040872E-05
  1.57714034E-04  3.25382656E-02  4.77006137E-04 -1.34636679E-02 -4.70454377E-02
  1.54101543E-01 -9.50961094E-02 -7.95957548E-02 -2.88593798E-04 -1.18525939E-01
 -9.39610132E-02 -1.12749664E-03 -9.41649581E-03  6.20914781E-04 -1.14315142E-03
  8.19622361E-03 -1.43808871E-03  4.85528771E-06  1.73830396E-05 -5.12409744E-05
  6.96566815E-04  1.03842398E-01 -4.92445222E-05 -3.16781692E-04 -1.55349558E-01
  1.22776529E-05 -1.12252460E-05  3.85579520E-05 -5.99711327E-03  2.49947479E-04
  1.01057945E-01  1.34709213E-02  4.70704772E-02 -1.54188617E-01  9.49123515E-02
 -7.89450514E-02  3.39516192E-05  1.18895049E-01 -9.35826552E-02  9.55263212E-04
  9.36314742E-03 -5.44124931E-04 -1.14463770E-03 -7.88398963E-03 -1.60487501E-03
 -5.28429903E-03 -1.88552104E-02  7.65862394E-02 -1.95439414E-01 -6.30169566E-02
 -4.96745503E-04  2.06801635E-01  1.46690805E-01  2.38485096E-04 -3.65550786E-03
 -4.16039354E-05  5.14081745E-04 -3.26434112E-02  3.62849655E-04 -2.14674970E-05
 -7.77482911E-05  2.09262710E-04 -2.93006647E-04  9.14827389E-02 -4.90746787E-03
 -6.27934367E-05 -5.16498858E-02 -4.75624559E-04  8.89589267E-05  1.68738544E-05
 -9.41498012E-07  6.78373898E-05  4.69087258E-02 -3.87768810E-07 -7.08032553E-07
 -6.92057528E-06 -5.22812714E-04  3.99099115E-01  1.36200417E-04 -4.53126268E-05
  1.56396241E-01  2.75400463E-05  3.43705994E-05  2.69426458E-05  1.97654883E-02
  5.34322450E-05  3.96671285E-02 -1.71819455E-01 -9.73661288E-03  1.24594709E-02
 -5.54317517E-04  7.40427346E-03  1.71476277E-01  9.53931843E-03 -1.25010096E-02
 -4.30580439E-04 -7.38496876E-03 -1.00171047E-02 -3.56593544E-02  1.60812584E-01
 -8.23028166E-02 -4.88851106E-02 -2.65207734E-03 -1.80575204E-02 -6.00445558E-03
 -1.20930718E-03 -4.40740803E-03 -2.40635530E-04 -3.95758388E-04 -8.25120989E-03
 -8.41155608E-03  1.00739554E-02  3.58619527E-02 -1.61741761E-01  8.24382891E-02
 -4.94275251E-02 -2.60471456E-03  1.80638071E-02 -6.09066068E-03 -1.17903641E-03
  4.38278082E-03 -2.28268780E-04  3.74236503E-04  8.22600548E-03 -8.40923829E-03
 -3.34214189E-02  1.92060866E-02  6.23017597E-02 -2.80147948E-02  2.77822132E-04
  4.46976914E-02  3.57827861E-02 -1.79155158E-02  1.72807185E-02 -1.12096183E-03
 -4.45319827E-02 -3.57366172E-02  1.77700822E-02  1.73618391E-02  1.09571099E-03
  3.37893415E-02 -1.89159083E-02 -6.22650366E-02 -2.80845876E-02 -4.54065570E-04
 -1.01005615E-04  6.07839738E-05  2.20951431E-02 -1.11832253E-01  4.82063848E-04
 -8.35058282E-05  2.21210979E-01 -4.19357020E-04 -2.88569421E-05  4.73986865E-02
  5.47587610E-04  1.43562841E-05  9.57930959E-02 -5.48543987E-05  1.13207093E-02
  3.95527355E-02 -1.32586255E-01  2.81285546E-02  3.75631499E-02  1.04089408E-03
 -5.32117819E-02 -8.19103421E-02  9.42483985E-04 -4.76158633E-03  7.89850344E-04
 -3.28482161E-05  6.06474448E-02 -4.66309091E-02 -6.72167860E-03 -2.31017294E-02
  7.16801244E-02  3.99574936E-02  8.60780912E-02  3.86641276E-03 -6.42056095E-02
  1.08392663E-01  2.73398870E-03  4.94504814E-03  1.39348274E-03  3.18515951E-03
 -6.71797052E-02 -4.15498497E-02 -1.25235891E-04 -4.86994969E-04 -4.56871174E-03
 -2.65080496E-01  2.06300672E-04  1.56005230E-02  1.87141668E-01  5.78921619E-04
 -4.82948685E-04 -8.94156332E-03  7.80929009E-03 -1.98823278E-05 -1.01947949E-01
  1.96119513E-04 -6.67612395E-03 -2.29424936E-02  7.11583180E-02  4.00766958E-02
 -8.64242948E-02  3.83703713E-03 -6.54476825E-02 -1.07820722E-01  2.72850899E-03
  4.98240342E-03  1.42285373E-03 -3.21257051E-03 -6.71262612E-02  4.16051803E-02
  1.12876900E-02  3.94363185E-02 -1.32189803E-01  2.75330388E-02 -3.79169562E-02
  9.66573023E-04 -5.41712884E-02  8.15123110E-02  9.54357744E-04 -4.79604489E-03
  7.69714771E-04 -6.01594942E-06  6.05831430E-02  4.66163472E-02  1.38878988E-02
  5.00715486E-02 -1.34706385E-01  2.62926243E-01  3.38966675E-04 -2.85099507E-03
  2.91302630E-02 -7.67499515E-05 -7.72573562E-06 -6.79226648E-02  1.73180783E-04
 -1.02501764E-04 -9.82848559E-02 -6.96708565E-06  7.91055918E-04  2.36777363E-03
  1.09277402E-03  2.68132012E-01  5.46291563E-04  2.63302946E-02  9.05862536E-02
  1.22636191E-04  1.23975340E-02 -7.54272382E-03  8.30313053E-03  4.41291955E-05
 -1.10478216E-02  6.68300612E-05  7.30287697E-02  4.27526219E-04  1.36955866E-02
  1.02126216E-02 -4.12877098E-03  7.35794568E-02  5.36128620E-04  1.36484607E-02
 -1.02305494E-02 -4.17247910E-03 -2.33270887E-02 -8.31379821E-02  3.81129660E-01
 -1.78682778E-02 -2.73579878E-01 -1.49822704E-03  1.30006562E-02 -7.44521453E-02
 -6.76892228E-04  7.25340606E-03 -1.36917230E-04 -2.24216306E-04  1.61060899E-02
 -5.96847986E-03 -2.32855121E-02 -8.29897457E-02  3.80460822E-01 -1.77849932E-02
  2.73425850E-01 -1.81039265E-03  1.29710858E-02  7.43362714E-02 -7.58092051E-04
  7.27807777E-03 -1.34958487E-04  2.72219027E-04  1.61100932E-02  5.91835494E-03
 -4.03756023E-02 -2.74540268E-02  3.46104034E-02 -2.63739404E-02  3.85849254E-04
 -3.09572916E-03 -1.34178061E-02  1.83412361E-02  1.40810650E-02  1.99530511E-03
 -3.32675669E-03 -1.35204671E-02  1.84859308E-02 -1.40996460E-02  2.00590986E-03
 -4.03388924E-02 -2.74442581E-02  3.44829611E-02  2.63193168E-02  4.06810879E-04
  9.68081994E-07  2.57473617E-06  1.04945971E-05  5.27252654E-05  5.39302203E-03
 -3.32137878E-05 -2.23907183E-04  7.97212414E-01  8.91554293E-05 -2.75511801E-05
  4.70960774E-05  1.29589102E-04  1.79757793E-05 -1.06700538E-01 -6.18907993E-03
 -2.13864640E-02  6.78464516E-02 -2.94113855E-02 -4.91038055E-02  5.06565795E-05
 -5.27985500E-01  4.42437880E-01 -2.83706971E-04  2.00256351E-02 -4.12340654E-05
  2.58827767E-05  1.90817056E-02  8.89826394E-03  6.96972191E-03  2.42780637E-02
 -8.01599898E-02 -3.92938898E-02  8.00070663E-04  1.91444715E-04 -4.81881446E-01
 -3.56811700E-01  1.32087728E-03 -2.54557606E-03 -1.02586685E-04  7.80139089E-04
  8.73118395E-03  7.98648536E-03 -3.62409491E-06 -1.23327770E-05  4.03960301E-05
  1.01700884E-05  4.69114815E-02 -5.90823942E-05 -9.24467875E-05 -5.75603443E-01
  4.31318517E-05  7.77780287E-06 -1.65462309E-05  3.04759185E-03  3.23345178E-06
 -3.70327773E-02 -6.96200920E-03 -2.42509132E-02  8.00608932E-02  3.92562664E-02
  6.86595449E-04 -2.47474774E-04  4.81783854E-01 -3.56929780E-01 -1.65353182E-03
  2.51859138E-03  1.47668354E-04  7.80566487E-04 -8.73326942E-03  7.96315580E-03
  6.18535028E-03  2.13730518E-02 -6.77609678E-02  2.93461321E-02 -4.91411644E-02
 -1.40456870E-04  5.28477601E-01  4.41974090E-01  5.36565722E-04 -1.99673496E-02
  4.64445121E-05  8.71903824E-05 -1.91263212E-02  8.87362162E-03 -2.24614946E-06
 -8.59007408E-06  3.32097608E-05 -2.16763305E-04  3.50337447E-01 -6.27270003E-05
  3.75499872E-06 -2.55847052E-01  8.96505157E-05  1.48629043E-05 -1.96737869E-05
  4.55380092E-05 -3.93214194E-05  1.83828585E-02 -9.19845820E-07 -3.32279005E-06
  6.90461901E-06 -7.32663821E-05 -1.73164233E-01 -1.36268335E-04  2.17031500E-05
  1.56101864E-02 -5.92409512E-05 -1.67336125E-05 -1.89343676E-06 -7.47869478E-03
 -1.52103644E-05 -2.54025204E-02  8.09911145E-02  3.62857184E-02 -4.45907836E-03
  9.01259423E-03 -6.49016971E-03 -8.10019922E-02 -3.63781667E-02  4.47789844E-03
  9.01310810E-03  6.50854904E-03 -2.42367760E-02 -8.63295606E-02  3.89357862E-01
 -2.35131302E-01 -2.72444492E-01  1.64359344E-04 -7.77588104E-02 -9.03408248E-02
  9.28747139E-05 -3.47145835E-03  3.44420919E-05 -1.66496431E-05 -4.40352851E-03
 -3.71833527E-02  2.42458949E-02  8.63626836E-02 -3.89529422E-01  2.35572036E-01
 -2.72258735E-01  2.91462167E-04  7.79559886E-02 -9.01242529E-02  5.89728473E-05
  3.45374909E-03  6.11902271E-06 -5.20695153E-05  4.48869733E-03 -3.71487665E-02
  4.73299874E-02  1.69928204E-01  1.12418535E-01 -1.00673824E-02 -1.56471003E-04
 -2.94522814E-02 -5.00608810E-02  3.87696459E-02  8.22759188E-03  8.45817560E-04
  2.93806507E-02  4.99979230E-02 -3.87452214E-02  8.26367486E-03 -8.20440542E-04
 -4.72763641E-02 -1.69848837E-01 -1.12254509E-01 -1.00005974E-02  1.28707995E-04
 -1.52262689E-05 -5.30300713E-05  1.86038400E-04  1.70925256E-05  2.73499069E-01
  8.00562331E-07  2.04361231E-04 -2.64970082E-01 -5.42415124E-05  1.81438148E-05
 -1.00901675E-05  8.46909786E-05  1.07842129E-04  4.35911213E-02 -2.07995942E-03
 -7.30718315E-03  2.48031738E-02  1.88978339E-01 -1.78299700E-01  1.51649565E-04
  1.43702911E-01 -8.74306587E-02  3.89116642E-04 -8.22176632E-03 -7.11494154E-05
 -2.29548397E-04 -1.06118960E-02  1.10168273E-02  5.29998228E-03  1.87654474E-02
 -6.62487117E-02 -2.22307721E-01 -1.39385465E-01  7.16162999E-04  1.09684058E-01
  7.80323253E-02  7.72828350E-04  5.56251436E-03 -7.41381639E-04  8.86101474E-04
 -3.93211268E-04 -1.90627387E-03  1.65870801E-05  5.80209336E-05 -2.11596250E-04
  2.52249763E-04  2.81753233E-01 -2.39669689E-04  2.05885375E-04  1.16338866E-01
  2.96458476E-05 -3.35189938E-05 -3.50181787E-05  5.19519400E-03 -9.36032346E-05
 -7.88233464E-02 -5.32923711E-03 -1.88673828E-02  6.65991087E-02  2.22300989E-01
 -1.38948356E-01 -1.02240775E-03 -1.09638568E-01  7.76885880E-02 -8.37236132E-04
 -5.52937891E-03  7.35436078E-04  9.57679326E-04  3.86356440E-04 -1.70850247E-03
  2.09596409E-03  7.36376091E-03 -2.50274053E-02 -1.88811012E-01 -1.78527915E-01
 -3.55667997E-04 -1.43948963E-01 -8.70378505E-02 -4.19586084E-04  8.18274410E-03
  7.10556343E-05 -2.41982056E-04  1.07530535E-02  1.12639261E-02 -1.31795421E-06
 -4.45066624E-06  2.03653216E-06  1.26968090E-04 -1.07792300E-01 -1.82848180E-05
  1.05973294E-05  1.14955573E-01 -1.09955441E-05 -3.00927342E-05 -4.01909944E-06
 -2.18354144E-05 -2.06911856E-05  4.38094588E-02 -2.83573184E-06 -1.01471368E-05
  2.35008977E-05 -1.42853311E-04 -2.64063722E-01 -3.89346338E-04  4.34617407E-05
 -1.08537129E-01 -1.94092796E-04 -1.67098751E-05 -8.89529404E-06 -1.66057470E-02
 -5.90808211E-05 -6.92656750E-02  1.34353894E-01 -2.17348464E-02 -5.82155588E-03
 -1.44507559E-02 -4.65795025E-03 -1.34403405E-01  2.16423573E-02  5.79630563E-03
 -1.44126722E-02  4.63781398E-03  4.73348656E-03  1.68878182E-02 -7.57451011E-02
  5.41455464E-02  1.16179985E-01 -9.49836243E-05  3.03406763E-02  4.78850497E-02
 -3.16619622E-05 -3.27707189E-03  5.87130505E-06 -2.23519689E-05 -4.89323281E-03
  1.11452892E-02 -4.74079380E-03 -1.69142272E-02  7.58780162E-02 -5.43953006E-02
  1.16182893E-01 -1.69479966E-04 -3.04488205E-02  4.78558486E-02 -1.09986266E-04
  3.28682828E-03 -3.91535632E-05  8.75856095E-06  4.84862810E-03  1.11473649E-02
  3.54003933E-02  2.86560640E-03  9.53355613E-03 -5.03777946E-03 -3.36091635E-04
 -9.13987747E-03 -3.39687029E-03 -3.35185097E-02 -2.51576487E-02  8.02713451E-04
  9.41848826E-03  3.66446301E-03  3.33951620E-02 -2.51727632E-02 -8.46130772E-04
 -3.56993292E-02 -3.03754485E-03 -9.54821033E-03 -5.01486554E-03  3.16857820E-04
 -2.03054967E-02 -7.09522883E-02  2.47494557E-01  1.07514288E-01 -2.92456724E-04
 -5.59975105E-04  1.17040202E-01  5.92709560E-04  7.66994136E-05  2.18968899E-02
 -1.57541199E-04 -3.44356138E-05  5.51742446E-02 -1.60362928E-04  1.05857300E-02
  3.71411864E-02 -1.35803442E-01  2.01955390E-02  2.15973120E-01 -9.28747863E-04
  1.43629237E-02 -1.58847618E-01 -1.55086877E-04 -1.47760986E-02  1.27139411E-04
  3.54873657E-05  8.01192082E-03 -1.28751792E-01 -1.03721994E-02 -3.63161869E-02
  1.30679387E-01  1.14994130E-01 -2.40037818E-01 -8.74855936E-04 -6.48909484E-04
  1.75055446E-01 -3.12247506E-05  8.60046029E-03  2.97025437E-04 -3.10109864E-04
 -1.96769072E-02 -1.21938581E-01  1.51543299E-02  5.30571422E-02 -1.88259658E-01
  1.28535033E-01 -3.94304488E-04 -2.90706487E-03  1.67074557E-01 -2.12785741E-04
 -2.31022245E-03 -2.00451363E-02 -1.08523062E-03 -1.53356763E-05 -8.41406644E-02
  1.84301248E-04 -1.03641266E-02 -3.62878762E-02  1.30589770E-01  1.15160581E-01
  2.40892514E-01 -8.94961152E-04 -2.05802604E-04 -1.75395382E-01 -1.11868313E-04
  8.58511124E-03  3.80369609E-04  2.94516467E-04 -1.97520968E-02  1.21989962E-01
  1.06018330E-02  3.71977053E-02 -1.35995860E-01  1.99971772E-02 -2.15321666E-01
 -1.17388049E-03  1.51941172E-02  1.59445656E-01 -7.52991644E-05 -1.47946849E-02
  1.92182463E-04 -8.32586215E-05  8.02024636E-03  1.28734217E-01  3.44503079E-03
  1.24738359E-02 -3.38714398E-02 -1.34018136E-02  1.20268409E-04  4.54369886E-04
  3.26219248E-02 -2.01242983E-04 -8.27630763E-05 -2.44832891E-02 -1.25839211E-04
 -8.36574763E-06  2.28520315E-02  1.98750554E-07  1.30172086E-03  4.68423468E-03
 -8.81924020E-03 -2.54592064E-02  2.00813584E-04 -4.33676250E-03  5.10864661E-02
  2.16946680E-05  1.62632897E-03  6.32291855E-03  4.15471783E-04  1.69774747E-05
 -1.77558551E-02  7.69525374E-05 -7.14982681E-03 -3.38816925E-02  3.26954410E-03
 -9.56668474E-03  2.35923232E-03 -6.94110591E-03 -3.38808771E-02  3.25697036E-03
  9.55734558E-03  2.36208296E-03 -2.75096681E-03 -9.92493593E-03  4.89786451E-02
 -7.16859368E-02  9.19330317E-04  3.95080713E-04 -2.71375077E-02  5.78361696E-04
  1.58265578E-04  5.41501714E-03  2.43235299E-05  4.61940214E-05 -4.36488098E-03
 -1.94797145E-03 -2.72781137E-03 -9.84217665E-03  4.86015066E-02 -7.13205792E-02
 -1.13822143E-03  3.20415976E-04 -2.69672435E-02 -6.35370519E-04  1.21115720E-04
  5.40865148E-03  1.18127942E-05 -4.27425683E-05 -4.34634884E-03  1.91634482E-03
 -1.35851359E-01 -9.05780222E-02 -3.96289642E-02  1.61720732E-03  4.75211731E-07
  1.72140427E-01  1.22290608E-01 -3.25642666E-02  4.69539690E-03 -2.60729656E-04
  1.72534178E-01  1.22528258E-01 -3.25986326E-02 -4.64929124E-03 -2.76014569E-04
 -1.35598923E-01 -9.05969266E-02 -3.97310725E-02 -1.59065786E-03  1.64554539E-05
  2.72628335E-05  9.51312344E-05 -3.16093784E-04 -2.54583399E-04 -7.94256273E-02
  3.05150961E-05  1.60388265E-05  1.73835899E-01  6.05255105E-05 -2.06247658E-05
  1.14951052E-05  1.61279340E-04  7.32415112E-05 -7.36447591E-02 -6.14264567E-03
 -2.14949352E-02  6.95091020E-02  2.14984348E-01  2.28276275E-01 -5.00927444E-04
 -8.83498228E-02  9.46761233E-02 -2.39703760E-04  3.93382768E-03 -8.07687248E-05
  7.85530648E-05  4.63374843E-02 -1.41555359E-02 -3.81657698E-03 -1.33830910E-02
  4.38734346E-02 -2.21161348E-01  2.23388822E-01 -2.82240804E-04 -4.55605612E-03
  2.85483983E-02  2.29814488E-04  6.36595523E-03 -2.75472037E-04  5.40605542E-05
  4.66372148E-02  1.20839836E-02 -1.42615137E-05 -5.00396966E-05  1.74035839E-04
  1.25977854E-05 -6.37893688E-02 -3.24267277E-05 -2.30773327E-04  6.83680530E-02
  3.54509644E-05 -5.27699382E-06 -1.59805906E-05  6.39278458E-04  2.54138889E-04
  5.36155909E-02  3.83554257E-03  1.34498901E-02 -4.41215716E-02  2.20427493E-01
  2.22728249E-01  3.45614367E-04  4.80273349E-03  2.89706903E-02 -2.57329167E-04
 -6.35638844E-03  2.72015412E-04  9.26316927E-05 -4.65281403E-02  1.18045768E-02
  6.12853496E-03  2.14458928E-02 -6.93350218E-02 -2.14347437E-01  2.28685742E-01
  8.17720593E-04  8.82387305E-02  9.42998924E-02  3.08775569E-04 -3.86436598E-03
  7.12392309E-05  1.24992165E-04 -4.62764065E-02 -1.43451840E-02 -5.43427234E-06
 -2.00428312E-05  4.86014854E-05  2.70052262E-04 -1.43172084E-03 -8.94300439E-05
 -1.77107694E-05 -4.90496038E-02 -2.19321803E-05 -1.14269709E-06  7.00962127E-06
  3.51155687E-05 -7.98174553E-05  2.53989002E-03 -9.41394073E-06 -3.40153906E-05
  7.56970329E-05 -1.73964880E-04 -6.88373102E-02 -8.72707854E-05 -7.79002946E-05
 -6.48083972E-02 -4.73492331E-05 -4.34655589E-06 -6.32047699E-06 -4.20438402E-03
  2.78304331E-05 -4.40296215E-03  2.86065371E-02 -9.45889784E-03  2.76970342E-03
 -7.35126091E-03 -4.48433835E-04 -2.86630236E-02  9.44329064E-03 -2.80283179E-03
 -7.33645930E-03  4.38387721E-04 -1.69431482E-03 -6.03113672E-03  2.68581249E-02
 -3.92273261E-02  2.36990517E-02 -1.53728707E-04 -1.79267272E-02  1.22048761E-02
 -4.36669344E-05 -1.04863932E-04 -3.93391194E-06 -1.42680324E-05 -7.07791944E-03
  5.20917151E-04  1.67505135E-03  5.96189881E-03 -2.65284652E-02  3.92612794E-02
  2.40520669E-02  1.64592130E-05  1.79326238E-02  1.23127765E-02 -6.21684962E-06
  1.05070905E-04  2.61708024E-06  2.97731949E-07  7.08167263E-03  5.05619232E-04
 -1.37635850E-01 -3.97623141E-02  3.39070883E-02 -1.75890523E-03 -4.81108859E-05
 -1.44647876E-01 -6.25957577E-02 -2.40803176E-02 -4.47672753E-03 -1.39595574E-04
  1.44094841E-01  6.21732244E-02  2.40684071E-02 -4.43617019E-03  1.35416237E-04
  1.37698921E-01  3.99162941E-02 -3.37193820E-02 -1.71390126E-03  5.66023542E-05
  8.46249066E-03  2.93981586E-02 -9.41317440E-02 -5.28946420E-02 -4.09055887E-05
 -3.96411843E-02  1.06014200E-01 -4.72291203E-04 -3.81765144E-03 -5.85422166E-03
 -6.15744021E-03 -3.51039938E-05  1.21849213E-01  6.42022299E-05 -8.20869562E-04
 -2.88986551E-03  1.23758036E-02  3.04780609E-01  6.65371617E-02 -4.64109712E-02
 -4.98341018E-02 -2.05522538E-02 -6.56653436E-03  1.45596481E-02 -4.47346995E-03
 -3.03041857E-03  5.06007679E-02 -2.19372391E-02 -1.48685765E-03 -5.20407926E-03
  2.01770759E-02 -2.87203562E-01 -1.14866345E-02 -6.64565566E-02  9.20260248E-02
  2.41676807E-03 -2.45826346E-02  1.60979831E-02 -1.25410647E-03 -1.35972313E-02
  6.08697216E-02 -1.66751881E-03  8.97087351E-03  3.12884113E-02 -1.09975515E-01
  2.01021544E-01 -1.40280069E-04 -1.21137810E-01 -5.30075690E-02  1.91966092E-04
  9.68051067E-03 -2.17074370E-02 -8.40330745E-03 -8.38067128E-06  1.41081364E-01
 -9.34505083E-05 -1.48603235E-03 -5.20138522E-03  2.01759192E-02 -2.87869702E-01
  1.12955351E-02 -6.64514212E-02  9.15015712E-02 -2.25885806E-03 -2.46119981E-02
  1.61140223E-02 -1.23760453E-03  1.35769822E-02  6.09885802E-02  1.61029873E-03
 -8.41504500E-04 -2.96306753E-03  1.26399046E-02  3.05324677E-01 -6.68600728E-02
 -4.66518872E-02 -5.04606587E-02  2.01764103E-02 -6.56033611E-03  1.45749660E-02
 -4.46926406E-03  2.96721505E-03  5.07272702E-02  2.19051189E-02 -5.33221961E-03
 -1.91409233E-02  4.29420582E-02  1.40178107E-01  8.19766732E-05  1.60048571E-02
  4.85783568E-03  5.66032493E-05 -3.95071260E-03 -1.38833588E-03 -6.23759309E-03
 -4.17518115E-05 -4.02866174E-02  3.76723178E-06 -8.56005544E-03 -3.07911063E-02
  6.85385849E-02 -1.81281297E-01  2.74691231E-04 -1.08471460E-01 -4.16572345E-03
  1.06921311E-04 -5.44012677E-02  5.37287779E-03  9.28455540E-03  9.11145283E-06
  4.65723885E-03  3.65590133E-05 -3.67540538E-02 -4.17105790E-02 -1.16908463E-02
 -1.46485681E-02 -1.94704370E-03 -3.65829212E-02 -4.17493956E-02 -1.16652819E-02
  1.46582779E-02 -1.94871701E-03 -3.19040254E-03 -1.14552782E-02  5.35720893E-02
  5.80781213E-02 -7.71104245E-02  1.76946104E-02  2.18631760E-02 -2.08966377E-02
  7.63433749E-03 -1.89703823E-03  1.23135341E-03  1.58993686E-03  2.96632768E-03
  7.96113635E-03 -3.18390714E-03 -1.14319837E-02  5.34582026E-02  5.81952404E-02
  7.73481539E-02  1.75076431E-02  2.19195765E-02  2.10072552E-02  7.58728954E-03
 -1.88713989E-03  1.24060257E-03 -1.57967433E-03  3.00910369E-03 -7.95113220E-03
 -1.07859147E-01 -4.38146758E-02  3.67132256E-02 -1.40401434E-02 -7.21575683E-03
 -6.86011156E-02 -3.04324701E-02 -5.56443797E-02 -2.22718046E-02 -8.44882899E-03
 -6.88710244E-02 -3.05089682E-02 -5.56545304E-02  2.22905163E-02 -8.44150590E-03
 -1.08042009E-01 -4.38892569E-02  3.68340269E-02  1.40660751E-02 -7.22929292E-03
  2.43043217E-03  8.43933491E-03 -2.74284200E-02 -1.28208388E-02  8.67595652E-05
  1.49582194E-01  3.10098372E-02 -4.10546238E-04  1.33059110E-02 -3.56969027E-03
  2.06812391E-02 -6.53383785E-06  3.39101698E-02  3.10003606E-05 -5.81620588E-04
 -1.99619280E-03  7.34812732E-03  9.47875056E-02  2.10349138E-02  1.66564516E-01
 -1.48878451E-02  9.63583050E-04  2.27785287E-02  6.25600662E-03  1.29396895E-02
  1.26099373E-02  1.27836598E-02 -5.50017833E-03 -7.86619482E-05 -2.30425449E-04
 -4.35608016E-04 -9.14229091E-02 -8.76404946E-03  2.18023549E-01  5.10700314E-02
 -2.95312447E-02  7.54747866E-02  5.75550662E-04 -4.41048802E-04  3.68680985E-02
  2.52395651E-02  4.32346278E-03  1.59163631E-03  5.65397214E-03 -2.10546714E-02
  9.24196935E-02  1.26889529E-04  3.49579562E-01 -8.84301966E-02  2.67063017E-04
 -3.17837953E-02 -5.77293978E-03  3.78348124E-03  3.88110621E-06  4.74612445E-02
 -1.25261892E-04 -8.87789385E-05 -2.66074555E-04 -3.15901873E-04 -9.13129013E-02
  8.42273392E-03  2.18002483E-01  5.06133684E-02  2.97423793E-02  7.54779921E-02
  5.79942483E-04 -4.59972435E-04 -3.68816084E-02  2.52685894E-02 -4.34376383E-03
 -5.83151970E-04 -2.00170256E-03  7.36396880E-03  9.48313028E-02 -2.14776105E-02
  1.66473429E-01 -1.54765943E-02 -1.34977203E-03  2.27618141E-02  6.22718792E-03
  1.29177238E-02 -1.26302519E-02  1.28289758E-02  5.50616191E-03 -1.63269812E-03
 -5.87300782E-03  1.34161047E-02  4.05919313E-02 -7.38002942E-06 -5.24883957E-02
  7.30853024E-04  5.14523355E-05  1.42923200E-02 -1.27682443E-04  2.30798662E-02
 -1.75035934E-05 -1.18488014E-02  1.04212764E-05  5.07943472E-04  1.85578523E-03
 -4.55865233E-03 -9.43039674E-02 -3.07704125E-04  2.82396338E-01 -3.58399729E-02
 -1.48240245E-04  1.57697027E-01  1.33237522E-02 -3.72529898E-02 -9.82204963E-06
  7.10533173E-04 -5.02098293E-05 -9.83293974E-03 -5.84868669E-03 -6.58837859E-04
 -3.52133743E-03  1.28025213E-02 -1.00306406E-02 -5.80183335E-03 -6.41388424E-04
  3.47506291E-03  1.28113123E-02 -9.02667221E-04 -3.24354077E-03  1.52437771E-02
  1.85288108E-02 -2.24070348E-02 -6.34705876E-02  7.06033946E-03 -6.16723624E-03
 -2.74809095E-02 -5.63003727E-04 -4.35424378E-03 -5.36291391E-03  7.39213599E-04
  2.57273527E-03 -9.02064801E-04 -3.24124763E-03  1.52280627E-02  1.85268351E-02
  2.23785874E-02 -6.36332772E-02  7.06410221E-03  6.15363449E-03 -2.75284682E-02
 -5.72501244E-04 -4.36160573E-03  5.36839335E-03  7.38627710E-04 -2.57743223E-03
 -3.30287043E-02 -1.44050615E-02  1.08891988E-02 -3.65532033E-03  2.51384054E-02
 -2.10129634E-02 -3.14809530E-02 -1.49130242E-02 -8.45922035E-03  2.47237994E-02
 -2.10855047E-02 -3.14985610E-02 -1.48623317E-02  8.41994724E-03  2.47341610E-02
 -3.31432606E-02 -1.44241493E-02  1.09497036E-02  3.65080936E-03  2.51306245E-02
 -1.11797481E-05 -3.89864148E-05  1.31817342E-04 -1.36290833E-04 -2.82243515E-01
  3.63897611E-04 -7.39276939E-05  1.26972119E-01  5.25040553E-05 -9.94705410E-06
  2.95245289E-05  1.41839450E-04  1.48881548E-05 -5.70393030E-02  4.32047204E-04
  1.78630351E-03 -8.68637026E-03 -2.38437428E-03  2.55159443E-01 -1.51280926E-04
 -3.72594311E-02 -9.66275062E-02  3.00134458E-04  1.48913032E-02  1.38499669E-04
  3.31024334E-05  2.57567849E-02 -1.00293227E-01  3.37442943E-04  9.53672784E-04
 -8.29720149E-04 -1.78961914E-02 -2.72117393E-01  8.67882999E-04 -4.28288943E-02
  9.84241810E-02  2.42166958E-04 -1.26889725E-02 -2.15664872E-04  3.41427213E-04
 -2.74773515E-02 -1.00333590E-01  5.37393375E-06  1.87751794E-05 -6.13717588E-05
  7.40238193E-05  3.15985683E-01 -2.82921702E-04  1.97046344E-04 -1.13961655E-01
  8.80023159E-05 -1.89401504E-06 -7.10559575E-05  2.21707459E-03 -6.22444447E-05
 -6.64915105E-02 -3.41860551E-04 -9.69164233E-04  8.95071841E-04  1.78724112E-02
 -2.72067516E-01 -7.46588160E-04  4.28269067E-02  9.81128286E-02 -2.94616117E-04
  1.27061090E-02  7.85988451E-05  4.30626830E-04  2.74452046E-02 -1.00278390E-01
 -4.28631469E-04 -1.77400365E-03  8.63727257E-03  2.50383599E-03  2.55150094E-01
  1.03992854E-03  3.73733893E-02 -9.65287172E-02 -1.53895635E-04 -1.48956066E-02
 -2.38567837E-04  2.61647282E-05 -2.58585924E-02 -1.00172381E-01  2.33557274E-06
  7.76566068E-06 -1.70922207E-05  1.04468532E-04  2.55733029E-02 -1.00096129E-04
 -5.76418797E-06 -7.92370691E-02  1.40398810E-05 -1.67565442E-05  5.83510436E-05
  1.05362554E-04  1.49937176E-04 -3.79407436E-02 -3.52584173E-06 -1.27034335E-05
  2.85814376E-05  4.13756062E-05 -5.67711943E-02 -6.14689874E-04  1.25556023E-04
  1.55980843E-02 -3.13796687E-04 -3.33441858E-05  1.37587357E-05 -4.45726081E-03
 -3.98958403E-05 -4.92186261E-02  4.62402462E-02 -2.75565354E-03 -6.71745860E-03
 -7.82943424E-03 -1.41670473E-03 -4.62629738E-02  2.63173601E-03  6.70853150E-03
 -7.79203089E-03  1.38889563E-03 -1.33735327E-03 -4.78571531E-03  2.11683620E-02
 -4.47203695E-02 -2.84523770E-02 -4.89100128E-04 -3.12531696E-02 -1.19303671E-02
 -1.70130931E-04  2.10545682E-03 -5.78475869E-06 -1.85367395E-05 -9.80549192E-04
 -2.73630263E-03  1.32791566E-03  4.75112669E-03 -2.09894308E-02  4.40057079E-02
 -2.84580641E-02  2.77221199E-04  3.10024580E-02 -1.18738868E-02  1.01412329E-04
 -2.08334152E-03  7.64356361E-06 -5.72563865E-06  9.86472018E-04 -2.73317079E-03
 -1.42037611E-01 -9.35082195E-02 -2.39249455E-02  1.43693695E-02 -1.15878930E-04
  1.47582809E-01  1.10550450E-01 -2.50700048E-02 -1.41628691E-02  4.38271920E-04
 -1.47536861E-01 -1.10420700E-01  2.50080184E-02 -1.41461549E-02 -4.03482540E-04
  1.42019157E-01  9.35313595E-02  2.38962822E-02  1.43408179E-02  1.67008229E-04
  1.81464716E-04  6.25375500E-04 -2.23376577E-03  2.87846724E-03 -3.30330282E-04
 -3.47008376E-01  2.56980925E-03  8.99509073E-05 -1.44204033E-03 -1.44104305E-03
 -2.51010695E-02 -2.72170230E-05 -8.11948690E-04 -7.24195087E-05 -2.33511253E-04
 -7.77181854E-04  2.59678586E-03  6.92633579E-03  2.10280682E-03 -2.48450697E-01
 -2.56458969E-03  6.00585382E-03 -7.53343671E-02  2.34621229E-03  1.30605767E-02
 -3.73529304E-02 -1.48136399E-03  8.21224047E-04  1.96283165E-04  7.46735864E-04
 -4.99995378E-03 -8.03794636E-03 -3.54400704E-03 -6.18675999E-02  2.47745144E-02
 -3.13077199E-02  4.24915659E-02 -4.43412244E-03  3.52051464E-02  3.04925044E-02
  7.03509433E-03  4.42719700E-03 -8.64493164E-04 -2.95361699E-03  1.03263660E-02
  2.62476268E-02  4.45406360E-04  1.95400811E-01 -8.01833098E-02 -6.01363886E-05
 -7.58654089E-02 -1.01518055E-03  5.13141023E-02  6.24314617E-06  4.06215938E-03
 -1.46979536E-04  1.86931530E-04  7.14453346E-04 -4.90067784E-03 -7.89817745E-03
  2.81784946E-03 -6.17783805E-02  2.49129395E-02  3.16737838E-02  4.24919310E-02
 -4.44674975E-03  3.51676247E-02 -3.05009175E-02  7.10009069E-03 -4.73965630E-03
 -2.23199205E-04 -7.41337672E-04  2.48149848E-03  6.82822034E-03 -1.21186346E-03
 -2.48358922E-01 -2.43966009E-03 -6.12435688E-03 -7.53279199E-02  2.36429777E-03
  1.31047384E-02  3.73232197E-02 -1.53166728E-03 -1.13807308E-03 -7.91689767E-05
 -2.89465570E-04  7.87989737E-04  5.97748882E-04 -8.64300853E-06  3.63197451E-02
 -3.32545555E-04 -1.92976695E-05 -4.01712611E-02  1.80510282E-04 -5.46585997E-02
  1.54385324E-04 -2.37188585E-03  6.91658405E-05  3.53639220E-03  1.27715898E-02
 -2.90731777E-02 -3.63948084E-02 -3.25693616E-04  3.91747593E-01 -3.51657642E-02
 -1.12348840E-04  2.06175828E-01  1.40705360E-02 -1.71836328E-02 -1.58375766E-05
 -1.50276019E-03 -8.70711283E-05  8.06384445E-03  7.12562682E-03  4.05863485E-03
  1.11607840E-04  1.06480850E-02  7.88188219E-03  7.16619863E-03  4.09001722E-03
 -1.79010722E-04  1.06485791E-02 -5.13109063E-05 -1.80865241E-04  8.15275030E-04
  6.03109282E-03 -1.70136973E-03  1.30942600E-01  2.27133416E-03 -1.51718563E-04
  5.99256380E-02 -1.03726936E-04  7.82345624E-03  6.51814754E-03 -3.40962035E-05
  3.63143080E-04 -4.41577358E-05 -1.55720428E-04  7.06734913E-04  6.70836213E-03
  2.43768976E-03  1.32366877E-01  2.53893304E-03  5.24911265E-04  6.04609591E-02
 -7.01681729E-05  7.84606064E-03 -6.56716446E-03  3.12104343E-05 -3.56394057E-04
 -2.35272068E-03 -2.71882378E-03  3.31576320E-04  3.26540513E-05 -2.37377847E-02
 -1.37235115E-03 -2.44295669E-02  1.53099209E-03 -1.66347753E-03 -1.63299089E-02
 -1.73541989E-03 -2.48076712E-02  1.60790904E-03  1.63014405E-03 -1.63088174E-02
 -1.97209355E-03 -2.53404618E-03  3.00077969E-04  5.60591959E-05 -2.37011888E-02
  8.15789689E-03  2.82074656E-02 -8.44574731E-02  2.43862139E-01 -2.10528613E-04
  3.52425545E-03  1.07275375E-01  1.67103717E-04 -8.71492945E-05  3.40638490E-02
  2.70468808E-04  5.08827579E-05 -6.55312894E-02 -4.85358369E-05 -1.96872239E-05
 -2.56337783E-04  4.14413222E-03 -4.41855260E-02  7.04837421E-02  2.38366984E-03
  3.75830703E-02 -1.89327460E-02  1.02126554E-03 -2.60378407E-03 -1.17104592E-04
  3.96596191E-04 -2.37986349E-02  1.23333790E-02  9.79893085E-04  3.38630620E-03
 -1.07330361E-02  5.47153458E-02 -2.38239839E-02  2.64457164E-04  2.04369909E-02
 -1.04468118E-02 -8.68398828E-04 -2.95787956E-03 -3.18759876E-04 -4.13728492E-04
 -4.28729255E-03 -1.55463679E-02  1.75328216E-03  6.23541002E-03 -2.28932545E-02
  9.95897007E-03  2.10590158E-04 -2.58457293E-03  3.54002487E-04 -9.44766948E-05
  1.07169354E-03  5.88062658E-03 -4.08156835E-04 -1.65253857E-05 -1.02365646E-02
 -2.60386731E-05  9.81916908E-04  3.39367776E-03 -1.07586901E-02  5.48174524E-02
  2.35157151E-02  7.17305973E-05  2.05396459E-02  1.04981016E-02 -9.50801712E-04
 -2.93949535E-03 -2.75304013E-04  4.13047509E-04 -4.25173910E-03  1.53921389E-02
 -2.36453933E-05 -2.71432277E-04  4.21690243E-03 -4.43039564E-02 -7.00125272E-02
  2.07603907E-03  3.77082792E-02  1.89142290E-02  1.02757783E-03 -2.62599462E-03
 -1.45044307E-04 -3.34012940E-04 -2.38868864E-02 -1.24624518E-02  2.95227334E-03
  1.11115286E-02 -2.91337608E-02 -1.49776055E-01 -1.13104732E-04 -3.12736060E-04
  5.59967390E-02  1.69575409E-05  4.88284311E-04 -8.66972555E-04  5.42847789E-04
 -4.08762913E-04 -1.88407089E-01 -1.46700299E-04  7.10834984E-04  2.61213139E-03
 -6.37208325E-03  6.70103001E-03 -3.05801423E-05 -4.62055781E-03 -1.98360347E-03
  8.65793567E-06 -3.44549185E-03  5.94299896E-04 -1.78456280E-04 -3.35048701E-06
 -4.21627407E-03 -3.04122504E-05  5.20979806E-04  5.81523292E-03  8.68295234E-04
  2.43263477E-03  5.59310716E-05  4.61415410E-04  5.82497954E-03  8.71927607E-04
 -2.44511723E-03  5.74351123E-05 -7.28421914E-04 -2.20953095E-03  3.79941724E-03
  4.85389497E-01 -8.67318225E-02  2.90144705E-05  1.68342857E-01  1.15296746E-02
 -1.32427065E-04 -7.16838079E-03 -7.29411652E-05 -2.13703250E-05  1.21074924E-03
  5.53405002E-03 -7.27640589E-04 -2.20741867E-03  3.80645166E-03  4.85817787E-01
  8.77936469E-02 -2.58584370E-03  1.68537143E-01 -1.10614826E-02 -1.10866086E-03
 -7.14695865E-03 -8.67281468E-05  1.02767643E-04  1.24415341E-03 -5.52478836E-03
 -5.60675080E-03 -2.22259645E-02 -2.74331400E-02  5.06842022E-03  2.25400844E-04
  2.91206367E-02  8.26517355E-03  2.59619740E-03 -1.36889287E-04  2.37089697E-04
  2.89478838E-02  8.17339812E-03  2.62911012E-03  1.17029813E-04  2.32995019E-04
 -5.35772328E-03 -2.21391538E-02 -2.74072451E-02 -5.04308482E-03  1.10480358E-04
 -1.90427527E-05 -6.61584913E-05  1.97712303E-04 -5.82619626E-04 -2.47559956E-04
 -4.66429100E-04 -1.73687927E-04 -2.55534570E-03 -1.19496026E-05 -1.15009551E-04
 -4.22773928E-05  2.47764956E-02  1.20786880E-04 -1.60244725E-05 -3.10365304E-06
 -1.06102696E-05  3.65800750E-05  6.70307013E-05  1.13210968E-04  3.39645704E-02
  2.05199364E-03 -1.09500275E-03  8.64208238E-03 -6.13468383E-06  4.23754283E-03
  8.24179278E-03  8.68041451E-05 -8.67143723E-05 -3.54041777E-06 -1.20960522E-05
  2.60902220E-05 -1.13106065E-04 -2.16558745E-05  2.02511766E-02  2.20212983E-03
  1.27664865E-03  7.17565001E-03  4.00274503E-06 -3.47764516E-03 -1.41655206E-03
 -1.28791702E-05  3.82377396E-06 -8.47736199E-06 -2.99675705E-05  1.09726804E-04
 -2.81715715E-05  1.80052604E-04  2.19633250E-04 -1.71856614E-04  2.57447592E-03
 -1.28294658E-04 -9.64425269E-06  7.83080687E-05 -4.09145580E-03  1.50630873E-05
 -3.90037041E-05  2.46122163E-06  8.41683702E-06 -1.51777849E-05 -8.76266632E-05
 -1.58249230E-04 -2.05188620E-02 -2.29268311E-03  1.35690291E-03 -7.03128982E-03
  8.78529865E-06  3.56923239E-03 -1.49802800E-03  3.61569033E-05 -1.34507221E-04
 -2.64172895E-06 -7.73898687E-06 -1.55288706E-05  3.66766008E-05  5.78484850E-04
 -3.46771334E-02 -2.45264188E-03 -1.15776594E-03 -8.92255645E-03  2.64902850E-05
 -4.19896128E-03  8.33683177E-03  1.24183210E-05 -7.63788592E-05 -5.74729867E-06
 -2.19342118E-05  6.12482816E-05  3.26082411E-04 -4.61138500E-06  8.46808432E-05
 -1.41247920E-04  2.16952914E-04 -3.06218904E-05  1.35811608E-04  1.13082362E-05
 -1.30808946E-01  5.14990860E-04  1.06870446E-04  4.30183443E-06  1.55041279E-05
 -3.53467521E-05 -3.66735663E-05  5.74984475E-05  5.42512758E-04 -7.10064175E-05
 -3.44402974E-04  2.86954365E-04  1.78986694E-05 -1.94738174E-05  8.10845417E-06
  1.12106351E-05 -3.08958917E-05  6.05389846E-05 -1.52388373E-04 -7.58879074E-06
 -8.60242080E-05  7.75971606E-05 -3.24630279E-05  2.17413836E-04  8.87002858E-06
 -9.06890068E-05 -5.16491033E-05  1.44152400E-06  3.94820184E-06  4.94096838E-06
 -1.44536774E-03  5.76966813E-04  5.36639244E-01 -5.16770342E-04  1.25569672E-04
  2.09910167E-01 -5.74590495E-07  4.51333668E-03  2.08659802E-02 -1.51331827E-05
 -2.58466667E-05  2.64185543E-06  8.56302518E-06 -2.90976482E-05 -8.34945136E-04
 -4.40949350E-04 -5.36273907E-01 -2.76499026E-04 -6.54949653E-05 -2.09722496E-01
 -7.61706786E-06 -4.50924751E-03  2.08381390E-02 -1.82143940E-05 -6.27349892E-06
 -7.42359972E-05  7.95268002E-05 -9.41360137E-05  1.05490867E-04  1.45591172E-02
  4.74280359E-06 -1.05211144E-05 -1.96971086E-04 -1.01639049E-04 -1.81545092E-04
 -1.58073144E-04 -4.68786434E-05  2.19338670E-04 -1.19406666E-04  1.16147827E-04
  1.64688757E-04 -7.01220688E-05  2.66294852E-04  1.25606540E-04 -1.45820908E-02
  6.37576295E-06  2.31917248E-05 -9.07438607E-05  1.13910201E-04  4.67648233E-02
 -2.34566077E-04  1.07935125E-04  1.91375648E-01 -5.62229190E-05  2.77742338E-05
 -1.42283816E-05  1.65742856E-04  7.87988662E-05 -2.77108232E-02  4.43912718E-03
  1.56276049E-02 -5.02360790E-02  7.50671817E-02  1.13368401E-02 -4.85604745E-04
 -3.19529077E-02 -5.25620147E-02 -4.77546175E-05  1.40633955E-02 -3.98000545E-05
  2.94608367E-06  2.28022113E-02  3.71360307E-03 -2.31388221E-03 -8.15923531E-03
  2.72015570E-02 -4.65734416E-02 -1.19185321E-03 -2.14150668E-04 -5.12341047E-02
  2.93610076E-03  1.54855504E-04 -4.04946402E-03 -4.67371564E-06  6.66637207E-05
 -7.55535206E-04 -7.81762300E-03  5.42340149E-06  1.89276680E-05 -6.67426364E-05
  9.06135172E-05  2.47001518E-02  9.15504250E-05 -4.25599094E-05 -6.13433510E-02
 -9.26894826E-05 -1.24418141E-05  6.18387562E-05  3.28346117E-04  1.11276485E-05
  5.52545767E-03  2.30611840E-03  8.13187636E-03 -2.71081021E-02  4.64520338E-02
 -1.12362856E-03 -4.10825282E-05  5.12798586E-02  2.83008307E-03 -8.56064602E-05
  4.06169122E-03  5.86897590E-05  1.60089945E-05  7.65370470E-04 -7.71197187E-03
 -4.42350338E-03 -1.55723148E-02  5.00423058E-02 -7.48111845E-02  1.10795074E-02
  7.83884490E-05  3.19759110E-02 -5.23863523E-02 -1.09063571E-04 -1.40454548E-02
  1.35854261E-05  6.63221373E-05 -2.27510332E-02  3.80453784E-03 -1.14728030E-06
 -3.35817540E-06 -2.57121405E-06 -2.00406553E-05  2.74276588E-02 -2.29269637E-05
  1.07362234E-04 -1.01452855E-01 -7.59256646E-06 -1.65729932E-05  3.04390229E-05
 -6.20546181E-05  1.07490934E-05 -1.34514922E-01  1.30393656E-06  4.73995112E-06
 -1.07576566E-05 -7.16410073E-05 -1.06011311E-02  3.45805337E-04 -2.90032012E-05
  7.43928619E-03  1.84190120E-04  1.50291104E-05 -8.10879565E-06 -3.13452032E-04
 -7.33553811E-06 -5.66301449E-03  7.09202945E-03  7.92894015E-03 -2.15728071E-03
 -2.69028534E-04 -6.89240813E-04 -7.08675566E-03 -7.92381719E-03  2.15280664E-03
 -2.63572596E-04  7.11397281E-04  1.22428691E-03  4.14166793E-03 -1.52900899E-02
  4.11323744E-01 -3.66746739E-01  5.70423239E-04  1.64445192E-01 -1.94370201E-01
  2.73900960E-04  1.09895658E-02  9.66863750E-06  3.61452167E-05  2.71268663E-02
  3.75442510E-03 -1.23123628E-03 -4.16595738E-03  1.53948641E-02 -4.10279134E-01
 -3.66996785E-01 -1.09000265E-05 -1.63985251E-01 -1.94568420E-01  3.00835904E-05
 -1.09986911E-02 -1.51504682E-07 -1.67099943E-05 -2.71128352E-02  3.66535429E-03
 -2.87313246E-02 -5.24738182E-02 -2.58654776E-02 -1.69991719E-02 -3.81796347E-05
 -5.20494638E-03  4.40239995E-03 -5.84744820E-03 -1.00962932E-03 -1.39039804E-05
  5.23853640E-03 -4.38761141E-03  5.79180729E-03 -9.94099869E-04 -3.33225733E-05
  2.85548046E-02  5.23433941E-02  2.57370852E-02 -1.69716399E-02  1.39420666E-05
 -6.80418622E-07 -2.42118162E-06  1.03974242E-05  6.69351780E-05  1.10445467E-04
  1.11179396E-05  7.39241125E-05 -1.82158573E-03  7.52852110E-06  4.49343412E-05
  2.22245784E-05  9.58008545E-02  7.53496883E-05  1.00895069E-05 -5.76217804E-06
 -2.13907312E-05  1.17734955E-04 -2.29427800E-05 -6.39978173E-04 -3.50831361E-01
  1.41798717E-03 -1.79007893E-03 -5.12489683E-02 -8.12719904E-07 -4.69941578E-02
  5.19674699E-03  2.31087190E-05 -2.15796555E-04  3.44741348E-05  1.20845343E-04
 -4.07852063E-04 -2.18382468E-04 -9.37524630E-04 -3.46858677E-01  8.45042095E-04
  2.87142475E-03 -5.52239791E-02 -1.28764090E-04  4.53429588E-02  2.55760049E-03
 -2.69456896E-04  6.48373770E-05  4.18206405E-06  1.47421640E-05 -5.29139495E-05
  3.83703518E-05  2.28698276E-04  8.50955377E-06  6.78252902E-05  1.32670034E-03
 -2.74828418E-06  4.94998703E-06  1.63932734E-05  8.90894455E-02  3.65733305E-06
 -1.24271783E-03 -3.00972238E-05 -1.05419301E-04  3.55237378E-04  2.58874252E-04
 -9.56893769E-04  3.46862925E-01 -8.04193840E-04  2.75979548E-03  5.52366043E-02
  1.60232926E-04 -4.53382826E-02  2.57016227E-03  2.53623706E-04  1.65311167E-04
  1.02645009E-05  3.71841118E-05 -1.72409389E-04  2.24741229E-04 -9.69317423E-04
  3.50857943E-01 -1.42785806E-03 -1.72922162E-03  5.12621877E-02 -1.25775752E-05
  4.69913519E-02  5.19437551E-03 -1.45628197E-05 -1.67130681E-04 -1.03448743E-06
 -3.67166252E-06  6.92796727E-06  1.52500609E-05 -1.43472255E-05  3.30916413E-05
  1.26873218E-05  1.99177762E-04  2.83016518E-05  3.27495724E-06  5.95552955E-06
 -1.39518429E-02 -3.73646954E-05  8.15591313E-05 -3.99838959E-07 -1.34186725E-06
  2.03125162E-06 -1.97300241E-05 -1.90219835E-03 -1.54328353E-05  7.44332543E-06
  1.39761181E-03 -7.24515262E-06  1.23337334E-06 -4.68352970E-06 -2.61079922E-04
 -7.06331795E-06 -7.97541102E-04 -7.22378305E-04  9.67045034E-04 -8.83477623E-04
 -1.92462704E-05  2.67129097E-03  7.19175031E-04 -9.88848878E-04  8.84463901E-04
 -9.42941413E-06 -2.66136828E-03 -9.81249440E-07 -3.46238138E-06  1.81636474E-05
 -1.64613984E-04  2.15319821E-04  5.23381070E-02 -7.52507429E-05  1.38221637E-04
  2.35903462E-02 -1.38443467E-05  1.07458426E-05  1.72223773E-03 -1.33758238E-05
 -6.10240245E-07 -2.88389251E-06 -1.03167102E-05  4.70776254E-05  3.29877086E-04
  2.41762374E-04 -5.23105018E-02  1.39890806E-04  1.34221181E-04 -2.35805726E-02
  1.03985627E-05 -1.70901316E-05  1.71975042E-03  8.09737949E-06 -8.10409224E-06
 -6.61548383E-07 -2.02473625E-04 -1.36074958E-04  7.06311706E-05 -3.68805131E-02
  1.60629741E-04  1.57895808E-03 -5.32662682E-04 -8.67242804E-05 -3.86963544E-02
 -1.08499049E-04 -1.52776164E-03  5.12376557E-04 -8.17587410E-05  3.86942052E-02
 -3.15302736E-05  1.77224577E-04  1.41799320E-04  3.54402395E-05  3.68740405E-02
  2.21569951E-05  7.77507025E-05 -4.10301557E-04  1.77484469E-04 -1.22341140E-04
  3.46846607E-01  1.56809953E-03 -5.70929831E-04 -1.49781365E-02 -9.46546475E-04
 -1.06933029E-04 -1.39174791E-05 -5.08492092E-04 -2.68477859E-05 -5.28223909E-05
 -1.50279667E-04  4.00544767E-04  1.02485900E-03  2.21567717E-04  2.74659158E-02
 -4.40525644E-03  2.09794609E-03  2.01880874E-02  1.66107707E-03 -6.26098364E-02
  4.47177235E-02 -1.16721521E-03  4.27223160E-04  1.55864505E-05  1.35962826E-04
 -3.42313182E-03 -1.60427396E-03 -1.18017914E-03 -2.72203984E-01  1.70479716E-02
 -2.24948324E-02 -2.06029196E-02 -3.97176230E-03 -2.66590410E-02 -1.41219651E-02
  3.91366239E-03  2.71344893E-03 -6.64799940E-04 -2.26268695E-03  8.67922487E-03
  1.08135512E-02  2.51263485E-05 -1.92725784E-01 -6.66816982E-02  5.59088097E-04
 -1.00086589E-01 -3.06180724E-03  9.49301284E-02 -2.14929267E-05 -2.54890741E-03
 -7.71120443E-05  2.73008602E-06  9.02490290E-05 -3.25432224E-03 -1.62967614E-03
  1.16164907E-03 -2.72211213E-01  1.61921383E-02  2.31098366E-02 -2.06365964E-02
 -3.97246392E-03 -2.66416103E-02  1.41379818E-02  3.92017926E-03 -2.75443332E-03
 -4.77325881E-05 -1.32016451E-04  3.27672083E-04  1.04616908E-03 -1.83829820E-04
  2.75034925E-02 -5.29785089E-03 -2.78668505E-03  2.02660787E-02  1.67432022E-03
 -6.26270188E-02 -4.47153843E-02 -1.17146462E-03 -4.53216701E-04 -2.34330133E-05
 -9.07324967E-05  3.23257222E-04  4.53595755E-04  6.16058380E-05  1.01265802E-01
 -1.03874365E-03  5.79545518E-05  8.71985116E-02  1.39941205E-04  7.33683365E-02
  3.62202745E-05  1.78462616E-04  6.78446256E-06  3.69092970E-03  1.33381670E-02
 -3.04817589E-02 -2.75346380E-02 -1.97557379E-04  4.11690572E-01 -2.23888822E-02
 -1.54649759E-04  2.21025475E-01  1.07063225E-02  2.37103597E-02 -1.55400489E-05
  1.01565455E-03 -1.89013147E-06  1.67727712E-02  6.07150139E-03  1.60116023E-03
 -4.33160392E-03  1.72060286E-02  1.68122352E-02  6.12756118E-03  1.60877923E-03
  4.29282907E-03  1.71986586E-02 -2.60518999E-06 -8.72361077E-06  4.29592772E-05
 -8.31045244E-05 -1.74991960E-04 -1.79107356E-01  1.03327856E-04 -1.55022448E-04
 -9.35087998E-02  2.12532696E-06 -6.13179821E-03  9.67763990E-04 -2.27168989E-05
  1.64721391E-04 -4.72464260E-06 -1.62542329E-05  7.81901561E-05  1.50158731E-04
  5.86673907E-05 -1.79014314E-01  2.67039502E-04  1.25865250E-04 -9.34389940E-02
 -1.07564094E-06 -6.12709993E-03 -9.79230300E-04 -8.77494510E-06 -1.72417063E-04
 -9.88245636E-05 -3.43987127E-03 -1.30125738E-04 -2.89160325E-04 -3.14725713E-03
 -2.50330568E-05 -1.89525334E-02  1.07503388E-03 -7.37323424E-04 -3.25232050E-02
 -4.68167915E-05 -1.90070672E-02  1.13875868E-03  6.79990156E-04 -3.25210031E-02
 -7.90741406E-05 -3.35744367E-03 -2.67216901E-06  3.61661456E-04 -3.12441352E-03
 -6.66220259E-06 -2.89596140E-05  1.87345019E-04  4.67115090E-05 -3.57306095E-05
  2.58166200E-02 -1.66579689E-03 -1.57646736E-06 -1.32132462E-01  1.41775314E-06
 -7.69552164E-02 -3.51834499E-05 -3.63820942E-04 -8.92345849E-05 -2.90055087E-05
 -1.16882529E-04  5.26666155E-04  8.59855354E-05 -1.39267333E-04 -2.09664290E-01
  3.81876104E-03  1.02650087E-03  1.66474602E-02 -4.89092823E-04  2.91320277E-02
  1.21899775E-02  3.68562415E-04 -8.19316477E-05  2.17423336E-05  2.72113583E-05
  1.48159195E-03  6.71953956E-06 -1.53402982E-04  5.24511909E-02 -4.24251081E-03
  7.20475322E-03 -2.85253707E-02  1.48803489E-03  6.06750395E-02  2.61050959E-02
 -9.86460555E-04 -4.04139906E-04  1.70466380E-04  5.43512250E-04 -2.08109471E-03
 -1.30908645E-03  4.27908598E-05  2.41841801E-01  2.60118416E-02 -1.98251636E-05
  6.79663262E-02  2.50261696E-03 -4.57227340E-02  2.50027897E-05  2.31146502E-03
  1.54955003E-05  2.45690859E-05  3.65827665E-05  1.47120754E-03 -3.10638541E-05
  1.51235544E-04  5.25078330E-02 -4.27511184E-03 -7.13182013E-03 -2.85311357E-02
  1.46926341E-03  6.06565680E-02 -2.61251110E-02 -9.68507176E-04  3.07851538E-04
 -2.37314454E-05 -9.82578682E-05  4.73433939E-04  7.01505420E-05  4.78121976E-04
 -2.09739203E-01  3.75850297E-03 -1.12401657E-03  1.66671196E-02 -4.69459536E-04
  2.91060696E-02 -1.22282738E-02  3.60362964E-04  3.95441021E-05  1.67952065E-06
  7.13978440E-06 -4.83969221E-05 -1.76576822E-04  2.80265111E-04  5.15773261E-01
  3.29117866E-04  9.65103973E-05  2.74161068E-01 -3.05319013E-05  8.31002381E-02
  3.00544521E-05 -9.48459225E-05  1.90063492E-05 -1.65532107E-03 -5.98578032E-03
  1.37672337E-02  1.34554547E-02  8.71568353E-05 -1.79571682E-01  5.79073778E-03
  4.27384795E-05 -1.00125502E-01 -1.55686392E-03 -3.37273277E-02  1.00350673E-05
 -2.24621233E-03 -2.15255729E-05 -1.07585142E-02 -4.37757437E-03  1.15367422E-03
  4.92982658E-03 -1.77339626E-02 -1.08118551E-02 -4.37305104E-03  1.15790343E-03
 -4.94877637E-03 -1.77409178E-02 -3.37254158E-06 -1.30783901E-05  7.28498271E-05
  1.00627553E-04 -2.00004847E-04 -3.59964762E-01  3.08115454E-05 -1.30962324E-04
 -2.23454451E-01 -1.97865142E-05  7.74851877E-03  2.34252123E-02 -5.47855982E-06
 -8.28997639E-05 -3.04291231E-06 -1.20183693E-05  7.05428038E-05  6.04576560E-05
 -2.42377941E-04 -3.59999246E-01  3.05943912E-05 -1.23476125E-04 -2.23460316E-01
  2.37769472E-05  7.77768288E-03 -2.34263720E-02  2.48779326E-05  1.01394922E-04
 -3.59331037E-04  2.82810491E-03  3.24483505E-04  4.27865634E-04 -4.63940584E-02
 -2.90141060E-04  6.23248308E-03  2.48638509E-05  2.67559460E-04  9.80232699E-03
 -3.39505019E-04  6.21888013E-03  2.96334455E-05 -2.88966852E-04  9.82716818E-03
 -3.58989433E-04  2.85363358E-03  4.55720370E-04 -3.73583582E-04 -4.63514409E-02
 -6.18448237E-06 -2.13209388E-05  6.31618738E-05 -5.24192455E-05 -6.55193260E-04
  3.79708019E-05  6.01217109E-05  1.46398092E-02  2.31434483E-05 -6.11163205E-05
 -3.36713949E-05 -1.35749869E-01 -1.48492240E-04  6.91854135E-05 -2.86481440E-05
 -9.94048531E-05  3.38688584E-04  4.40422548E-04  6.84314603E-04  3.75112259E-01
 -1.12776732E-02  5.50515631E-03  8.60950022E-02  1.29934978E-04 -7.45000071E-02
 -1.18453368E-02  7.27449157E-05 -1.10421873E-03  7.94420448E-05  2.79230464E-04
 -9.73611340E-04 -7.89279211E-04 -2.12190152E-03 -3.71465859E-01 -1.46522820E-02
  8.17261558E-04 -9.29256237E-02 -4.76468736E-04 -7.57579722E-02  1.03033560E-02
 -7.94575666E-04  1.99689549E-04 -7.67858216E-06 -2.69911229E-05  1.01632124E-04
 -4.58349435E-05 -4.73251321E-04 -7.86927271E-05  3.73505269E-05 -1.62986752E-02
 -3.54754058E-06  5.35831746E-06  3.83016029E-05  1.30092883E-01 -6.27934702E-06
 -6.11176076E-03 -7.49670684E-05 -2.62403674E-04  8.85617003E-04  8.29014488E-04
 -2.21457341E-03  3.71536281E-01  1.47202549E-02  7.68258120E-04  9.29914006E-02
  3.79961410E-04  7.57154140E-02  1.03170016E-02  8.36019672E-04  7.57161974E-05
  1.92220168E-05  6.69676116E-05 -2.43675284E-04 -6.04473761E-04  9.88441147E-04
 -3.75108339E-01  1.13312081E-02  5.59552292E-03 -8.61440546E-02 -2.23109327E-04
  7.44650294E-02 -1.18747006E-02 -7.59958277E-05 -1.09912816E-03  4.91272786E-06
  1.79662993E-05 -4.63273377E-05 -5.73627512E-05 -2.66693061E-05 -6.05796871E-05
  5.16321211E-05 -1.45273318E-03 -7.21954488E-05 -2.82050072E-05  8.11649143E-06
  8.24500557E-03  3.29978046E-05 -3.58264754E-04  4.48419366E-06  1.62656218E-05
 -3.85853181E-05  7.17420760E-06 -9.61970081E-03  3.04968377E-05  6.57935431E-05
  2.10810325E-02  3.88342601E-05 -9.44959250E-06  1.47893688E-05  5.35471091E-03
 -2.11311277E-06  1.39375772E-03 -3.98773080E-03  1.93258139E-02 -7.67152726E-03
  7.99221623E-03 -1.14217591E-02  4.03204838E-03 -1.94379586E-02  7.74382998E-03
  8.04661794E-03  1.14600913E-02 -4.33646570E-06 -1.44701680E-05  3.08227728E-05
  1.04138011E-04 -2.05677981E-04 -3.61653450E-02  2.45877121E-05 -1.14837378E-04
 -2.09332030E-02  3.31336078E-06  9.29165589E-04 -1.21407492E-03 -1.74489374E-05
  3.38916065E-05  5.80293902E-06  1.95703729E-05 -5.09208950E-05 -1.37027299E-04
 -2.59559032E-04  3.61401546E-02 -7.32801386E-05 -1.69289149E-04  2.09175762E-02
 -1.55295733E-06 -9.29248780E-04 -1.21348008E-03  1.18543433E-05  4.22169187E-05
 -2.83035840E-04 -5.11224490E-04  8.80509741E-04  9.19385479E-07  6.64276455E-02
  2.22292503E-04  4.61793455E-03 -1.23617569E-03  3.47494328E-04 -7.19871962E-02
 -2.27800839E-04 -4.71553520E-03  1.25348933E-03  3.42269165E-04  7.20091583E-02
  1.94429186E-04  3.27076925E-04 -9.21892711E-04 -5.99282051E-06 -6.64368788E-02
 -8.65183399E-05 -2.85340325E-04  5.81050117E-04 -3.03766141E-04 -1.29024728E-04
  4.18801499E-01  2.38235010E-03  3.05661345E-04  1.71499118E-01  5.57439962E-04
  1.30168840E-03  9.11217725E-06 -9.01425325E-04  6.39913746E-05 -6.77229959E-06
 -2.17193258E-05 -1.34701984E-04 -4.64898548E-04 -4.07229047E-04 -1.60757288E-01
 -1.31601360E-03 -1.15858805E-03 -8.75523491E-02 -9.99661887E-04 -6.92996686E-02
  7.19009404E-02  4.92014167E-04 -1.21200405E-03 -1.22318669E-04 -4.64670545E-04
  3.16273912E-03  1.09143846E-03 -2.94297387E-03 -1.86107279E-01 -5.88752527E-03
  5.09385967E-03 -7.00747744E-02  2.04460153E-03  5.85735328E-02  7.62359528E-02
 -4.85763840E-04  6.11880915E-04  7.66919260E-05  2.19244684E-04 -2.22693530E-03
  5.91085683E-04 -4.91478244E-06  4.72782605E-01  1.57546723E-02 -3.21297580E-04
  1.12226002E-01  3.89011308E-03 -1.65148752E-02  1.40639479E-05  1.50950033E-03
  4.32878393E-05 -1.21788346E-04 -4.62436552E-04  3.14377078E-03  1.03729992E-03
  3.03576330E-03 -1.86039740E-01 -5.42099571E-03 -5.37402238E-03 -7.00636204E-02
  2.03364872E-03  5.85298108E-02 -7.62756831E-02 -4.79022163E-04 -6.31844354E-04
 -1.13541933E-05 -3.81938450E-05 -8.24512498E-05 -5.88630338E-04  4.69864518E-04
 -1.60803565E-01 -8.59301878E-04  1.52915176E-03 -8.75970392E-02 -1.06986448E-03
 -6.93193241E-02 -7.18911316E-02  4.73881014E-04  1.23564233E-03  8.32444097E-05
  3.02570893E-04 -7.86365265E-04 -8.82565861E-04 -2.13453210E-04 -3.32248901E-01
 -2.11586180E-04 -1.75048179E-04 -1.76398119E-01 -1.64653199E-04  2.69399694E-02
  1.28994549E-05 -6.59123475E-05 -8.41808787E-05 -2.60094860E-03 -9.43092421E-03
  2.22237128E-02  2.57498981E-02  1.18618681E-04 -1.82194162E-01  3.61356953E-03
  6.66507748E-05 -9.64479576E-02  5.77280434E-03 -7.64527835E-02  1.49836398E-05
 -6.61239494E-04 -3.60693760E-05 -1.86769000E-02 -1.36654974E-02 -5.33893551E-03
  1.78847523E-02 -5.80638722E-02 -1.87679208E-02 -1.36674543E-02 -5.38890823E-03
 -1.79398427E-02 -5.80908153E-02 -1.48746814E-05 -5.18037871E-05  2.53536988E-04
  3.68558940E-04  1.28790702E-04  1.48731391E-01  8.86631062E-05  1.32604779E-04
  1.15325845E-01  7.82216089E-05 -1.34424254E-02 -1.97333551E-02  3.29586532E-06
 -1.91256866E-05 -1.98031773E-05 -6.95649495E-05  3.47007447E-04  5.01972564E-04
 -2.79166226E-05  1.48734759E-01  2.35279248E-04 -3.63574684E-05  1.15343701E-01
  3.05792778E-05 -1.34627639E-02  1.97274903E-02 -1.85976710E-05  8.36538165E-06
 -8.69140002E-04 -3.34966311E-03 -1.62166091E-04  1.01587121E-04 -2.21424857E-02
 -2.22848873E-04  4.76916953E-03 -2.29807896E-03  2.95291930E-03 -5.21995614E-02
 -2.51346500E-04  4.73325242E-03 -2.36480966E-03 -2.91143282E-03 -5.21733020E-02
 -8.95605070E-04 -3.33100775E-03 -2.66918172E-04 -1.03135373E-04 -2.21860798E-02
  2.70948207E-03  8.57754438E-03 -1.69535955E-02  1.88261908E-03  2.65543157E-05
  3.86037486E-02 -2.10894649E-01 -2.14851608E-05  1.84828113E-02 -5.04597516E-02
 -4.22977252E-03  5.03563747E-05 -7.95286536E-03 -2.41109148E-05 -4.72730050E-03
 -1.76143581E-02  8.81394806E-02  3.29143698E-02 -1.13184519E-03 -2.54593760E-02
  6.24371967E-01  3.44405320E-01 -1.08510257E-02  5.16852886E-02 -1.77140749E-03
  9.10173431E-03 -1.85747463E-04 -5.38475683E-03  7.74303762E-03  2.48026756E-02
 -4.17361709E-02 -6.18513685E-02  7.53890234E-02  2.93415392E-03  4.17467770E-01
  4.68955852E-02 -9.83822975E-03 -8.28828057E-03  7.14406697E-03 -8.09108849E-03
 -1.04206124E-05 -4.23342357E-02 -1.81759148E-03 -1.09897007E-02  1.75481419E-01
  6.43723612E-02  1.43365677E-06 -2.03788632E-03  8.48989117E-01 -8.93438718E-04
  3.69016754E-02  8.77997671E-02 -1.67355671E-02 -1.04105907E-05  5.60210205E-02
  1.01576693E-04  7.73653650E-03  2.47826901E-02 -4.17416010E-02 -6.17520526E-02
 -7.50288916E-02  2.81602642E-03  4.17497465E-01 -4.81505283E-02 -9.85804685E-03
 -8.25637336E-03  7.15902651E-03  8.09361520E-03  8.81879820E-05  4.21155664E-02
 -4.73558125E-03 -1.76409362E-02  8.81330443E-02  3.28471597E-02  1.26652493E-03
 -2.54478251E-02  6.24323572E-01 -3.45071504E-01 -1.14117903E-02  5.15894741E-02
 -1.74240654E-03 -9.23206779E-03 -7.37181082E-05  5.50344672E-03 -2.44460263E-03
 -8.78723936E-03  1.94486543E-02  4.00470936E-02  2.85759607E-05 -2.11928325E-02
  5.32156099E-02 -1.25465993E-04 -1.42655623E-02 -2.77417051E-02  3.53833906E-03
  8.26157187E-06 -2.22871572E-02 -2.12465582E-05  2.62875743E-02  9.57315904E-02
 -2.37614225E-01 -1.80273902E-01  1.87352990E-04 -5.50641152E-02  2.78788475E-01
 -2.11408062E-04 -2.20267639E-02  3.14548628E-02 -1.24133942E-02  3.46509840E-05
 -1.31600431E-01  2.57000826E-05  4.47812746E-02 -8.44868356E-02  3.83048039E-01
 -4.07806055E-01  8.81715886E-02  4.47526835E-02 -8.40114288E-02  3.82931266E-01
  4.07181548E-01  8.85819360E-02 -1.45867129E-03 -5.45688435E-03  3.05385611E-02
 -8.64735979E-03 -3.43787271E-03  8.66259130E-03  5.09080614E-03  3.12925495E-04
  7.61074343E-03 -5.15070297E-03 -1.00263965E-03 -1.22141792E-03  3.58851440E-03
 -5.15289399E-03 -1.46000248E-03 -5.46205060E-03  3.05783159E-02 -8.63500309E-03
  3.49805586E-03  8.65347717E-03  5.07715130E-03 -3.49876641E-04  7.59954437E-03
 -5.17541174E-03 -1.00442778E-03  1.22315935E-03  3.59648267E-03  5.16618930E-03
 -5.20066688E-03  6.53056065E-01  6.06899596E-02  1.37408521E-01 -8.34581768E-03
 -2.27471817E-02 -1.55218119E-01  1.13387762E-01 -1.94456267E-01  3.08347753E-03
 -2.28008410E-02 -1.54157383E-01  1.12922139E-01  1.93932311E-01  3.16823584E-03
 -5.27968953E-03  6.53462788E-01  6.07323760E-02 -1.37785610E-01 -8.48398870E-03
  3.01659598E-06  7.20599494E-06  5.56238348E-05  1.12447057E-04 -4.43883504E-02
  2.84949578E-05 -1.71844949E-04  7.13828804E-01  1.25978458E-04 -5.83443262E-05
 -3.40467090E-05  2.48391841E-03  1.80114597E-04  3.31840520E-02 -3.90747212E-03
 -1.17512244E-02 -1.72342764E-02 -4.05201888E-02 -1.12719000E-01 -4.84724996E-03
 -1.32202915E-01  4.22692728E-01 -2.46477840E-03 -2.59717744E-02  3.26447106E-03
  4.83838537E-04  5.68531098E-02 -1.29419147E-01 -5.44682052E-03 -1.66016350E-02
 -1.17824841E-02  4.47153696E-02 -1.88245520E-01  1.16147931E-02 -1.72538010E-01
  8.32245423E-01  1.73019830E-03 -1.91506551E-02 -9.69939796E-04  8.17752567E-04
  5.87913276E-02  1.33295739E-01 -7.21242252E-07 -6.51672064E-06  1.44104124E-04
 -3.11685392E-05 -4.36514764E-02  7.46385740E-05 -1.69363826E-04  7.22743180E-01
  2.51065557E-04  1.33919204E-04 -2.51832091E-05  6.20488543E-04  7.88092042E-06
 -1.18176882E-01  5.47464686E-03  1.66907872E-02  1.16400242E-02 -4.49435544E-02
 -1.88475094E-01 -1.17262278E-02  1.73091615E-01  8.33216874E-01 -1.76123473E-03
  1.90896916E-02  1.07750876E-03  8.64028405E-04 -5.88720261E-02  1.33502692E-01
  3.92024275E-03  1.17891496E-02  1.72921221E-02  4.06724973E-02 -1.12988883E-01
  4.67246700E-03  1.33049824E-01  4.22400925E-01  2.96270682E-03  2.60933006E-02
 -3.36539294E-03  5.80280918E-04 -5.71661889E-02 -1.29481671E-01 -7.92982159E-06
 -2.93711991E-05  8.37020030E-05  1.45176407E-04 -6.14788805E-03  1.12036016E-06
  7.70664386E-05 -1.17505915E-01  1.72808368E-05 -1.02231782E-05  7.98990994E-06
  1.16271274E-04 -1.55413932E-05 -4.42776568E-02  1.07642917E-05  3.98608022E-05
 -1.09328550E-04 -2.11748661E-04 -1.97919435E-01 -1.56829997E-04 -3.79191336E-04
  2.12475607E-01  3.92603734E-05  7.89827280E-05  2.39664165E-05  1.99866121E-02
  7.79268197E-05  1.32302929E-01 -2.73108243E-02  4.17223524E-01 -2.36884000E-01
  3.40006578E-01 -5.58410639E-02  2.73550254E-02 -4.16126452E-01  2.37240060E-01
  3.40141819E-01  5.62342403E-02 -8.73147811E-04 -3.05869465E-03  1.22241220E-02
 -1.73006911E-03 -3.66999012E-02  9.43878941E-04 -1.32331577E-03 -2.15498543E-02
  5.36170725E-04 -4.17320047E-03 -6.95094419E-05  1.06975090E-04  4.78856471E-03
 -5.03859965E-04  8.69797478E-04  3.04527021E-03 -1.21387591E-02  1.68424839E-03
 -3.66859506E-02 -9.87577764E-04  1.31935971E-03 -2.14709943E-02 -5.53867593E-04
  4.15909570E-03  7.11778182E-05  1.14731661E-04 -4.81107129E-03 -5.04908657E-04
 -3.43311808E-02  4.06034022E-01  1.66431859E-01  2.55249856E-01 -2.57824440E-03
 -2.75746455E-02  8.23395718E-01 -2.95199351E-01  3.86267653E-01 -9.27518295E-04
  2.75999312E-02 -8.23886807E-01  2.95533767E-01  3.86934706E-01  1.09452336E-03
  3.44132533E-02 -4.05138725E-01 -1.66394427E-01  2.55753053E-01  2.82710461E-03
 -1.91373033E-03 -5.12878565E-03 -1.57898665E-02 -1.27461565E-01 -4.73826070E-05
  4.53891843E-04 -1.65109615E-02 -3.70062980E-04  3.29384808E-03  8.06755079E-02
 -4.74512196E-04  4.14757785E-05 -1.86404384E-01 -2.74665231E-05 -9.37924615E-03
 -3.07496635E-02  3.97807654E-02 -6.90500192E-02 -1.12401082E-01 -2.32311820E-05
  3.38955066E-01  1.27264890E-01 -5.32935325E-03  6.40236496E-03 -6.95404320E-04
  2.24240531E-04  1.12038577E-01 -9.47180546E-02 -9.84331079E-03 -3.25473865E-02
  6.10726712E-02  5.60561670E-02 -1.14124601E-01 -5.41869979E-04 -5.23127774E-02
  5.74025943E-01  1.20885245E-02  4.28413443E-02  2.27012031E-03 -1.20147414E-03
  5.76939404E-02  8.86686693E-02 -1.02452688E-03 -3.80059827E-03  2.30117394E-02
  1.02039012E-01 -1.44114346E-04 -7.65326489E-03  1.27226237E+00  8.86090135E-04
 -2.81308582E-02  1.62485260E-02 -6.80204689E-03  1.34905220E-05 -6.73859107E-02
 -1.33775677E-04 -9.84157129E-03 -3.25457217E-02  6.11962169E-02  5.60392120E-02
  1.13798972E-01 -5.90236515E-04 -5.33041985E-02 -5.71750641E-01  1.18323600E-02
  4.28940412E-02  2.21733785E-03  1.17385320E-03  5.75696731E-02 -8.84797085E-02
 -9.37984170E-03 -3.07539198E-02  3.98731799E-02 -6.90032979E-02  1.12494388E-01
  2.45486682E-04  3.37972513E-01 -1.28300486E-01 -5.36356682E-03  6.45400418E-03
 -6.56126973E-04 -3.36604186E-04  1.12045847E-01  9.45165607E-02  1.19868125E-02
  4.38024916E-02 -1.20858526E-01 -9.87263907E-02 -5.21113410E-05 -2.56832153E-04
 -3.60375574E-02 -5.70832120E-05 -1.46624915E-03 -3.68424818E-02 -2.27690100E-04
 -5.68184606E-05 -8.66361043E-03 -6.00314206E-05  9.94762700E-03  3.53143265E-02
 -7.70608261E-02  4.95219351E-02 -3.47406724E-04 -1.05474044E-02  7.20405013E-01
  1.71104249E-04  6.50384101E-02 -3.31117388E-02  1.16639923E-02  1.19286018E-04
 -8.01944768E-02  2.36911077E-04  4.15911912E-03 -6.25127964E-01  2.26033486E-01
 -1.80648979E-01  5.02687111E-02  4.24310430E-03 -6.26543329E-01  2.26924451E-01
  1.81578324E-01  5.07340234E-02 -3.17584385E-03 -1.11567548E-02  5.51121246E-02
  4.95209744E-02  1.15801526E-02  1.10928919E-04  2.61832338E-02  7.45871029E-03
  1.89249783E-04  1.06648309E-02 -4.13213644E-06  7.92750732E-05  1.03109091E-02
 -1.12466777E-02 -3.17180668E-03 -1.11417717E-02  5.50308026E-02  4.95594420E-02
 -1.16709468E-02  2.17321975E-04  2.62136467E-02 -7.54198729E-03  2.17051079E-04
  1.06727038E-02 -2.35158825E-05 -7.73954207E-05  1.02700225E-02  1.12328702E-02
 -7.17841787E-02  4.95312460E-02  6.81346622E-02  3.06708628E-01  7.10440070E-04
 -6.47129042E-02  1.45088165E-01 -1.17640874E-01  2.52110181E-01 -7.03247586E-04
 -6.46940022E-02  1.43682429E-01 -1.16876145E-01 -2.51720365E-01 -8.58563173E-04
 -7.17471634E-02  4.96262904E-02  6.80247287E-02 -3.06707960E-01  4.06723204E-04
 -1.01154657E-03  3.22083143E-03 -1.70110746E-01  4.38148050E-02 -2.39924718E-05
 -2.84349810E-04  1.14129221E-01 -3.79194011E-03  4.46858222E-03 -2.77060099E-01
  8.45507097E-04  1.81807957E-04 -1.06199762E-01  1.83526018E-04 -9.97710437E-03
 -2.94036270E-02 -4.15368451E-02 -3.72447751E-02 -1.03786209E-02  8.28494451E-04
  4.17900734E-01  5.28357945E-02 -9.94032992E-03 -2.36630335E-01  2.07549708E-04
 -5.32706110E-05  3.59483229E-02 -2.01766954E-02 -5.43570493E-03 -1.41620830E-02
 -7.10291320E-02  2.08327844E-02  8.16476561E-03  2.47856451E-03  1.43963023E-01
  2.37370321E-01  1.97207040E-02 -2.09863920E-01  2.86026712E-03  5.06283717E-03
  2.26844434E-02  2.36763354E-02 -1.65308728E-03 -1.30143724E-03 -9.32183922E-02
 -2.84219275E-02  2.77349160E-06  4.24425088E-03  9.83861854E-01  3.18319334E-03
 -5.44992533E-02 -2.49018648E-01 -1.14187050E-02 -6.33298328E-06  4.00874050E-02
 -5.61532975E-05 -5.42933040E-03 -1.41405864E-02 -7.10564635E-02  2.09093916E-02
 -8.25555376E-03  2.37732479E-03  1.38371947E-01 -2.33739717E-01  1.97001078E-02
 -2.09867800E-01  2.74069731E-03 -5.03259386E-03  2.24794906E-02 -2.35468832E-02
 -9.99156990E-03 -2.94548493E-02 -4.13089860E-02 -3.73368483E-02  1.04370449E-02
  1.00479190E-03  4.12374743E-01 -5.70655575E-02 -1.00275337E-02 -2.36534681E-01
  9.46097328E-05  3.24506293E-04  3.59995072E-02  2.03716244E-02 -4.25229399E-03
 -1.54065692E-02  3.61282753E-02  9.75402010E-02  3.68375028E-05  7.98582425E-04
  1.48774722E-01  5.05690794E-04 -6.74541000E-04 -1.31380814E-01  1.57319028E-04
 -1.35651425E-04  1.84454101E-02  1.99300533E-05 -2.53151842E-03 -1.03511656E-02
  3.83145813E-02 -3.39674668E-02 -1.08082255E-04  4.33573746E-03  5.60665243E-01
 -3.87821118E-04  1.12242436E-01 -9.01534780E-02  1.73306726E-02  1.20270068E-04
 -2.57428250E-02  7.23612412E-05  2.39140564E-02 -6.14967616E-01  1.07357169E-01
 -1.50083085E-01 -5.82069259E-03  2.39353304E-02 -6.15280001E-01  1.07835050E-01
  1.50321756E-01 -5.79279947E-03 -3.93757733E-03 -1.41452668E-02  7.72399717E-02
 -2.22357259E-04  9.74533261E-03  9.14214098E-05 -2.10332442E-02  4.96566965E-02
  1.23348254E-04 -1.38670773E-02 -1.45729423E-06  2.65887180E-04 -5.14690436E-03
  1.83293866E-02 -3.94088163E-03 -1.41555200E-02  7.72544010E-02 -1.07450659E-04
 -9.70928936E-03  1.28274311E-05 -2.08388948E-02 -4.96654998E-02  1.31945962E-04
 -1.38561734E-02  4.27260257E-05 -2.81196561E-04 -5.09159186E-03 -1.84074093E-02
  4.92139239E-02  8.29779260E-02  3.38680102E-02  2.10477831E-01  1.72384548E-03
  5.06326103E-02 -9.70484273E-02 -3.10920933E-02  4.46984251E-02 -3.66421903E-03
  5.06174003E-02 -9.74952834E-02 -3.02857625E-02 -4.48526180E-02 -3.80745106E-03
  4.92216342E-02  8.39755310E-02  3.45442258E-02 -2.10676029E-01  1.33352200E-03
 -3.15464733E-06 -8.27848028E-06 -2.42437898E-05 -1.95271905E-04  6.48583619E-02
 -4.94879920E-04 -3.03515033E-05  7.93815136E-01 -1.77465285E-04 -1.92771853E-05
  2.01826704E-05 -3.56398103E-03 -2.10210480E-04  1.36186940E-02 -8.68444279E-03
 -2.81220923E-02  3.45106876E-02 -5.85327311E-02 -1.45366557E-01  6.51774866E-03
  2.49712597E-01  1.10728780E+00  3.58653459E-03  5.73068310E-03 -5.70423390E-03
 -4.23566820E-04  7.53825430E-02 -8.52028881E-02 -3.22936478E-03 -1.05608730E-02
  4.50718061E-03  3.45783300E-02  1.58860854E-02 -2.11427386E-02  2.83321858E-01
 -2.14138761E-01 -7.23370065E-03 -3.76273974E-02  3.25409157E-03 -1.77096400E-03
  3.81412660E-02  3.81434043E-02 -5.06826531E-06 -1.71416192E-05  6.04274443E-05
  6.19237404E-05  5.01628386E-02  3.91480317E-04  1.31953562E-03  3.22324701E-01
  6.89828411E-05 -6.89584210E-05  1.49789085E-05 -2.68428379E-03  9.88640027E-05
  1.00695144E-01  3.21817869E-03  1.05272194E-02 -4.56307517E-03 -3.46826770E-02
  1.59664742E-02  2.05827635E-02 -2.82966534E-01 -2.14663212E-01  6.62314960E-03
  3.74212617E-02 -3.32718060E-03 -1.98742592E-03 -3.81026883E-02  3.81133434E-02
  8.66641430E-03  2.80663090E-02 -3.45155901E-02  5.83391247E-02 -1.45258694E-01
 -5.96163656E-03 -2.47555642E-01  1.10683293E+00 -1.87539977E-03 -5.83977387E-03
  5.52628750E-03 -2.35317008E-05 -7.52150298E-02 -8.49228461E-02  2.17180974E-05
  7.91847518E-05 -2.18222949E-04 -2.34534129E-05  1.85293788E-02  1.69013244E-04
  5.67709398E-05 -1.40916789E-01  1.92663340E-04 -1.78699084E-04 -8.61408080E-05
 -4.29785936E-04 -6.14208427E-05 -1.31700198E-02  4.67504371E-06  1.56495288E-05
 -1.99032169E-05  6.92327834E-05  2.61924189E-01  1.26122700E-04  4.93161676E-04
 -6.67513037E-01 -1.43413701E-04 -5.15317064E-05 -1.72891523E-04 -4.60747791E-02
 -1.88245769E-04 -1.80306757E-01  3.51708774E-02 -8.28174846E-01  3.73210824E-01
 -5.68302447E-01  1.09869969E-01 -3.51847354E-02  8.26734855E-01 -3.72931824E-01
 -5.67649193E-01 -1.10802893E-01 -2.65897392E-03 -9.41669168E-03  4.37333264E-02
  1.97009927E-02 -3.95872087E-02 -1.80996918E-03  3.46710671E-02 -2.23859138E-02
 -9.50905172E-04 -7.38232252E-03  2.20909737E-04 -2.82467056E-04  1.13186343E-02
 -4.78282182E-03  2.63759218E-03  9.33913114E-03 -4.33135728E-02 -1.95631153E-02
 -3.97608100E-02  1.54700545E-03 -3.45925834E-02 -2.24327438E-02  7.37908781E-04
  7.41636309E-03 -1.98907368E-04 -2.67678703E-04 -1.12889935E-02 -4.72857519E-03
 -1.13740903E-02  1.08076186E+00  2.58890378E-01  4.97400700E-01  3.65258471E-03
 -6.52584194E-03 -1.15178940E-01  9.30996452E-02  1.07139389E-01  6.14953657E-03
  6.55245174E-03  1.14867010E-01 -9.30372707E-02  1.07095337E-01 -6.35979346E-03
  1.12720968E-02 -1.08005954E+00 -2.58423227E-01  4.96823443E-01 -2.73146684E-03
 -4.88029364E-04 -1.77766389E-03  1.11319760E-02  1.68944626E-02  2.88551097E-05
  4.05212703E-01  1.84350422E-02  1.28233941E-03  2.45280350E-01  1.20675193E-02
 -4.39193258E-02  1.88871438E-05  1.76144799E-02  8.74944978E-05  1.58195069E-03
  5.54821995E-03 -2.20707923E-02  9.50597919E-03  1.17968781E-02 -3.06621573E-01
 -1.81658750E-01 -1.21422345E-01 -2.13119327E-01 -2.18665904E-02  3.47838276E-02
  9.08555779E-02 -1.10248768E-02  1.31525168E-02 -2.14172852E-03 -6.95446047E-03
  1.34411964E-02  1.59323200E-02 -1.50913740E-02  2.48664892E-01 -1.85414584E-01
  1.06477712E-01  1.93328684E-01 -1.21172536E-03  5.66227214E-02 -8.80657402E-02
  7.78399816E-03  1.34744165E-02  1.33339744E-04  1.41124830E-03 -3.17992480E-02
  3.49211460E-03  1.95969904E-04 -3.87780767E-01  4.09598224E-03 -1.26548523E-04
 -5.45868649E-02 -3.70661664E-02  2.62066996E-03 -1.38841076E-05 -2.34650620E-02
  9.50407718E-05 -2.13007108E-03 -6.91397920E-03  1.33402345E-02  1.58920108E-02
  1.50747635E-02  2.48690016E-01 -1.85383164E-01 -1.07673596E-01  1.93370932E-01
 -1.24911708E-03  5.66322562E-02  8.80630525E-02  7.76513730E-03 -1.34916190E-02
  1.59607975E-03  5.59146810E-03 -2.20506764E-02  9.51587753E-03 -1.19235007E-02
 -3.06626727E-01 -1.81752178E-01  1.24862856E-01 -2.12934835E-01 -2.20194525E-02
  3.46997698E-02 -9.08018999E-02 -1.12327119E-02 -1.32957241E-02 -9.01630258E-04
 -3.36313264E-03  1.09170987E-02 -3.77545421E-03 -1.41706372E-04 -1.65213699E-01
 -1.57657799E-02 -3.00089332E-04 -1.29554873E-01  1.98633089E-02  5.29180517E-02
  3.62720916E-05  1.21787117E-02 -7.57743748E-05 -8.29316883E-05 -3.42578611E-04
  1.13308352E-03 -8.67592037E-03  2.63628861E-04 -4.28574207E-03 -2.56099614E-02
 -6.15785836E-04 -1.47148956E-01 -4.00419800E-02  8.23027096E-02 -4.63704919E-05
  1.23985278E-02 -2.27105630E-04  1.17956629E-02  2.79151234E-02 -8.63479923E-03
  1.98593102E-02  1.81129371E-01  1.17508283E-02  2.97118269E-02 -9.45922434E-03
 -2.11635945E-02  1.80815515E-01  1.17077579E-03  4.24511578E-03 -2.28132213E-02
 -4.50846363E-03 -2.32192121E-03  7.41773552E-02 -5.70573191E-03 -6.05921657E-03
  6.61595939E-02  1.14602984E-03 -1.09242879E-02 -5.76888340E-03 -3.06743005E-03
  2.17241452E-03  1.17126675E-03  4.24621695E-03 -2.28012184E-02 -4.48067230E-03
  2.17282662E-03  7.40728694E-02 -5.66239350E-03  6.04617714E-03  6.61151223E-02
  1.13250021E-03 -1.09311921E-02  5.77159020E-03 -3.11059709E-03 -2.16857758E-03
  7.20680059E-03 -1.83421200E-01 -3.55724799E-02 -7.31105300E-02 -1.26803561E-01
 -1.13861337E-03  1.58076111E-01 -3.59096560E-02  8.46812666E-02  1.51375739E-01
 -1.11924266E-03  1.58563210E-01 -3.62641871E-02 -8.44264555E-02  1.51286100E-01
  7.14390189E-03 -1.86285377E-01 -3.62036269E-02  7.45166304E-02 -1.26717676E-01
 -9.62086690E-04 -4.94324986E-03  6.87470355E-02  1.46493870E-01 -1.94301128E-05
 -5.91564805E-02 -1.00456597E-01  1.59845878E-03 -3.79558704E-02  5.89678724E-02
  5.13348551E-03 -1.06484999E-04  1.31265064E-01 -5.22336847E-06  7.02819521E-03
  2.35030225E-02 -6.79717460E-02  1.09114216E-01  8.18680708E-02  4.31832649E-02
 -6.93439734E-01 -5.18740150E-01  4.12181955E-02 -8.39930296E-02 -6.09713513E-03
 -1.29444713E-02 -9.31317608E-02  7.83166030E-02 -1.00818684E-02 -3.39473639E-02
  9.44066529E-02  9.09701153E-02 -7.50953159E-02 -4.24270067E-02 -8.87899180E-01
  7.62398232E-01 -4.65029296E-02 -3.06908863E-03 -4.93168065E-03  1.26906374E-02
  8.28176418E-02  6.58168309E-02 -2.30608805E-03 -7.03698673E-03 -1.99615179E-02
  1.49728078E-01 -1.62100202E-04  6.49683099E-02  7.04890309E-01 -2.02185985E-03
  4.82076661E-02 -1.48466916E-01 -4.36474340E-03  4.64720002E-05 -1.53670082E-01
  3.57208480E-05 -1.01019035E-02 -3.40168736E-02  9.46045416E-02  9.10168075E-02
  7.52271567E-02 -4.24805901E-02 -8.85454879E-01 -7.65189488E-01 -4.65106535E-02
 -3.04181231E-03 -4.91387478E-03 -1.27027393E-02  8.29737151E-02 -6.58142678E-02
  7.04221745E-03  2.35514519E-02 -6.80880246E-02  1.09147214E-01 -8.21010770E-02
  4.29156780E-02 -6.90763001E-01  5.21948923E-01  4.18169869E-02 -8.39522322E-02
 -6.27123305E-03  1.31821412E-02 -9.32682681E-02 -7.82552175E-02 -9.85201260E-03
 -3.64441835E-02  1.09172568E-01  6.81289992E-03 -8.43676578E-06  2.20707215E-02
 -8.61078414E-02  1.02823896E-05  1.81082429E-02  1.35046496E-01 -8.70556284E-03
  1.33204415E-04  6.32825405E-02  9.18083103E-05  1.26310948E-02  4.65563958E-02
 -1.27245643E-01 -4.47390285E-02 -2.81143580E-05 -3.14544415E-02  2.93847178E-02
  2.37377538E-04  3.64739966E-03 -6.01015471E-02 -2.12310069E-02  7.82040361E-05
 -2.77951922E-02  5.17608294E-05  1.93232728E-02 -5.58519673E-02  3.44945024E-01
 -1.12290256E-01  1.45402991E-02  1.93583408E-02 -5.60059964E-02  3.45082671E-01
  1.12234578E-01  1.48606698E-02  7.53544827E-03  2.71917905E-02 -1.45527557E-01
 -4.16280577E-02 -3.00961507E-02 -1.06930370E-02 -3.44294594E-02 -5.21868998E-02
 -9.41014758E-03  3.70348273E-03  1.63321090E-03  4.06832966E-04 -1.99327129E-02
  1.35834549E-02  7.53677819E-03  2.71963423E-02 -1.45553061E-01 -4.17751043E-02
  3.00534858E-02 -1.08371778E-02 -3.45235235E-02  5.23217181E-02 -9.48106394E-03
  3.72285425E-03  1.63795637E-03 -3.97745820E-04 -1.98974773E-02 -1.35569656E-02
  4.48299763E-02 -6.72167006E-01 -2.11470017E-01 -3.88508547E-01  1.92621880E-02
 -3.81969960E-02  9.22683249E-01 -1.51587173E-01  4.70133123E-01 -2.22401697E-02
 -3.82454420E-02  9.23638944E-01 -1.52118313E-01 -4.70603727E-01 -2.22649956E-02
  4.48869771E-02 -6.73144148E-01 -2.11861107E-01  3.88846337E-01  1.98867129E-02
 -1.82894641E-05 -6.46633653E-05  2.32612940E-04  3.72797802E-04 -2.95780358E-02
  5.59282700E-05  4.82219638E-04 -5.08606868E-01 -3.04364413E-04 -1.54944401E-04
  1.30561383E-04 -3.34005024E-03  1.85701162E-04  4.67717478E-02  1.10043317E-02
  3.81564334E-02 -1.26849562E-01  3.05767706E-03  9.27961875E-02  2.37202772E-03
 -3.40692996E-01 -1.14513478E+00  1.09556730E-02 -6.81768930E-02 -8.91624799E-03
 -2.37828357E-03 -2.67231099E-02  8.27624140E-02 -1.63239337E-02 -5.65150238E-02
  1.77431339E-01  5.95543862E-02 -8.64756296E-02 -3.03074329E-02 -3.13045067E-01
  1.24817926E+00 -1.60670089E-02  6.72863774E-02  8.66701239E-03 -2.47526090E-03
  4.00041332E-02  6.70987626E-02 -3.89231113E-05 -1.43575154E-04  7.14517843E-04
  2.88150010E-04  1.49272120E-01 -6.59919899E-05  5.43918878E-04  6.43580248E-01
 -3.24356834E-04  2.52497021E-04 -2.28993527E-05 -4.54668211E-03 -8.72761839E-05
  1.21725239E-01  1.63472441E-02  5.65939934E-02 -1.77615574E-01 -5.92337356E-02
 -8.61022777E-02  3.04555348E-02  3.13966072E-01  1.24838125E+00  1.63495036E-02
 -6.71500367E-02 -8.77249641E-03 -2.43178562E-03 -4.02891308E-02  6.67396932E-02
 -1.09952105E-02 -3.81253974E-02  1.26792067E-01 -2.94930054E-03  9.28749022E-02
 -1.98679506E-03  3.40078788E-01 -1.14541691E+00 -1.19407666E-02  6.81977132E-02
  9.17892835E-03 -2.67537411E-03  2.63973108E-02  8.30095582E-02 -2.77194431E-05
 -1.01186057E-04  2.72488352E-04  9.82855296E-05 -1.77917014E-02  1.26183857E-04
  2.45393037E-04  1.37658605E-01 -1.47779140E-05 -3.20799669E-05  6.94828237E-05
 -1.25510687E-03  2.13212167E-05 -9.97815103E-03  2.12321400E-05  7.74988825E-05
 -1.97517488E-04  1.87526881E-04  1.55169276E-01  2.31772922E-04 -3.86582284E-04
 -5.47691878E-01  3.43205625E-05  1.63226770E-05 -1.79461178E-04 -4.77886270E-02
  7.42986121E-06 -1.57704017E-01  7.30130590E-02 -4.31397632E-01  2.87076460E-01
 -3.11430749E-01  1.09142812E-01 -7.31704106E-02  4.31287644E-01 -2.85535244E-01
 -3.11661345E-01 -1.09545674E-01  4.13871832E-03  1.47796544E-02 -7.39562721E-02
 -4.43849829E-02  5.73508015E-02 -3.33587114E-03 -6.00779857E-02  2.99415261E-02
 -1.28543411E-03  9.87859575E-03  4.95406333E-04 -7.01058897E-04 -1.60168464E-02
  2.83219188E-03 -4.13813240E-03 -1.47780708E-02  7.39651280E-02  4.43179248E-02
  5.76511966E-02  3.48984122E-03  5.99937106E-02  2.98340874E-02  1.36798176E-03
 -9.96456113E-03 -4.87790910E-04 -8.10300075E-04  1.59468298E-02  2.69919562E-03
  3.25852206E-02 -9.66967285E-01 -3.12699310E-01 -3.74800693E-01  1.24124862E-02
 -1.71632761E-02  1.10875649E+00 -2.42291448E-01  5.69220595E-01  2.33324686E-02
  1.70231043E-02 -1.10919706E+00  2.41704943E-01  5.69379866E-01 -2.33209190E-02
 -3.25381007E-02  9.67265328E-01  3.12982525E-01 -3.74535530E-01 -1.32722349E-02
 -1.57233986E-02 -5.50349306E-02  2.00356842E-01  3.11774207E-02  3.72361939E-05
 -1.00341352E-02  4.24377131E-01 -6.78654267E-04  1.14124560E-03 -1.35828641E-01
 -5.35364945E-03  9.55713062E-05 -1.25433979E-02  4.77260737E-05  4.64976173E-03
  1.68897428E-02 -6.71218164E-02 -2.95250083E-02  8.48165244E-03  1.14964987E-03
  2.88621308E-01  1.50424759E-01  1.82481777E-02 -3.24948105E-02 -4.63878984E-03
 -5.68287106E-03 -6.40584625E-02 -1.25081703E-01  4.85278006E-03  1.55619517E-02
 -1.73700108E-02 -1.63185744E-02 -8.43796295E-02 -1.81126388E-02  5.34347570E-01
 -1.61351162E-01 -2.43307042E-02  3.64970685E-02  2.00125095E-03 -8.57066093E-03
 -7.48885903E-02  4.54814226E-02 -1.74909962E-02 -6.56409037E-02  3.49244320E-01
  4.20725406E-02 -2.46421173E-04 -1.41889715E-03  1.99872515E-01 -6.45875898E-04
  7.11882565E-02  1.69453761E-01  1.27396948E-02 -4.30891449E-05  5.19239915E-02
 -2.96658286E-04  4.80089165E-03  1.53870413E-02 -1.69397672E-02 -1.61001277E-02
  8.45329241E-02 -1.81597318E-02  5.31481988E-01  1.56981613E-01 -2.44573900E-02
  3.65992943E-02  2.01607391E-03  8.53374166E-03 -7.47010123E-02 -4.56662257E-02
  4.67761194E-03  1.69899572E-02 -6.76003303E-02 -2.95648217E-02 -8.90398214E-03
  1.35683002E-03  2.85476210E-01 -1.48868739E-01  1.82348280E-02 -3.28446228E-02
 -4.49408021E-03  5.70549607E-03 -6.39657046E-02  1.24873333E-01  2.54445055E-03
  9.46568226E-03 -3.17207552E-02  5.57501115E-02  1.12779598E-05 -6.08202368E-04
  2.29504788E-01 -1.39221314E-04 -7.27165430E-04 -2.21899347E-01 -3.47725079E-03
 -2.02439056E-04 -5.37195785E-02 -9.24447302E-05  4.37831559E-03  1.58391234E-02
 -3.89846851E-02  6.63212652E-02 -2.77252572E-04 -2.14635752E-02  2.19980798E-02
  9.11019532E-04 -8.22744144E-02  5.65429677E-02 -1.91507003E-02  3.98330674E-05
  4.23777416E-02  2.39069012E-04 -6.33608875E-02 -1.52569471E-01  3.41766599E-01
  1.35547469E-01  8.72829941E-02 -6.30894093E-02 -1.53905596E-01  3.42651945E-01
 -1.34809094E-01  8.76568333E-02 -8.69719278E-03 -3.18889384E-02  1.81375263E-01
  3.12831847E-02  3.94231717E-02 -3.04987044E-03  3.53230218E-02  7.40076033E-02
 -1.49309432E-03 -2.27916757E-02  4.88774996E-04 -1.26690016E-03 -1.77714086E-03
  4.41358523E-03 -8.69098800E-03 -3.18670424E-02  1.81275413E-01  3.13129306E-02
 -3.95670239E-02 -2.96308525E-03  3.52827208E-02 -7.42728369E-02 -1.38743067E-03
 -2.27761250E-02  5.12833848E-04  1.24148337E-03 -1.82406653E-03 -4.46109801E-03
 -1.04703449E-02  2.75011660E-01  1.18584773E-01 -8.25796527E-02  7.26001366E-03
 -2.04447014E-02 -3.73364710E-01 -1.95646129E-01 -1.88996995E-01  1.14682146E-02
 -2.03352417E-02 -3.68287694E-01 -1.96685564E-01  1.86916261E-01  1.15074575E-02
 -1.02533559E-02  2.73081372E-01  1.18022740E-01  8.36964900E-02  7.02287424E-03
  8.10858033E-03  3.08169585E-02 -1.70307254E-01  1.59452617E-01 -1.32729749E-04
 -1.87264910E-02  4.04029695E-03 -1.64042587E-03  3.95278002E-02 -2.41510074E-01
 -2.36430058E-02  1.93806211E-05  1.18571390E-01  3.50053635E-04 -1.42377136E-03
 -4.64922288E-03  1.09227347E-02  1.53681284E-02  6.59944019E-02 -1.35426473E-02
  4.78113615E-01  2.18411777E-01  1.41680999E-02 -5.70996096E-03 -1.87585935E-02
 -1.98686739E-02 -9.67632625E-02  5.06115738E-02 -5.21801890E-04 -2.99723977E-03
  3.58281576E-02  8.50706229E-02 -1.86019895E-02 -4.54793829E-02  2.49027470E-01
  1.34589368E-01 -6.45079373E-03  1.63556348E-01  6.44513538E-03 -1.54612162E-02
  1.25445622E-01 -5.15850258E-02  1.97427773E-02  6.70669927E-02 -1.81337259E-01
  5.29291535E-02 -5.16275223E-05  5.77964803E-03  8.29063553E-01  1.50186779E-03
  8.63906471E-02  2.55228711E-01  3.52442550E-02 -4.51999466E-05  3.22456628E-02
  1.14087028E-04 -5.00191883E-04 -2.92161535E-03  3.55796060E-02  8.52511656E-02
  1.87402758E-02 -4.55822299E-02  2.46535265E-01 -1.32298306E-01 -6.63596024E-03
  1.63718974E-01  6.53153972E-03  1.54392545E-02  1.25650380E-01  5.16724942E-02
 -1.44864050E-03 -4.73919185E-03  1.12834703E-02  1.53438673E-02 -6.62524891E-02
 -1.38297902E-02  4.75201069E-01 -2.20244839E-01  1.40625571E-02 -5.41297647E-03
 -1.87267864E-02  2.00155232E-02 -9.68225296E-02 -5.05662166E-02 -1.87860414E-02
 -6.89820168E-02  1.92347458E-01  1.96183521E-01  3.15650614E-05 -1.16264147E-02
  1.67845179E-01  2.44379601E-04 -1.01706463E-02 -9.56177507E-02 -9.84363320E-03
 -4.45436093E-05 -4.07118321E-02 -1.00428353E-04  1.48596478E-03  5.50381405E-03
 -1.60262456E-02  9.58858209E-02  8.90060627E-05 -4.60373420E-02  7.09589109E-01
 -7.31540049E-04 -1.16821454E-01  7.94525604E-02  2.53561268E-02 -6.54831990E-05
 -1.14147664E-01 -4.79241185E-05 -2.47900164E-02 -4.67960057E-01 -2.15965994E-01
 -1.31733091E-01  1.22069210E-01 -2.48983051E-02 -4.67138428E-01 -2.16541754E-01
  1.31177822E-01  1.22591338E-01 -1.02122941E-03 -3.85919882E-03  2.41702975E-02
 -6.01024988E-02 -1.44761942E-02 -8.99223378E-03 -3.02230798E-02  4.02884419E-02
 -2.15382162E-03 -3.85942622E-02  1.28347361E-03 -5.65771281E-03 -1.47359601E-02
  3.53647209E-02 -1.03457308E-03 -3.90738920E-03  2.44241410E-02 -5.99214284E-02
  1.45002447E-02 -9.13488725E-03 -3.00034520E-02 -4.03105420E-02 -2.14899839E-03
 -3.86031952E-02  1.35345030E-03  5.62746927E-03 -1.46506866E-02 -3.53899512E-02
  7.26268565E-02  5.04653041E-01 -9.10931729E-02 -1.15788608E-02  3.54548051E-02
 -3.64426827E-02 -1.41623647E-02 -7.32408705E-02  1.67061794E-01  2.93047907E-02
 -3.65008262E-02 -1.47854125E-02 -7.29539521E-02 -1.67013043E-01  2.95411926E-02
  7.26003734E-02  5.04698317E-01 -9.08216842E-02  1.16667853E-02  3.53928037E-02
 -9.01737743E-04 -3.45086638E-03  1.92156542E-02 -4.04934994E-02 -1.05250397E-04
 -9.74275567E-02 -4.10792153E-02  1.05359243E-03  3.32523914E-01  5.54931581E-02
 -1.83867336E-01 -6.36760811E-06 -3.31612000E-02  4.11797864E-05  9.78235657E-05
  3.81073095E-04 -5.05095355E-03 -2.87230691E-03 -1.19613876E-02 -1.50827581E-01
 -1.39561453E-01 -7.61717543E-02  8.02504612E-02 -1.74827267E-02 -9.58691972E-02
 -1.22041315E-01  2.99597133E-02  1.23181750E-03 -4.49085025E-04 -1.06565853E-03
 -6.28653449E-03 -2.61809546E-02  9.10605717E-03 -2.27642295E-01 -1.45669435E-01
  4.66007698E-02 -5.75061950E-02 -4.06996658E-02  7.02776359E-02 -8.77823279E-02
 -2.65443386E-02  6.54632692E-03 -2.17818269E-03 -6.55627040E-03 -6.55192764E-03
 -3.45400440E-02  2.27827586E-05  7.71072173E-02 -5.60392573E-02 -1.92072572E-03
  5.56908300E-01 -6.78908780E-02  1.66170053E-01 -6.38054868E-05  3.34914443E-03
  1.38266935E-04 -4.30042526E-04 -9.94817984E-04 -6.66430063E-03 -2.65163924E-02
 -9.17094636E-03 -2.27389692E-01 -1.42199192E-01 -4.73455933E-02 -5.72952754E-02
 -4.09558280E-02  7.02211911E-02  8.77070402E-02 -2.65068212E-02 -6.42524940E-03
  8.08392123E-05  3.25849264E-04 -4.96223093E-03 -2.85109502E-03  1.22448354E-02
 -1.50881869E-01 -1.35285332E-01  7.56778207E-02  8.01086886E-02 -1.74427865E-02
 -9.58798582E-02  1.21989773E-01  3.02196947E-02 -1.10063141E-03  4.11430327E-03
  1.51213058E-02 -4.20716180E-02 -5.25978963E-02 -1.35505563E-04 -1.00319487E-01
 -5.79381038E-02  1.19692133E-04 -8.17628925E-02  4.20471735E-02 -6.69386531E-02
  8.58365622E-05  2.03611625E-02  1.17709001E-06 -3.07465733E-03 -1.14325512E-02
  3.10792197E-02 -1.10553694E-02  2.25335121E-04 -2.19913934E-01 -7.92981740E-02
  8.68241696E-05 -5.34606707E-01 -4.80270453E-02  2.66010898E-02 -4.39891579E-05
  2.66545546E-02 -1.63535103E-04 -6.37814264E-03  7.84123323E-02 -2.73063017E-02
  2.74662820E-02  2.32088860E-01 -6.63110482E-03  7.84716525E-02 -2.80573240E-02
 -2.77368287E-02  2.31452024E-01  1.21566500E-03  4.48289296E-03 -2.60120663E-02
  1.03961233E-02  7.03458916E-04 -5.93853165E-02  1.83888450E-03 -1.65410722E-02
 -8.77806129E-03  1.12918068E-02  8.28245794E-03 -4.27848170E-02  2.71910045E-03
 -8.97909745E-03  1.20481350E-03  4.44434295E-03 -2.58219657E-02  1.05466434E-02
 -6.00461983E-04 -5.92919312E-02  1.95752976E-03  1.65660324E-02 -8.77799461E-03
  1.12165157E-02  8.26010837E-03  4.28173133E-02  2.71112853E-03  8.98941368E-03
 -1.29132780E-02 -1.56371202E-01 -6.47805094E-04  5.55690410E-03  2.52837161E-01
  1.43308875E-02  9.96008289E-02  1.37807419E-02 -1.36184673E-02  1.94193115E-01
  1.44359421E-02  9.89368406E-02  1.42160302E-02  1.42224895E-02  1.93948132E-01
 -1.28430578E-02 -1.53982153E-01 -6.49000801E-04 -6.99649156E-03  2.52943174E-01
 -2.22952582E-05 -7.72579719E-05  2.89169078E-04 -3.31033607E-04  8.01140947E-02
 -3.32860108E-05  6.90284224E-04  5.31381112E-01  3.80993159E-04  5.28796675E-05
 -1.15425213E-04 -6.07163366E-03 -3.28158901E-04 -4.83363497E-02 -2.71784823E-03
 -9.03385224E-03  1.24279264E-02  2.14607258E-02  5.71234707E-02  1.16060655E-01
 -3.40084698E-01  3.03469349E-01 -3.12710166E-02 -5.29966225E-02  7.72010712E-02
  6.13942576E-02  7.83756114E-03  3.90423294E-02 -1.39397372E-03 -3.99254293E-03
 -1.14593600E-02 -7.43543826E-03  1.65780349E-02  2.43474614E-01 -4.63597174E-01
  1.05344349E-01  8.15422044E-02 -5.21657624E-02 -7.84392519E-02  6.23642436E-02
  3.82643185E-02 -2.41437136E-02 -6.85860058E-06 -2.22894438E-05  3.56582633E-05
 -1.19267595E-04  8.60690956E-02  4.03225934E-05  5.60468110E-04 -1.77860300E-01
  3.13441289E-04 -7.70550614E-05  1.06213457E-04  3.20667879E-03  1.36383227E-04
 -4.92048020E-03  1.37906221E-03  3.94464298E-03  1.15471558E-02  7.01767453E-03
  1.66850499E-02 -2.43748995E-01  4.63115800E-01  1.04404230E-01 -8.15968049E-02
  5.21025447E-02  7.86180885E-02  6.23513096E-02 -3.85424863E-02 -2.42794863E-02
  2.73694175E-03  9.10775704E-03 -1.29141685E-02 -2.16481279E-02  5.71965945E-02
 -1.16159673E-01  3.39609669E-01  3.03854929E-01  3.13332082E-02  5.25600215E-02
 -7.72301188E-02  6.13958928E-02 -7.37899402E-03  3.92294129E-02  3.76841035E-05
  1.38654695E-04 -3.96241415E-04 -1.84237557E-04  5.55968486E-02 -1.03933906E-04
  1.39417245E-04 -7.84421285E-03 -2.21094607E-04 -1.77659951E-04 -8.01576852E-05
  2.01803228E-02 -3.31131769E-05  4.10474982E-02 -5.57442139E-06 -2.19344618E-05
  7.57019941E-05 -8.25056682E-05  3.45847210E-03 -1.28013731E-04  3.69027033E-04
  1.06193644E-01 -2.27545719E-04 -1.10930728E-04  8.21322748E-05  2.89476796E-02
  3.86023323E-05  2.00770943E-02 -1.75267080E-02  6.84269992E-02 -1.88673504E-02
 -2.41571008E-02 -4.21770225E-01  1.76037621E-02 -6.88846189E-02  1.87090546E-02
 -2.42056378E-02  4.22082599E-01 -8.52387811E-04 -3.08286242E-03  1.53220787E-02
  1.69139520E-02  4.66921281E-02  4.27025853E-02  2.77927905E-02  2.01384582E-02
  8.59168440E-03  3.11849746E-03 -7.52121452E-03  1.36054817E-02 -7.82772113E-03
 -9.85807009E-03  8.33533233E-04  3.01388104E-03 -1.49252214E-02 -1.66770976E-02
  4.63427841E-02 -4.26408831E-02 -2.77615656E-02  1.98040058E-02 -8.45030300E-03
 -3.05462159E-03  7.55598902E-03  1.36041580E-02  7.90964514E-03 -9.74439871E-03
  3.90691391E-02  1.70703719E-01 -6.29800805E-02  4.80540801E-03 -2.46310350E-01
  3.50520730E-02  3.73000041E-01  9.03755714E-02  1.40166426E-01 -3.47077969E-01
 -3.49372400E-02 -3.72245393E-01 -9.08550168E-02  1.40172046E-01  3.47212485E-01
 -3.90971907E-02 -1.71697887E-01  6.32487200E-02  4.83576101E-03  2.46686996E-01
 -1.99032668E-02 -7.12171745E-02  3.43269173E-01 -4.29411767E-01  9.13930274E-04
 -9.08219447E-03  7.78537636E-01  6.30899273E-03 -2.31366552E-02  8.71943101E-02
  9.10115265E-03  7.24721840E-05 -2.85511915E-01 -1.89147120E-03  8.85850897E-03
  3.06510519E-02 -1.19891741E-01  8.09655915E-03  7.62612223E-02  1.21088606E-02
 -4.19250412E-01 -4.77901869E-01  1.27107163E-02 -1.32849427E-01 -3.72792235E-04
  2.98841942E-03  1.18038186E-01  1.88953621E-02 -1.10146394E-02 -4.00961286E-02
  1.92436326E-01 -1.33642329E-01  1.02876866E-02 -7.96119583E-03 -3.40309570E-01
  2.07783926E-01 -1.49088278E-02  8.71632356E-02 -4.07057030E-03  6.37919047E-03
  1.00159910E-02  1.17785576E-02  8.09735639E-03  2.82357099E-02 -1.08271531E-01
 -4.61245920E-02  5.94369865E-04  7.83311964E-03  3.01721299E-02  4.82918161E-03
  2.79432235E-02 -4.64723455E-02 -2.44832898E-03 -1.13643134E-05  4.70845634E-02
 -1.37464815E-04 -1.10186730E-02 -4.01661771E-02  1.94244483E-01 -1.33512650E-01
 -9.26422920E-03 -6.17120817E-03 -3.34296206E-01 -1.93492368E-01 -1.43536905E-02
  9.06568093E-02 -4.72120062E-03 -6.98318796E-03  8.60758401E-03 -1.20824773E-02
  8.99290726E-03  3.10920586E-02 -1.20418307E-01  7.26125629E-03 -7.34124358E-02
  1.33334307E-02 -4.15917334E-01  4.89213966E-01  1.31855643E-02 -1.29432729E-01
  1.53747996E-04 -3.39509621E-03  1.17467168E-01 -1.80863996E-02  3.56148762E-02
  1.30667987E-01 -3.64557187E-01 -1.00030963E-01  8.45190764E-04  7.87161193E-03
  3.11869893E-01 -2.90151042E-04  6.07739969E-03 -3.38489898E-01 -5.51102113E-04
 -3.92799398E-04  3.88267586E-02  7.12575146E-04 -1.06506755E-03 -3.79530556E-03
  9.00226107E-03 -7.97102232E-02 -2.32463009E-04 -1.64077473E-02 -4.03657509E-03
  4.06865866E-04 -3.71577762E-02  1.66312666E-02  8.31395184E-03 -6.09011039E-05
 -4.50175879E-02  3.96744990E-04  2.33386381E-02  9.62345162E-02 -8.63873191E-02
 -1.12623076E-01  2.62309721E-02  2.33703408E-02  9.39090532E-02 -8.31015704E-02
  1.13412035E-01  2.39462850E-02 -9.67902387E-03 -3.56313737E-02  2.07558240E-01
  8.31582091E-02  2.48127502E-01  1.96080430E-04  4.51093789E-02  1.54220146E-01
 -1.71839058E-03  1.47526347E-03  3.61959073E-05  1.76156572E-03  1.31778920E-02
 -6.66253335E-02 -9.61647358E-03 -3.54041044E-02  2.06360531E-01  8.24026494E-02
 -2.46757053E-01  6.47540824E-04  4.39110474E-02 -1.53685156E-01 -1.54887443E-03
  1.61250052E-03 -1.03827517E-04 -1.82001646E-03  1.32568394E-02  6.63124738E-02
 -3.02117034E-02 -6.64496687E-01 -2.39551981E-01 -3.58764248E-01 -9.17113164E-03
 -1.56968820E-02  2.97237909E-01 -1.53243031E-02  1.40398287E-01 -1.13783513E-02
 -1.72624740E-02  2.78749920E-01 -1.47150625E-02 -1.37658917E-01 -1.42394052E-02
 -3.19529111E-02 -6.76306673E-01 -2.39860908E-01  3.58201648E-01 -1.07973859E-02
 -1.60373518E-04 -5.73113627E-04  2.76395715E-03 -3.51286097E-03 -1.29485989E-01
  4.91636796E-05  6.80507487E-03 -5.45834599E-01  2.35250554E-04  6.69599068E-04
 -1.08025828E-04 -6.66065177E-03 -2.35284297E-03  1.54496688E-01  8.08524100E-03
  2.65742588E-02 -3.34654564E-02 -6.11070187E-02 -1.32388498E-01  6.25408598E-02
 -7.58629882E-02 -6.21196237E-01 -5.76015253E-03  1.86582479E-01  3.15903002E-02
  3.04493415E-02 -3.64496446E-02 -4.59932282E-02 -1.14981582E-03 -7.07513069E-03
  1.09879949E-01  4.00694708E-02 -6.56792459E-02  9.66522900E-02  1.99557807E-01
 -7.94123913E-01  2.77628334E-02  2.05763588E-01 -2.96645976E-02  3.05104662E-02
 -8.11713955E-02  3.63572149E-02  6.14658204E-05  2.13727154E-04 -8.09852511E-04
 -3.63176309E-04 -7.97007945E-02  9.10643723E-05 -2.67699503E-04 -6.75099741E-01
 -1.41470694E-03 -4.25842471E-04 -2.26129075E-04 -5.08753932E-03  2.61626190E-04
  3.93333168E-02  9.69261723E-04  6.41713580E-03 -1.06690496E-01 -4.21777798E-02
 -6.57176586E-02 -9.60175844E-02 -2.05086923E-01 -7.97066418E-01 -2.68592726E-02
 -2.04240534E-01  2.96424956E-02  3.05051525E-02  8.13041416E-02  3.61114643E-02
 -7.94748426E-03 -2.60997231E-02  3.16606417E-02  6.11003050E-02 -1.33571666E-01
 -6.28944605E-02  6.86469064E-02 -6.13077336E-01  4.40462732E-03 -1.88651584E-01
 -3.16221232E-02  3.06682578E-02  3.83455674E-02 -4.61646844E-02  3.01241240E-04
  1.10580406E-03 -3.09782732E-03 -5.82170210E-04 -1.16726600E-01  6.55314166E-05
  2.67376720E-03  2.93390203E-02 -1.74871149E-05 -2.90913039E-03  1.12094243E-04
  9.22218755E-03  2.76364475E-04 -8.91062698E-02 -1.59144184E-06 -4.99401205E-06
  1.15601468E-05 -6.56956125E-04  5.13996441E-02  4.79701828E-04 -1.64543095E-04
 -1.13445354E-01  1.36267128E-03  1.59453973E-04 -9.81180938E-05 -4.64438370E-03
 -3.67061789E-04 -6.53739824E-02  1.88468675E-02 -1.77717712E-01  2.60948387E-01
 -7.57966821E-02 -1.04917387E-01 -1.83077730E-02  1.79567897E-01 -2.62437663E-01
 -7.34497632E-02  1.02748522E-01  3.21631138E-03  1.16487826E-02 -6.04754322E-02
 -4.85179983E-02 -7.98618198E-02  1.93815128E-02 -7.72193732E-02 -2.61738494E-02
  3.21228396E-03  3.58178706E-03 -3.46694368E-03  6.51929134E-03  1.30212952E-02
  2.48280301E-02 -3.39784888E-03 -1.23159316E-02  6.43315840E-02  5.00824084E-02
 -8.39813238E-02 -1.94017679E-02  7.80868891E-02 -2.87624886E-02 -3.10885962E-03
 -3.55190538E-03  3.50448921E-03  6.57226980E-03 -1.27340654E-02  2.59292882E-02
 -9.41938300E-02 -7.69465598E-01  5.04683041E-02 -6.56930885E-02 -1.18048141E-01
 -9.52755035E-02 -9.68048615E-01 -4.12861694E-02 -1.15532087E-01 -1.48245004E-01
  9.48808330E-02  9.72141885E-01  4.13312800E-02 -1.17917086E-01  1.47943951E-01
  9.35886895E-02  7.58178529E-01 -5.45922889E-02 -6.00083083E-02  1.18178868E-01
  2.35288846E-05  8.23342450E-05 -3.27671266E-04  3.14022277E-04 -2.56013718E-01
  1.34132044E-04 -6.58265157E-04  3.44255254E-01  1.04169722E-04 -1.02957277E-04
 -8.01416769E-05 -5.05059491E-03  2.81150630E-04  9.83355893E-02  6.12894430E-03
  2.41671090E-02 -1.52011963E-01  1.51820152E-02 -4.17561635E-02  2.80134464E-02
  1.77534511E-01  6.18209697E-01  4.57735383E-03 -2.55375977E-01  9.54466356E-03
  1.23215572E-02  3.42171749E-02 -1.12499012E-01 -4.81473838E-03 -1.56813091E-02
  1.59808450E-02 -3.80386031E-02  3.25681138E-02  2.70324574E-02  1.27005777E-01
  4.86911953E-01  4.11647363E-04 -2.30509722E-01 -6.56178934E-03  1.25558961E-02
 -2.34255752E-02  1.07641855E-01 -2.33474983E-05 -8.14672169E-05  3.14292768E-04
  1.07510570E-04 -1.92361821E-01 -2.00136297E-04 -1.84379171E-03  3.73412911E-01
 -7.30826546E-04  7.42475055E-06 -1.32578386E-04 -5.19103643E-03 -1.05652282E-04
  1.10626476E-01  4.83754788E-03  1.57601482E-02 -1.63310694E-02  3.83530280E-02
  3.25881022E-02 -2.64444135E-02 -1.25813387E-01  4.89180736E-01  8.23395322E-05
  2.30198055E-01  6.68581405E-03  1.25613052E-02  2.34371184E-02  1.07661891E-01
 -6.15749164E-03 -2.42723914E-02  1.52569790E-01 -1.53593038E-02 -4.16160869E-02
 -2.83895419E-02 -1.76369743E-01  6.17528613E-01 -4.72362131E-03  2.55906653E-01
 -9.32779678E-03  1.20863203E-02 -3.44755018E-02 -1.12325580E-01 -3.26694258E-05
 -1.20870860E-04  3.49921759E-04  2.31819498E-04 -1.67226604E-01 -1.35339394E-06
 -2.57830003E-04 -1.76965946E-01  2.23477768E-04  1.56567264E-04  2.93882479E-05
  3.24109737E-03  2.96532955E-05 -1.56563027E-01  8.81761115E-07  3.33028753E-06
 -4.07983013E-06  9.42301988E-05  3.33013747E-02  3.97181566E-04 -1.28823628E-03
 -3.29148167E-01  6.28705147E-04 -9.34722639E-05 -1.47118647E-04 -4.33126973E-02
  2.41482475E-04 -2.72529724E-02  4.07486945E-02 -2.22145822E-01  2.55396264E-01
 -1.53042903E-01 -2.33356978E-02 -4.07680291E-02  2.23748134E-01 -2.55024620E-01
 -1.53819273E-01  2.19363979E-02  2.55044835E-03  9.34096062E-03 -5.30317130E-02
 -6.03395565E-02 -9.78612922E-02  6.92854155E-03 -7.03647526E-02 -7.29984801E-02
  6.91743152E-04 -3.35729905E-02 -1.23986776E-03  2.46558651E-03  1.07391317E-02
  1.77407251E-02 -2.54427867E-03 -9.31774334E-03  5.28812145E-02  6.02798374E-02
 -9.74018850E-02 -6.84219556E-03  7.04981037E-02 -7.25090685E-02 -7.84339977E-04
  3.35096641E-02  1.12938300E-03  2.53921734E-03 -1.08209582E-02  1.76121865E-02
  1.71294584E-02  6.13309768E-01  2.70091158E-01 -1.12463493E-01 -4.88089115E-02
  1.15330862E-02  3.57943221E-01 -2.62628219E-01 -1.64186117E-01 -4.67325088E-02
 -1.15942551E-02 -3.60152702E-01  2.62922826E-01 -1.63249921E-01  4.69103507E-02
 -1.72512927E-02 -6.12559296E-01 -2.69602393E-01 -1.12976914E-01  4.93743503E-02
 -3.17387625E-03 -1.15378259E-02  6.15380681E-02  1.23125521E-02  4.90569954E-04
  1.04838110E-01  2.92834582E-01 -1.65840068E-03  3.69461940E-01 -3.56813321E-03
 -1.48911066E-01  2.89037077E-05  4.11184421E-02 -3.01503312E-04 -6.89766807E-05
 -5.79634802E-04  1.29040532E-02  2.60230201E-02 -9.64572969E-03 -1.72125415E-01
 -4.07021235E-02 -4.60801020E-02 -2.52456692E-01  5.21973272E-02  3.44278942E-03
 -5.30384710E-02 -3.68317035E-02 -3.25144777E-02  7.13800231E-04  2.29362500E-03
 -6.94840115E-03  5.82819611E-02 -1.89628738E-03  1.52166492E-01  1.50952286E-01
 -2.21469785E-01  2.38447981E-01  2.55016158E-02  4.90890276E-02 -5.61094359E-02
  3.83116560E-02  1.73038550E-02 -2.15439973E-03 -7.61016842E-03  3.39681172E-02
  7.34071221E-02  2.21587272E-04  2.72613140E-02 -5.25048244E-01  3.24140857E-03
 -7.07580375E-01  1.08821372E-03 -1.02871418E-01  4.19553451E-05 -9.83606692E-02
 -9.89336883E-05  6.98414401E-04  2.23146863E-03 -6.53016415E-03  5.84387081E-02
  2.08080733E-03  1.52394705E-01  1.48466161E-01  2.25774203E-01  2.38396451E-01
  2.58824404E-02  4.89451111E-02  5.59980526E-02  3.81061666E-02 -1.76681503E-02
 -3.16702601E-05 -4.48758017E-04  1.24806116E-02  2.57968225E-02  1.02840616E-02
 -1.71927001E-01 -4.42294791E-02  4.45436237E-02 -2.52403831E-01  5.23209762E-02
  3.55906307E-03  5.29333654E-02 -3.68544667E-02  3.29966224E-02  1.58564819E-03
  5.72561753E-03 -1.57190363E-02  7.10787695E-02  3.26594262E-04 -1.11753959E-01
  1.23463380E-01  3.16954210E-04 -8.17790144E-02 -1.14426258E-01  8.53138391E-03
 -1.02849722E-04 -5.34927114E-02  2.50887191E-04  5.64734016E-03  2.10293159E-02
 -5.60104264E-02  2.25408607E-02 -2.62924748E-04  2.88924429E-01 -1.94230441E-01
 -1.68027172E-04  8.65395612E-01  1.63076295E-02 -1.00019769E-01  2.05563079E-05
  3.96722001E-02  1.29244794E-04  3.94580881E-02  1.91052333E-01 -7.21395468E-03
 -4.54437049E-02 -6.74181264E-01  3.96046938E-02  1.90374907E-01 -5.78168222E-03
  4.65176867E-02 -6.74847733E-01 -5.13432767E-03 -1.88457399E-02  1.08755113E-01
  1.70811250E-02  3.49396579E-02 -1.81340333E-02  1.31973235E-02  5.62133897E-02
  2.17891962E-02 -1.11387254E-02  2.95959446E-03 -3.14108938E-02  5.67151428E-03
  4.57559184E-03 -5.12574444E-03 -1.88139781E-02  1.08575692E-01  1.69723246E-02
 -3.43554015E-02 -1.79699547E-02  1.29143694E-02 -5.60684968E-02  2.19004469E-02
 -1.12491749E-02  2.95044765E-03  3.13939742E-02  5.72600765E-03 -4.74924993E-03
 -2.49037313E-03 -4.49660298E-02  7.24306076E-02 -7.56277256E-02  2.32960852E-01
 -3.72879845E-02 -2.97543844E-01  2.70114023E-02 -1.20206049E-02  9.35134160E-02
 -3.76307408E-02 -3.00771798E-01  2.66412012E-02  1.24464197E-02  9.32383187E-02
 -2.77774469E-03 -4.59247287E-02  7.36268234E-02  7.60434906E-02  2.32714798E-01
  1.29378275E-02  4.65854566E-02 -2.12133845E-01 -7.65936914E-02  4.84573140E-05
  5.81015392E-02 -6.22945838E-01  3.10672351E-03  1.02647701E-01 -8.69352796E-02
 -4.55111833E-02  5.84107403E-05 -1.12304431E-01 -8.39911477E-04 -7.65961310E-05
 -2.84555949E-04  2.88929079E-03 -7.96201413E-02  9.42617612E-02 -4.17898802E-02
  4.81741980E-01  2.51266445E-01 -1.21984920E-01 -6.12693199E-02  7.08846686E-03
 -1.35818831E-02  1.11649115E-01  1.06091747E-01 -3.04341280E-03 -1.19405468E-02
  7.76982404E-02 -1.55234399E-01 -1.51939893E-03  8.74711469E-02 -9.70383241E-02
  4.49579582E-01  7.93058153E-02  4.23251743E-02  1.16299343E-02 -2.22411851E-02
 -7.37235883E-02 -1.12873062E-01  5.48602657E-03  1.63272921E-02  9.09860152E-03
  7.40881238E-03  9.90477584E-05  2.10273775E-02  1.45398237E+00 -2.33281732E-03
 -3.58681905E-01  1.00214221E-01 -6.96301765E-02 -5.16909106E-06  2.16067186E-01
 -2.70823663E-04 -3.07656550E-03 -1.20646598E-02  7.83470701E-02 -1.55858039E-01
  1.25153377E-03  8.78851174E-02 -9.27432265E-02 -4.51602700E-01  7.97424313E-02
  4.22995993E-02  1.15937183E-02  2.23069423E-02 -7.41001751E-02  1.12950986E-01
 -2.75375801E-05 -1.09024256E-04  2.21600582E-03 -7.96513485E-02 -9.33526081E-02
 -4.24655051E-02  4.87318553E-01 -2.47827885E-01 -1.22813815E-01 -6.15763927E-02
  6.87344998E-03  1.36169961E-02  1.11986234E-01 -1.06018955E-01 -6.52079386E-03
 -2.37791584E-02  6.72549793E-02 -1.05096641E-01  3.29919015E-04 -3.61309271E-02
 -1.48796903E-01 -1.73394922E-04 -2.27518132E-02  1.57724585E-01  1.67130615E-02
  3.46467373E-04  1.08947095E-01  5.04256936E-04 -7.41414704E-03 -2.75069087E-02
  7.13060203E-02 -5.33060839E-02  5.27113160E-05  1.41712887E-01  4.62428703E-01
 -2.71923480E-04  3.81723948E-01  1.64989488E-01 -7.22862822E-02 -1.01390005E-04
 -4.96146079E-02  4.54650110E-05 -1.11482866E-01 -6.92471577E-01  3.68081905E-01
  1.57123672E-02 -1.56271061E-01 -1.11425110E-01 -6.92100383E-01  3.68083538E-01
 -1.60728895E-02 -1.56908205E-01  1.05250181E-02  3.85979302E-02 -2.22838479E-01
 -6.85420599E-02 -3.93964774E-02 -2.17503244E-03 -3.49626209E-02 -8.52717686E-02
  1.09340796E-02  1.72884060E-03  1.19285293E-03 -9.47059882E-03 -2.00394950E-02
 -9.29879680E-03  1.05679424E-02  3.87542044E-02 -2.23699245E-01 -6.92847797E-02
  3.95395029E-02 -2.58466572E-03 -3.57077796E-02  8.57355890E-02  1.06820618E-02
  1.72440964E-03  1.23114182E-03  9.55412428E-03 -2.00025715E-02  9.27156782E-03
  2.30197987E-02  4.86259421E-01 -3.25679162E-01  2.08421814E-01  9.19487495E-02
  8.45559637E-02  5.50115048E-01 -4.32794566E-03 -1.39411818E-02  2.84169376E-02
  8.45871398E-02  5.48938450E-01 -3.99311838E-03  1.50717728E-02  2.82100864E-02
  2.27992184E-02  4.85432428E-01 -3.27378542E-01 -2.09611512E-01  9.24348723E-02
  5.00642790E-05  1.78266808E-04 -6.62829450E-04  3.27254220E-04  4.78209350E-02
 -5.37542747E-05  1.28402182E-03 -2.40996530E-01 -4.73499821E-04 -7.97819194E-05
  1.37106594E-04 -8.27784486E-02  4.62883547E-04 -1.10751827E-01 -3.29653693E-03
 -1.15895282E-02  3.82816938E-02 -2.22089298E-02  4.50633004E-02  2.88343054E-01
  2.53302210E-01 -6.33535315E-02  1.54925403E-01  2.11126093E-02 -5.44649081E-03
  1.06178582E-01  1.27136396E-03  8.44464771E-03  1.94443924E-03  7.36191333E-03
 -4.09016676E-02  2.83760830E-02  1.75445457E-02 -4.13430250E-02  3.56154372E-01
  2.37299559E-01 -1.51356288E-01 -2.00805184E-05  3.56663066E-02  9.53118330E-02
  7.24777981E-03 -1.19286370E-02  9.41092135E-06  3.84988833E-05 -2.65879783E-04
  5.73224258E-04 -2.59162695E-03 -6.51412977E-07 -3.66474259E-03  4.70496914E-01
  9.85545599E-04 -2.71110267E-04  9.42617408E-05 -1.08807985E-01 -4.88761830E-04
  5.93814577E-03 -1.92472247E-03 -7.29153915E-03  4.05621417E-02 -2.74873299E-02
  1.70922928E-02  4.09884670E-02 -3.54364533E-01  2.40943948E-01  1.50496507E-01
  1.51037877E-04 -3.58969726E-02  9.51320641E-02 -6.67787832E-03 -1.13579752E-02
  3.26416985E-03  1.14726575E-02 -3.77397846E-02  2.23713795E-02  4.50647411E-02
 -2.87971183E-01 -2.53859384E-01 -6.27913422E-02 -1.54322418E-01 -1.99449705E-02
  5.40155129E-03  1.05993393E-01 -1.28231878E-03  8.11555740E-03  2.49349380E-05
  9.15541931E-05 -2.64159857E-04  1.18065782E-03  9.99786326E-02  5.39082736E-06
  5.98197873E-04  3.19874751E-02 -8.20994209E-05 -4.59444946E-04 -3.18455181E-05
  1.92737208E-02 -8.17526174E-04  8.61879872E-02 -3.64157495E-06 -1.25256617E-05
  3.28836361E-05  1.87636167E-04 -1.78580183E-03 -2.55492191E-04 -2.14085577E-03
 -4.72590341E-02 -9.84558271E-04 -2.72346026E-04 -7.39980209E-07 -4.42690110E-02
  2.39798922E-04 -1.47227979E-02  2.84795123E-02  6.52322049E-02 -1.01008060E-01
  8.62743034E-02  6.28631586E-01 -2.86010879E-02 -6.25392803E-02  1.01557527E-01
  8.44271478E-02 -6.27602383E-01 -3.98710854E-03 -1.45139844E-02  8.04015915E-02
  5.46023018E-02  2.95794066E-02  4.39849565E-02  7.00824226E-02  2.33264007E-02
 -7.20449826E-03  3.89327557E-03 -8.05254236E-03  2.20325094E-02 -4.96049186E-06
 -1.64150763E-02  3.91220576E-03  1.42407638E-02 -7.88768230E-02 -5.44108520E-02
  2.85645337E-02 -4.38325346E-02 -7.02692788E-02  2.20802218E-02  7.26412658E-03
 -3.84947064E-03  8.08608260E-03  2.19302696E-02  5.57906137E-04 -1.62903263E-02
  5.54479321E-03  1.23281875E-01  4.89279889E-02  3.83683144E-02 -4.40288985E-01
  1.18077979E-02  1.01211877E-01 -9.62677950E-02 -3.34981949E-02 -4.92583546E-02
 -1.18277540E-02 -1.04516044E-01  9.75995938E-02 -3.29208342E-02  4.95118038E-02
 -5.38848580E-03 -1.23099597E-01 -4.76245192E-02  3.78009883E-02  4.39877348E-01
 -2.84850341E-02 -1.02107702E-01  4.02122818E-01 -1.67367264E-02 -4.32702798E-05
  9.15556430E-02 -5.11970753E-01 -5.98244006E-04 -1.13051750E-01  4.96797295E-02
  2.55355450E-02 -1.26562790E-04 -1.69595471E-01 -1.58724098E-04  4.62145929E-03
  1.69824016E-02 -8.39791647E-02  6.06654605E-02 -8.68257116E-02  5.73315577E-02
  2.71313442E-01  2.87307032E-01 -7.98649809E-02 -2.49513362E-01  1.34960199E-03
 -1.68113308E-03 -4.66590875E-02 -1.45488696E-01 -5.43387673E-04 -2.34190952E-03
  2.60723763E-02 -1.16410124E-01 -8.48217967E-02  5.29661398E-02  2.82605226E-03
  4.35444206E-01 -4.77922051E-02 -8.76352153E-02 -7.66337128E-04 -8.48256569E-03
 -3.49339947E-02  1.67929209E-01 -1.00616333E-02 -3.86792314E-02  2.31050466E-01
 -1.98696863E-01 -2.33683350E-04  6.73662580E-02  1.22799646E+00  7.64255409E-04
 -2.09138997E-01  1.62197372E-01 -2.39584171E-02 -3.40145643E-04  6.48974863E-02
 -2.69651924E-04 -5.73758398E-04 -2.45387775E-03  2.66045893E-02 -1.16496879E-01
  8.45390506E-02  5.32872698E-02  1.49609906E-03 -4.34321858E-01 -4.68528608E-02
 -8.71406942E-02 -1.19807979E-03  8.93684220E-03 -3.53652062E-02 -1.67587103E-01
  4.65187331E-03  1.70902334E-02 -8.43661496E-02  6.04238089E-02  8.67272089E-02
  5.59792932E-02  2.69798792E-01 -2.88057876E-01 -8.09470884E-02 -2.49520210E-01
  1.26458294E-03  2.40335931E-03 -4.64262112E-02  1.45454050E-01 -8.44837528E-04
 -2.85521347E-03  1.73847178E-03 -3.93254222E-01 -6.15011533E-04  6.32205899E-03
 -2.61257699E-01 -4.33258338E-04  1.21114481E-02  1.71523167E-01  5.45900297E-02
  2.99906267E-04  1.99815268E-01 -4.65220393E-05  6.67113501E-03  2.45081502E-02
 -6.92657053E-02  5.50619688E-02  1.33727795E-05  3.54955407E-02  9.02530526E-01
 -9.70470131E-04  1.79165411E-01  1.34689925E-01 -3.10504304E-02 -1.83966970E-04
 -7.20929395E-02  3.46659183E-05  8.08134472E-03 -5.25525496E-01 -1.73923234E-01
 -4.19935355E-01 -2.14757073E-02  8.14613448E-03 -5.23938175E-01 -1.73485163E-01
  4.19433861E-01 -2.44045375E-02  8.40973209E-03  3.06230349E-02 -1.70753100E-01
  1.64614058E-02 -1.57894621E-01  1.60971299E-02  5.53360718E-02 -2.01015392E-01
  1.27113893E-02  1.66839330E-02  1.64525113E-03  4.97595289E-03 -5.78142635E-02
  5.01648391E-03  8.39720858E-03  3.05779043E-02 -1.70515192E-01  1.64357107E-02
  1.57571803E-01  1.57460772E-02  5.55356920E-02  2.00912578E-01  1.25737459E-02
  1.67906274E-02  1.67867785E-03 -4.89917682E-03 -5.77492723E-02 -4.95797825E-03
 -3.30769610E-02  1.94330448E-01  6.97406351E-03 -6.55843161E-02  5.50544509E-02
 -4.86593846E-02  1.83552996E-01 -1.83103673E-01  3.75729391E-02  8.42211912E-02
 -4.85911473E-02  1.83137107E-01 -1.82965817E-01 -3.76115462E-02  8.41361884E-02
 -3.29578037E-02  1.94461445E-01  7.12283152E-03  6.54306980E-02  5.69853608E-02
 -2.84383878E-05 -1.02747193E-04  3.56196068E-04  8.63518415E-04  1.31925059E-01
 -4.94828039E-04 -1.15269962E-03  1.07409741E+00  1.70295856E-03 -4.32556600E-05
 -3.34248096E-04  1.66387748E-02  4.77595579E-04 -4.32169171E-01 -1.12919483E-02
 -3.92668013E-02  1.11447230E-01 -1.28838225E-01  1.71546259E-01 -5.85065539E-02
 -8.97497304E-01  7.13890630E-01 -3.39054661E-02  8.85526258E-02  3.72511083E-03
 -1.95017844E-02 -3.03086858E-02  1.18450056E-02  3.34261166E-03  1.30095441E-02
 -8.26101378E-02  1.70967872E-01  3.30277050E-02  1.72136370E-02 -4.17134917E-01
 -2.04292558E-01  3.35126267E-02 -2.30790320E-02 -6.83114037E-03 -1.65270169E-02
  2.53371294E-02 -1.08233519E-02 -3.09379417E-05 -1.10646314E-04  4.98153893E-04
 -5.49134265E-05 -1.44421250E-02 -5.46403974E-04 -5.66649542E-04 -4.79938340E-01
 -2.80386743E-04  3.92611040E-04 -1.00841307E-04  1.85369208E-02 -2.46722651E-04
  1.18809374E-01 -3.30841705E-03 -1.28875108E-02  8.20497497E-02 -1.70562309E-01
  3.33984742E-02 -1.69009103E-02  4.19758948E-01 -2.02683945E-01 -3.19981312E-02
  2.24248352E-02  6.78847416E-03 -1.67141525E-02 -2.53187709E-02 -1.13481212E-02
  1.12974111E-02  3.92923419E-02 -1.11641991E-01  1.29527819E-01  1.71910540E-01
  5.76014031E-02  8.99827858E-01  7.10916183E-01  3.42063171E-02 -8.88472594E-02
 -3.77526232E-03 -1.95476525E-02  2.95966804E-02  1.26938536E-02 -1.39514948E-05
 -5.13104924E-05  1.38820622E-04 -1.71496812E-04  4.30413154E-01 -5.56878661E-04
 -7.16483336E-04 -1.25109832E-02 -2.41389057E-04  3.50503991E-04 -5.48246255E-04
 -3.94605029E-03 -4.90562541E-04  3.46789413E-01  2.60819199E-05  9.62170949E-05
 -2.59705761E-04  3.48817787E-04  2.14232887E-02  1.97826436E-04  6.69394389E-04
 -7.57864699E-03  2.05515029E-04 -9.93330541E-06  2.81068327E-04 -2.03920932E-02
  6.40637313E-05 -2.25556238E-02  5.88083256E-02  1.67557164E-01  2.25751127E-01
  9.51392351E-02 -1.57101857E-01 -5.85961510E-02 -1.67489761E-01 -2.26857495E-01
  9.58025217E-02  1.57104040E-01 -1.76367149E-02 -6.41207904E-02  3.52464189E-01
  2.38642592E-01  1.06024528E-01 -9.02432826E-03  3.07578617E-01  9.56848063E-02
  1.70686894E-03  1.69077654E-02  1.71061238E-03 -4.79656306E-03  5.96147084E-04
 -6.46035504E-02  1.76401992E-02  6.41342187E-02 -3.52568656E-01 -2.38789324E-01
  1.06174242E-01  8.50545568E-03 -3.07476510E-01  9.60141332E-02 -1.97957166E-03
 -1.68211915E-02 -1.69133601E-03 -4.59485139E-03 -3.81163386E-04 -6.45501008E-02
  4.84744668E-03  3.03757119E-01  4.15577774E-01 -8.49216563E-03  9.11137125E-02
  2.97640477E-02  2.31748990E-01 -2.73261276E-01  4.26286043E-04 -8.26946803E-03
 -3.01512475E-02 -2.35149814E-01  2.72769686E-01  1.06812589E-03  6.49087734E-03
 -4.83599617E-03 -3.00670597E-01 -4.13883875E-01 -8.94995216E-03 -9.16086642E-02
 -5.72502868E-03 -2.03429224E-02  7.26355305E-02 -1.89673477E-02 -3.44837251E-04
 -3.84168284E-01 -1.34695062E-01  2.37488485E-04  8.60389448E-01 -3.45678199E-02
 -2.37306435E-01 -3.36402577E-05 -5.66019237E-02  5.87786370E-04  7.61145791E-04
  2.81182518E-03 -1.09906934E-02 -9.80637069E-03 -1.10814641E-02 -3.42816920E-01
  1.17908208E-01  1.15700260E-01  6.46575172E-02 -5.01255165E-02  1.47426286E-02
 -6.54323755E-03 -6.94886060E-03 -3.01198084E-02 -7.51008210E-04 -3.04132543E-03
  1.95173328E-02 -3.51841851E-02 -2.17807954E-02 -7.48928841E-03  7.34085718E-02
 -6.96938141E-02  5.06948108E-01  3.83352166E-04 -1.33817533E-03  3.68997598E-02
 -6.89714090E-03  2.94501861E-02 -1.41578995E-03 -5.79090704E-03  4.51821060E-02
 -3.71606908E-02  1.88355708E-04 -2.68028173E-01  1.12186893E-02 -4.78261442E-04
 -8.25566534E-02  5.91642994E-02 -8.64139268E-02 -2.37248059E-05  2.10659988E-02
 -4.19278522E-04 -7.48769301E-04 -3.03157380E-03  1.94504958E-02 -3.47275206E-02
  2.14437773E-02 -7.18617711E-03  7.37191818E-02  6.65811200E-02  5.07329093E-01
 -2.04607699E-04 -1.52716391E-03 -3.66903644E-02 -6.92886971E-03 -2.93840058E-02
  7.24251561E-04  2.68252363E-03 -1.06209584E-02 -1.03864329E-02  1.10689571E-02
 -3.43539800E-01  1.16837291E-01 -1.12453842E-01  6.43354644E-02 -4.95475842E-02
  1.46214820E-02  6.73073893E-03 -6.94277111E-03  2.99078257E-02 -4.49784262E-03
 -1.65297744E-02  4.67667095E-02 -1.32137906E-01 -8.90049102E-04 -1.11273924E-01
 -5.98172178E-02 -1.32668566E-04 -9.61982926E-02  3.57423734E-02 -2.61040611E-01
  1.36435067E-04  6.73161016E-02 -5.28778333E-04  1.85982807E-03  6.97336729E-03
 -2.02838549E-02 -5.38248446E-03 -4.15693266E-05  1.09174750E-01  4.75189071E-02
 -3.01504325E-04  1.78191127E-01  3.19396116E-02  1.46515117E-01 -3.76202384E-05
 -1.47400921E-02 -4.99901028E-05  1.34439616E-02 -1.86291897E-02 -2.63161041E-02
 -5.08332305E-02 -1.24088696E-01  1.37925874E-02 -1.67811045E-02 -2.51638304E-02
  4.98985026E-02 -1.25668487E-01  3.34478534E-03  1.21975483E-02 -6.77953107E-02
 -1.43250276E-02 -6.52619598E-02 -9.60109294E-02  1.46251841E-02 -6.46022101E-02
 -4.40808771E-02 -8.62385748E-03 -7.70022414E-03 -4.82042915E-02 -3.05676857E-02
  1.41200636E-02  3.29273201E-03  1.20081849E-02 -6.67483925E-02 -1.36826319E-02
  6.47228808E-02 -9.63236338E-02  1.53498647E-02  6.40700745E-02 -4.42665110E-02
 -8.63536738E-03 -7.65357829E-03  4.82590667E-02 -3.05860526E-02 -1.39984731E-02
 -8.75666333E-03  8.20209147E-02 -4.23764712E-02  1.40328095E-04 -9.35799854E-02
 -1.16689989E-02 -9.58910513E-02 -2.30464080E-02 -8.19742616E-03 -5.01924477E-01
 -1.14104701E-02 -9.34997691E-02 -2.41146172E-02  9.00333433E-03 -5.02124580E-01
 -8.89286662E-03  7.89885335E-02 -4.23427210E-02 -6.54722045E-04 -9.27726972E-02
  2.41842206E-05  8.68835230E-05 -3.71996495E-04  4.41045663E-04 -1.39832818E-01
  1.60430723E-04  9.27810164E-04  3.81993815E-01 -3.12688014E-04 -2.90364295E-04
 -4.84121724E-06 -5.34869539E-04  3.97370613E-04 -1.74593381E-01 -1.20697610E-02
 -4.48265834E-02  2.22109258E-01  1.56769687E-01  3.18849231E-02  1.08447982E-02
 -7.05834494E-01  1.95323577E-01  4.76654489E-03 -6.76576163E-03  8.16029459E-04
  1.43872493E-03 -1.63635700E-01 -4.94838660E-02  1.70337577E-02  6.15694155E-02
 -2.53167026E-01  5.47788557E-02 -2.27734271E-01 -3.81309527E-03 -7.49456431E-01
 -4.67440710E-01 -1.36202742E-03 -9.72459407E-02 -3.49418892E-03  6.97571508E-04
  1.58810760E-01  1.39952523E-01 -6.57942269E-06 -1.82158914E-05 -2.77848463E-05
  1.24663550E-04 -2.12715971E-01  1.62736910E-04 -3.76885773E-03 -6.48617003E-01
  3.36114374E-04 -7.65462078E-05  1.07082337E-05  5.92622651E-03 -7.09056058E-04
 -3.58816424E-01 -1.70125693E-02 -6.14915741E-02  2.52770465E-01 -5.41853372E-02
 -2.27831740E-01  4.21549658E-03  7.49723975E-01 -4.64780877E-01  4.97685639E-04
  9.72801209E-02  3.67159199E-03  6.18445696E-04 -1.58446130E-01  1.40028076E-01
  1.20355264E-02  4.47012071E-02 -2.21510803E-01 -1.56763198E-01  3.20241786E-02
 -1.03477554E-02  7.04608108E-01  1.95877963E-01 -5.50234131E-03  7.49285777E-03
 -9.04503029E-04  1.21693316E-03  1.63272631E-01 -4.94719919E-02 -2.72384616E-05
 -1.01558565E-04  3.14468446E-04  4.66331104E-04  8.52743839E-03 -7.09270346E-05
  2.94454855E-04 -5.59091745E-02  6.65895746E-05 -2.64138639E-04  1.50078272E-04
  2.53886928E-03 -4.17472626E-04  4.81906493E-02  1.07942930E-05  4.02473280E-05
 -1.01470826E-04  1.38717334E-04  7.79107763E-02 -3.65172332E-04 -1.80772980E-03
 -5.70969581E-01 -1.28102972E-03 -3.59593044E-04 -3.80495260E-05 -7.57230742E-03
  1.94305422E-04  2.89666186E-02 -1.34836172E-01 -1.13592573E+00  1.54505695E-01
 -5.93178686E-01  8.03186649E-02  1.35148953E-01  1.13927919E+00 -1.55679842E-01
 -5.93953787E-01 -8.00461060E-02 -4.06277489E-03 -1.50027588E-02  8.81779734E-02
  7.01921078E-02 -2.00999400E-02  3.20785557E-03  5.06899861E-02 -1.85090908E-02
  3.10190402E-04 -5.35793337E-03 -7.55974422E-04  1.43848718E-03 -1.34435419E-02
  8.84697682E-03  4.03564621E-03  1.49032379E-02 -8.75952003E-02 -7.02586656E-02
 -2.02337909E-02 -3.19178965E-03 -5.07127663E-02 -1.88144366E-02 -2.58386025E-04
  5.20499228E-03  7.94599135E-04  1.50280427E-03  1.34185333E-02  8.67077851E-03
 -4.18369755E-02 -4.07315696E-01  1.66145601E-01 -3.67905876E-01 -2.05503295E-02
 -6.28510913E-02 -8.06218900E-02  1.82226525E-01  2.77743502E-01  9.47655106E-03
  6.26907236E-02  7.80716013E-02 -1.81656184E-01  2.77976361E-01 -9.10150426E-03
  4.16839930E-02  4.05845653E-01 -1.65817107E-01 -3.67908450E-01  2.06719086E-02
  2.14011775E-03  7.51987885E-03 -2.11613520E-02  1.82971187E-01 -2.85850581E-04
 -3.33048340E-02 -1.45866588E-01  2.12237342E-03  1.95230124E-01  2.66272593E-01
 -8.78904814E-02 -1.36565162E-04  1.48625374E-01  3.22893883E-04  7.29441224E-03
  2.78706021E-02 -1.77834600E-01  9.36587601E-02 -4.15776240E-02 -5.13921259E-02
 -7.60295755E-02  8.50894703E-03 -1.25281720E-01 -7.34233590E-02  3.69746545E-03
 -1.42938477E-04 -2.47352608E-02  3.87314230E-02  5.80987132E-03  2.29937502E-02
 -1.35344611E-01  4.40861711E-03 -3.86671501E-02  1.14393351E-01 -2.36436761E-01
  1.04682752E+00  1.02098997E-01 -4.79302517E-02 -1.14120916E-04  1.33258010E-02
 -6.11903655E-02  2.95123068E-02  2.50357619E-03  8.14862820E-03 -4.16800157E-02
 -1.29174541E-01 -9.80599439E-05  1.80872218E-02  1.98098244E+00 -3.22540962E-03
 -2.87497453E-01  1.16900629E-02 -9.28876313E-02  1.02148710E-04  2.03705646E-01
 -2.79728696E-04  5.81902343E-03  2.30274006E-02 -1.35527637E-01  4.83502271E-03
  3.84101359E-02  1.14810465E-01 -2.31064077E-01 -1.04746109E+00  1.02280674E-01
 -4.76126834E-02 -2.73099088E-04 -1.34196995E-02 -6.11461546E-02 -2.92625420E-02
  7.26806515E-03  2.77791452E-02 -1.77555577E-01  9.33135366E-02  4.12275613E-02
 -5.13892279E-02 -7.11197365E-02 -8.59489728E-03 -1.26092642E-01 -7.30533191E-02
  3.48490931E-03 -7.48848102E-05 -2.49609986E-02 -3.88792337E-02  3.10716011E-02
  1.14973258E-01 -3.42320764E-01  4.30474737E-01  3.55527470E-06 -4.60348221E-02
 -6.09666685E-02 -2.82594853E-04 -2.07473725E-02  8.04051973E-02 -2.54521259E-02
 -6.20642210E-05 -1.79144171E-01 -4.27620530E-04 -1.66112544E-03 -6.19319198E-03
  1.01905710E-02 -3.46918436E-02 -8.44788560E-06  4.06084764E-02  1.00531114E+00
 -2.95556368E-04  1.66734966E-01  1.24559614E-01  3.96480835E-03 -6.41092195E-06
 -1.70790806E-01  9.44812928E-05 -4.90758371E-02 -8.98232151E-01  1.30378305E-01
 -2.89608445E-01  9.91819136E-02 -4.88847282E-02 -8.97165784E-01  1.30635268E-01
  2.88500186E-01  1.00024247E-01 -8.89832219E-03 -3.22429475E-02  1.69305113E-01
  1.20050591E-01  2.36979180E-01 -2.46295768E-02 -4.47440796E-02  1.49991162E-01
  3.23824029E-03  1.06901507E-01  2.49525713E-03 -1.96279105E-02  1.61080402E-01
 -1.14560739E-01 -8.92160652E-03 -3.23277272E-02  1.69788092E-01  1.20695840E-01
 -2.36852480E-01 -2.42223763E-02 -4.42970530E-02 -1.50424543E-01  3.49574213E-03
  1.06905451E-01  2.36302107E-03  2.00045778E-02  1.60863186E-01  1.14871168E-01
  5.77334812E-02  2.46655390E-01  2.69824771E-01  3.88547954E-02  9.85355364E-02
  5.27505619E-02  9.69793516E-01 -1.62614023E-01  1.95772593E-01 -1.27702942E-01
  5.28542875E-02  9.68671624E-01 -1.63039708E-01 -1.95365815E-01 -1.28610088E-01
  5.78407279E-02  2.49339025E-01  2.69796073E-01 -3.99579121E-02  9.89152290E-02
 -2.89260234E-03 -1.08100154E-02  5.64779582E-02  3.83570558E-02 -1.65580912E-04
 -4.06767556E-02 -1.52218108E-01 -1.03976164E-03 -2.04432409E-01  4.40138475E-02
  2.11807538E-01 -1.22478089E-04 -3.51804226E-03 -8.63669952E-05 -1.18452433E-03
 -4.47637161E-03  2.88000989E-02  9.58962174E-02 -1.34355978E-03  2.24159155E-04
  1.85694454E-01  1.28303984E-01  4.43412346E-01 -6.03884983E-02  8.24625656E-03
 -1.44624834E-02  7.25832885E-03 -1.43979348E-02  1.35720856E-03  4.48125808E-03
 -7.14391725E-03 -2.05041774E-02 -1.22387800E-02 -4.02510795E-01  7.21679177E-02
  1.11434262E-01  7.56648557E-03 -5.72393723E-02 -5.80974010E-03 -5.38629104E-02
  2.57110504E-02  1.78264162E-03 -6.61189666E-03 -2.41700411E-02  1.20093029E-01
  9.31786672E-02 -3.94191344E-04 -2.05357707E-01  4.19080523E-01  6.05028874E-04
  4.59910248E-01  9.48161647E-02  2.09866556E-01 -6.03766809E-05 -1.16836225E-01
 -2.64204075E-04  1.32758092E-03  4.37722948E-03 -6.80343599E-03 -2.03441729E-02
  1.17778939E-02 -4.02535525E-01  7.01030028E-02 -1.12970559E-01  7.50828648E-03
 -5.71076606E-02 -5.79071839E-03  5.38576717E-02  2.55542093E-02 -1.61137286E-03
 -1.17715317E-03 -4.44617610E-03  2.85511757E-02  9.55747296E-02  1.26526402E-03
  4.02275808E-04  1.83532128E-01 -1.28641116E-01  4.43133824E-01 -6.00732318E-02
  8.40308640E-03  1.43871733E-02  7.43557736E-03  1.41395935E-02  1.13986834E-02
  4.22619529E-02 -1.26475658E-01  8.92745567E-02  1.88917956E-04  1.03993750E-01
 -5.87745910E-02  2.17678059E-07  2.33168574E-02  5.76981197E-02 -4.24294153E-02
 -1.01298273E-04 -9.58961157E-03  2.40713373E-05  4.79126870E-03  1.76613674E-02
 -5.01462259E-02  1.25824507E-01 -9.63915214E-05  9.49525069E-02  3.24085325E-01
 -1.91249025E-03  1.64797261E-01  4.58377147E-02  1.75447957E-02 -1.61664666E-04
  1.09513055E-01  1.90733322E-06 -3.84422390E-02 -2.61450083E-01  5.45306754E-03
 -6.62706245E-02 -4.16156636E-01 -3.81337565E-02 -2.57201504E-01  4.19870086E-03
  6.52842688E-02 -4.15846521E-01 -7.90955169E-04 -2.85255480E-03  1.16096525E-02
  4.03891561E-02  7.38293249E-02  4.78885225E-02 -1.24287158E-02  1.91484629E-02
 -3.61809923E-02  4.21714893E-02 -1.97055774E-02  5.32121827E-02  4.49339239E-02
 -4.65679383E-02 -7.83535298E-04 -2.82549402E-03  1.14561279E-02  4.02936347E-02
 -7.37809040E-02  4.79817410E-02 -1.24549087E-02 -1.91021062E-02 -3.60976201E-02
  4.21755165E-02 -1.97598386E-02 -5.31184966E-02  4.49153137E-02  4.67040573E-02
  1.18413498E-02  2.26912057E-01 -8.69454925E-03  2.87869070E-02 -4.45754931E-01
 -9.66985952E-03 -3.16520784E-02  7.03028339E-02 -6.44114234E-02  2.60197825E-01
 -9.55736414E-03 -2.94735046E-02  6.99986764E-02  6.40835077E-02  2.60167726E-01
  1.19248623E-02  2.26279853E-01 -8.30686287E-03 -2.84638347E-02 -4.45785292E-01
  7.55455303E-03  2.91447732E-02 -1.73331876E-01  4.13845499E-02 -7.71149351E-05
 -6.56998741E-04  8.69227997E-02 -2.91756618E-03 -9.39606282E-02  6.15025690E-02
  7.87775855E-02 -2.51250108E-04  8.93335037E-02 -1.47409072E-04  1.29326012E-02
  4.92964999E-02 -3.09697424E-01 -2.31128392E-01 -2.25085149E-02  4.04911290E-03
 -2.96428937E-01 -2.06326658E-01  1.37215074E-01  4.16557209E-02  5.02529477E-04
 -6.29630810E-03 -2.02378548E-02  4.27696118E-02  3.13461399E-03  1.51122786E-02
 -1.59900128E-01 -3.67731753E-02 -9.03573152E-02 -1.43432032E-01 -5.46041670E-01
  9.19657970E-01 -1.18283347E-02  1.81840992E-01  2.35651757E-03 -1.08921348E-02
 -2.17984237E-01  3.79030876E-02  1.23315516E-02  4.49927627E-02 -2.43150321E-01
 -3.18641963E-01 -1.17846693E-04 -2.71485971E-02  1.38868534E+00  2.19675447E-03
  8.13562628E-02 -1.09557405E-01  2.56255865E-02 -2.18930100E-04  5.25196263E-01
 -4.75147839E-04  3.12412011E-03  1.50752985E-02 -1.59760826E-01 -3.69139558E-02
  9.00285888E-02 -1.43686117E-01 -5.50822169E-01 -9.17464300E-01 -1.25829579E-02
  1.82160741E-01  2.32362479E-03  1.11384879E-02 -2.17972262E-01 -3.75059847E-02
  1.29523228E-02  4.93688667E-02 -3.10054369E-01 -2.31204751E-01  2.26103792E-02
  4.14554665E-03 -3.01314982E-01  2.03969578E-01  1.38087177E-01  4.19926468E-02
  8.34128476E-04  6.49027820E-03 -2.01633409E-02 -4.30522158E-02 -1.19187922E-02
 -4.41489252E-02  1.29472933E-01  8.90803497E-03  6.16347689E-04  3.90326317E-02
  6.10553916E-02  4.23395135E-04  7.30655934E-03 -6.75634062E-02 -3.86006393E-03
 -2.02625761E-04 -5.29054582E-02  3.60197039E-04 -1.29978458E-02 -4.88716600E-02
  1.44137137E-01 -3.45668047E-01  9.69602422E-05  3.23991235E-02  3.97560793E-01
 -1.27659405E-03  1.83129582E-01  2.20703006E-03  9.78018850E-03  1.79770302E-05
 -2.62783096E-01  1.01237324E-04  4.76529129E-02 -3.57253560E-01  1.29667987E-01
 -4.31616879E-01 -1.53046938E-01  4.76505402E-02 -3.55501965E-01  1.29229321E-01
  4.31232828E-01 -1.54412231E-01 -8.74277846E-04 -2.93188301E-03  1.58034391E-02
 -4.28964925E-02 -6.02347144E-02  1.91644391E-02  2.81732530E-03  1.28520672E-02
 -1.04245262E-02 -4.21431438E-02 -5.67353806E-03  1.91968747E-02 -1.90403851E-02
  4.44601932E-02 -8.41965619E-04 -2.81432470E-03  1.51460351E-02 -4.33282330E-02
  6.05483256E-02  1.92927738E-02  2.20297581E-03 -1.25985501E-02 -1.03438995E-02
 -4.22336578E-02 -5.64650437E-03 -1.93832679E-02 -1.89734237E-02 -4.47715960E-02
  2.64266868E-02 -1.70380660E-01  1.01275199E-01  6.40091529E-03 -1.27022521E-01
  8.36761072E-02  1.15139625E+00 -4.04937391E-01  3.52225800E-01  1.17727332E-01
  8.38139883E-02  1.15220210E+00 -4.04221610E-01 -3.52856161E-01  1.18538085E-01
  2.65421809E-02 -1.70219868E-01  1.01856366E-01 -5.96351823E-03 -1.27492780E-01
  7.82427736E-06  2.85244787E-05 -1.56201822E-04  4.42441192E-04 -1.62221434E-01
  2.78712272E-04 -3.23152561E-04  2.33165922E+00 -5.64247365E-04  1.92073479E-04
  3.34199618E-04 -4.18290898E-04  5.99149102E-04 -1.06136937E-01  6.17919348E-03
  2.34654514E-02 -1.08608749E-01 -7.17013374E-02  1.09530260E-01 -2.17634074E-02
 -4.93744347E-01  3.24835189E+00 -2.89366461E-02 -1.34715183E-01 -4.18884926E-03
  1.33914138E-03  4.66513262E-02 -3.45684242E-02 -7.33448122E-03 -2.60776507E-02
  6.66262812E-02  1.80121111E-02  1.54499159E-02  2.25402530E-02 -4.12440454E-01
 -2.86191725E+00  3.09829967E-02  2.26780188E-01  2.00451467E-03  2.90025312E-03
 -3.31204380E-02 -9.06142964E-02 -1.89245576E-05 -6.45400723E-05  1.74951138E-04
  1.05752083E-04  3.09284591E-01  2.57128972E-04  2.59912399E-04 -1.93389322E+00
  1.77642167E-04  1.42753080E-04  1.22757371E-04 -8.57761305E-03 -1.50550870E-04
  3.76535795E-02  7.37162504E-03  2.62208347E-02 -6.75701728E-02 -1.77133364E-02
  1.57393619E-02 -2.26386846E-02  4.11490386E-01 -2.86330562E+00 -3.30926415E-02
 -2.27170258E-01 -1.94704892E-03  2.83758775E-03  3.30031073E-02 -9.07497997E-02
 -6.17351338E-03 -2.34415537E-02  1.08438745E-01  7.20111354E-02  1.09737141E-01
  2.26954828E-02  4.95862881E-01  3.24759280E+00  3.06031499E-02  1.35000736E-01
  4.12041934E-03  1.05013842E-03 -4.71462783E-02 -3.41756923E-02 -7.11636721E-06
 -2.76011658E-05  1.00037785E-04  4.02966404E-04 -5.28815959E-02  4.28154665E-06
 -2.11715071E-04 -3.74552115E-01  4.79525448E-04 -7.25018026E-05 -5.63740999E-06
 -7.21108636E-03 -2.41660363E-04 -4.37971741E-02  1.30172095E-05  4.73990486E-05
 -1.25179639E-04  1.59568617E-04  3.53585243E-02 -9.87197957E-05  1.03389503E-03
  9.59759291E-01  4.43351107E-04 -7.82551274E-05  1.99160958E-05  7.74690732E-02
  1.56990484E-05 -3.42129085E-02  1.84674002E-02  8.67528138E-01 -3.40299345E-01
  3.08131423E-01 -5.80166636E-03 -1.83126076E-02 -8.68203200E-01  3.40003863E-01
  3.08744896E-01  6.06676869E-03 -4.79026710E-03 -1.71538663E-02  8.82393152E-02
  2.78334048E-02 -6.13025881E-02 -7.48931772E-03  6.96045748E-02 -4.88146274E-02
 -4.05061746E-04 -7.34483286E-02  2.06496565E-03 -4.02959712E-03  9.31424741E-03
  2.59377138E-03  4.77961503E-03  1.71158762E-02 -8.80446804E-02 -2.79056763E-02
 -6.15091553E-02  7.60779332E-03 -6.94088751E-02 -4.86520282E-02  1.29914781E-04
  7.33814830E-02 -2.29820035E-03 -4.00898709E-03 -9.24565456E-03  2.64369831E-03
  9.59354585E-02  2.38090358E+00  4.46639524E-01 -3.47953869E-02  4.58883224E-02
 -6.30159394E-02 -1.90408496E+00  1.38330282E-01  5.12660692E-02 -5.49419893E-02
  6.30393852E-02  1.90452827E+00 -1.38315397E-01  5.10865161E-02  5.60222232E-02
 -9.58972196E-02 -2.37983360E+00 -4.45534309E-01 -3.47600221E-02 -4.46344254E-02
  5.68339708E-05  1.91905008E-04 -4.84019291E-04  8.75753121E-04 -9.55973120E-03
  8.36706908E-05  1.47745455E-04  2.11123985E-01 -3.82745267E-04 -1.77246519E-03
  2.90711717E-05  8.38855728E-02 -1.10759816E-04 -5.03650745E-03  1.15429429E-03
  4.31429798E-03 -2.08899181E-02 -1.76046869E-02  1.15908548E-02  2.25552380E-01
 -5.04222627E-02  2.79111109E-01  2.62030708E-01 -1.24191157E-02  1.09012366E-01
 -7.88055450E-02  1.35282756E-02 -2.45050784E-03 -1.56131803E-03 -5.69395351E-03
  2.38956314E-02 -2.10960118E-03  1.48282853E-03 -2.71955024E-01 -3.86273170E-02
 -2.52418735E-01 -2.84273984E-01  2.64781010E-02 -1.24106942E-01 -1.03513595E-01
 -1.38672502E-02 -1.08326493E-02 -2.20598166E-05 -7.92771507E-05  3.72879278E-04
 -1.34130934E-04  2.84560921E-02  5.86779970E-05 -8.60263718E-03 -1.66170269E-01
  5.74819647E-04  4.75487535E-04  2.57476560E-04  2.02961651E-01 -6.85758434E-05
  2.03678599E-02  1.51704810E-03  5.52063507E-03 -2.30216217E-02  1.55952466E-03
  2.06356231E-03  2.71734094E-01  4.12477896E-02 -2.43635815E-01  2.83875320E-01
 -2.56617990E-02  1.23995749E-01 -1.03409780E-01  1.33324181E-02 -1.13873724E-02
 -1.19563147E-03 -4.48575338E-03  2.24480382E-02  1.57193458E-02  1.03829901E-02
 -2.25023323E-01  4.75960341E-02  2.79466817E-01 -2.61494410E-01  1.22082930E-02
 -1.09303017E-01 -7.87066003E-02 -1.30111189E-02 -2.72631612E-03  3.37059637E-06
  1.46231105E-05 -5.32003476E-05  9.34421735E-04  1.23192814E-02  6.02454669E-05
 -6.26894276E-04 -2.35022722E-02 -1.88201762E-04  9.12896788E-04  3.82145412E-05
  1.35433063E-01 -4.01581641E-04  4.19334481E-03  2.14374177E-05  8.06652209E-05
 -2.01541550E-04 -2.84188451E-04 -2.56718821E-02 -1.66058921E-04 -3.97360884E-03
 -6.71451217E-02 -4.27120508E-04 -2.01456648E-04 -2.18577525E-05  6.27276274E-02
  2.82626895E-04 -1.43940579E-02 -1.15551246E-02 -1.08479654E-01  5.41702344E-02
 -3.82342322E-02 -2.16573034E-01  1.25753032E-02  1.17681519E-01 -5.64019457E-02
 -3.86509083E-02  2.15555004E-01 -6.05589429E-04 -2.17390296E-03  1.12300755E-02
  4.09556548E-03  2.29345239E-03  1.20163291E-01  1.10524364E-02  1.98200229E-03
  1.98538546E-02 -4.06028704E-03 -3.69040955E-02  5.81523624E-02  1.57630494E-03
 -3.60469920E-03  6.30673574E-04  2.26417438E-03 -1.18022109E-02 -3.96916497E-03
  1.97894113E-03 -1.19848947E-01 -1.18165686E-02  1.35139596E-03 -1.97125765E-02
  4.58099042E-03  3.69159200E-02  5.80328338E-02 -9.97737957E-04 -3.46024793E-03
  8.21618240E-03  2.07332392E-01  2.81752363E-02  8.91834614E-03 -5.44590392E-01
 -4.60572943E-03 -1.68925406E-01  3.46969354E-04 -2.79157018E-03  6.96315651E-01
  4.03798841E-03  1.61478565E-01 -2.15958015E-03 -1.77451281E-03 -6.95985121E-01
 -8.75068387E-03 -2.10547359E-01 -2.85933052E-02  8.41812753E-03  5.44231824E-01
 -1.53584594E-02 -5.11760812E-02  1.16232478E-01 -2.14033715E-01 -2.36613224E-05
 -1.26138764E-02  1.95029479E-01 -9.43127952E-04  4.28929789E-02  4.80325570E-01
 -4.42851817E-03 -1.82691873E-04  2.90298409E-02 -2.50729409E-04  7.46736506E-03
  3.04176868E-02 -2.58343254E-01  2.01745581E-01 -1.99331570E-01 -6.69798653E-03
  4.16548735E-01 -8.13656153E-02  8.43679947E-03  4.79101472E-02  1.71090420E-03
 -3.79442998E-03 -1.44726274E-01 -7.46607361E-02  8.33447780E-03  3.24647102E-02
 -1.75765816E-01  8.43197080E-02  4.78118255E-02 -6.20064957E-03 -3.98283568E-01
  1.14815365E+00  3.49849197E-02 -1.04314851E-01 -1.13163755E-03 -4.74906578E-03
  2.87130561E-02 -3.00042823E-02  2.94392212E-03  1.07037072E-02 -5.10449970E-02
 -3.89765784E-02 -1.70234974E-04 -1.41354234E-02  2.19977319E+00  3.29456465E-04
 -8.69881184E-02 -1.24967070E-01 -9.69019564E-03  7.75184590E-04  9.25460365E-02
 -1.60658818E-04  8.33724037E-03  3.24769453E-02 -1.75852641E-01  8.45509532E-02
 -4.82702012E-02 -4.28920307E-03 -4.02618110E-01 -1.15123277E+00  3.66386753E-02
 -1.04490294E-01 -2.11005711E-04  4.24621533E-03  2.89165673E-02  3.01385018E-02
  7.46784947E-03  3.04181703E-02 -2.58352255E-01  2.02160417E-01  1.99285008E-01
 -8.43882476E-03  4.12471212E-01  8.35015390E-02  6.98334159E-03  4.82507153E-02
  1.35486328E-03  3.57109921E-03 -1.44957661E-01  7.45316390E-02 -5.42723217E-03
 -2.07699598E-02  6.33185146E-02 -2.46970883E-01  2.96294338E-04 -4.87578724E-03
  3.22059559E-01  3.51273756E-05  2.03936024E-05 -3.58976276E-01 -1.48707860E-02
 -8.55895923E-05  3.08292620E-02  2.13537255E-04 -6.12881227E-03 -2.31797148E-02
  6.14356577E-02  2.47261117E-02 -2.07866603E-04  3.06191714E-02  1.00065375E+00
 -2.15602091E-03  1.21161872E-01  2.20075491E-02 -3.44481377E-03  1.90072658E-04
 -9.48666242E-02 -9.25237139E-06 -1.00399141E-01 -1.14513630E+00  2.55976513E-01
 -1.09577369E-01  5.77277357E-02 -1.00047559E-01 -1.14041372E+00  2.54316668E-01
  1.07856567E-01  6.05145026E-02 -7.34453126E-03 -2.70002576E-02  1.73933794E-01
 -2.03258547E-02 -5.06729495E-02 -2.49513682E-03  9.44988160E-02 -2.59674923E-02
 -3.84834479E-03 -9.94858646E-02 -3.16971838E-03  2.97304767E-04 -1.00277205E-01
  6.31596747E-02 -7.32403260E-03 -2.69261290E-02  1.73539244E-01 -2.05602862E-02
  5.09878140E-02 -3.16321659E-03  9.40246933E-02  2.61444295E-02 -3.69433567E-03
 -9.95573793E-02 -2.93226910E-03 -1.73445257E-04 -1.00135230E-01 -6.36394493E-02
  6.69498871E-02  3.24567636E-01 -1.36896223E-02  1.92050978E-02 -3.15308508E-02
  8.33371361E-02  9.80628986E-01  1.87663229E-01  1.36658855E-01 -1.20899882E-03
  8.34561498E-02  9.84965449E-01  1.88354420E-01 -1.37661056E-01 -7.19455826E-03
  6.70582824E-02  3.21537725E-01 -1.33124198E-02 -1.85650593E-02 -2.70244189E-02
  1.07864395E-05  4.91459466E-05 -4.90059725E-04  5.74243903E-04  1.49713501E-01
 -2.16177978E-04  4.60053514E-04  4.77900864E-01 -6.59648948E-04  4.45547401E-04
  3.93811075E-05  2.46176559E-04  6.28704787E-04 -1.33822724E-01 -7.58965421E-03
 -2.63582577E-02  7.43875527E-02  3.71425185E-02  4.41590114E-02  9.61636287E-03
 -6.40063589E-01 -5.57413641E-01  1.69268688E-02  2.11407759E-01  7.78008284E-04
 -2.55403032E-03 -1.29150345E-01  1.25964648E-01  6.04970170E-03  2.45047124E-02
 -1.83746543E-01  1.94312942E-01  2.13398592E-01 -1.80311117E-02 -5.75406550E-01
  1.32067762E+00 -1.33622215E-02 -1.29378435E-02  2.25714048E-03 -4.51257174E-03
  1.27762715E-01 -4.70402943E-02 -5.41700936E-05 -1.85507633E-04  6.00017774E-04
  5.43840643E-05  2.07899679E-01 -3.41058432E-04  2.73125705E-03  4.57262805E-01
  4.99123395E-04  7.17376183E-04  3.16446681E-04 -3.53342540E-03  2.00806803E-05
  1.21000853E-01 -5.93344544E-03 -2.40575019E-02  1.81039446E-01 -1.94279958E-01
  2.14204395E-01  1.76126535E-02  5.71268284E-01  1.31551161E+00  1.41602707E-02
  1.25140006E-02 -2.31094694E-03 -4.37041465E-03 -1.28382698E-01 -4.75432252E-02
  7.60987115E-03  2.64469714E-02 -7.53667251E-02 -3.67530574E-02  4.51084601E-02
 -9.17318237E-03  6.39554586E-01 -5.55164709E-01 -1.66075441E-02 -2.11151605E-01
 -8.89405267E-04 -2.50324437E-03  1.28093085E-01  1.26429675E-01 -3.01458343E-05
 -1.13940224E-04  3.72732845E-04  7.31157126E-04 -5.08874198E-01  2.99699813E-04
  6.39729701E-04 -2.82460139E-01  1.63457766E-04 -5.23174816E-04  2.29496963E-04
  4.19631233E-03 -1.79523515E-04 -2.23282802E-01  1.48033517E-05  5.20996930E-05
 -1.27374139E-04  3.08144747E-04  1.10078375E-01  7.00131241E-05  1.47994257E-03
  1.00350533E+00  8.35626837E-04 -5.39283957E-04  1.59508140E-04  9.51355165E-03
  3.01801453E-04  4.40964647E-02  8.85765713E-02  1.44885864E+00 -4.48446114E-01
  4.18377466E-01 -1.50747688E-01 -8.83522563E-02 -1.45037742E+00  4.48161734E-01
  4.19297874E-01  1.50604207E-01  6.20231859E-03  2.24985936E-02 -1.21272314E-01
 -5.40015223E-02 -2.17698702E-01  4.11839341E-03 -1.58673707E-01 -1.48879876E-01
 -1.08946497E-04 -7.06698962E-02 -1.17161853E-03  2.26016075E-03 -4.84748531E-03
  1.20733589E-01 -6.23365273E-03 -2.26121489E-02  1.21948965E-01  5.38687060E-02
 -2.17906055E-01 -4.00424045E-03  1.58934914E-01 -1.48796705E-01  3.07708384E-04
  7.03432814E-02  1.13138238E-03  2.48870370E-03  4.44152820E-03  1.20582931E-01
  2.66701213E-02 -4.89233925E-01  4.34488642E-01 -1.98095868E-01 -2.26210674E-02
  7.76145175E-02  1.54856286E+00 -1.98426829E-02  3.10640533E-01  2.28632304E-02
 -7.70961828E-02 -1.54268116E+00  1.97699482E-02  3.09992526E-01 -2.28158668E-02
 -2.66169309E-02  4.87530550E-01 -4.35889597E-01 -1.99003310E-01  2.16957851E-02
  7.25076151E-03  2.46530330E-02 -5.41277508E-02  2.14579993E-02 -6.69768953E-05
 -3.35089636E-01  2.50703181E-01 -3.42710962E-04  9.12023089E-01 -7.15736410E-02
 -2.56084257E-01  2.60647717E-04 -1.22225550E-02  3.70824509E-04 -7.69512754E-03
 -2.99690729E-02  1.86739539E-01 -2.74239280E-02  3.37778360E-02  2.30867165E-01
 -5.17084900E-01 -5.65093866E-01  2.09025665E-01  5.67800591E-02 -4.15743884E-02
 -9.96539020E-02 -1.76124747E-02  3.45868467E-02  2.45021273E-03  8.17706135E-03
 -3.50666564E-03 -5.92650122E-03 -6.75065596E-03  7.00498294E-02 -5.37447939E-01
  5.61577865E-01 -3.73304075E-01 -4.50183400E-02  4.53675596E-02  5.47669172E-02
  3.21303587E-02  5.73518662E-02 -6.80033462E-03 -2.55710160E-02  1.41839203E-01
 -4.15344175E-02 -1.52739826E-05  1.95888943E-01  5.05963775E-01 -8.79120244E-05
 -3.44704334E-01  8.59329030E-04  5.94034448E-02 -8.17662894E-05 -2.17372765E-02
  1.13863720E-04  2.45992967E-03  8.21307346E-03 -3.73507344E-03 -5.79880561E-03
  6.86085051E-03  6.98406552E-02 -5.36839552E-01 -5.61232504E-01 -3.73136122E-01
 -4.49498818E-02  4.55234451E-02 -5.49154253E-02  3.20877438E-02 -5.71578476E-02
 -7.71534192E-03 -3.00455554E-02  1.87215540E-01 -2.75619926E-02 -3.41306367E-02
  2.30911485E-01 -5.16122743E-01  5.65333911E-01  2.09848823E-01  5.70008745E-02
 -4.18856742E-02  9.95289946E-02 -1.77974012E-02 -3.44428213E-02 -4.53449295E-03
 -1.72255504E-02  6.14909222E-02  5.34630156E-02  2.20988164E-04 -2.60993326E-01
  9.79196583E-02  6.13285822E-04  2.94412404E-01 -1.30362043E-02 -4.73889972E-01
 -4.40968188E-05 -4.42841377E-02 -1.64671808E-04  2.15603848E-03  8.27137298E-03
 -3.07616211E-02  4.37771193E-02  5.55506548E-05 -8.42407210E-03  2.40790539E-01
  5.17648384E-04 -2.17860406E-02  4.73427176E-02 -1.31732513E-01  3.00021998E-05
  2.01925121E-02  8.07992056E-05 -1.54739518E-02 -1.27254500E-01 -3.14191489E-02
 -1.22601893E-01  8.21719329E-02 -1.55881789E-02 -1.29060697E-01 -3.09818049E-02
  1.23339260E-01  8.18494145E-02 -3.53359775E-04 -1.58620097E-03  1.54220378E-02
 -2.24770087E-02  2.07069475E-02 -1.88415986E-01 -3.17302774E-02  3.70531944E-02
 -1.05311207E-01 -9.76831842E-03 -1.17310468E-01 -4.55427502E-02 -1.32438594E-02
  2.60601459E-02 -3.54421390E-04 -1.59119458E-03  1.54805274E-02 -2.24723398E-02
 -2.08934551E-02 -1.88768199E-01 -3.18749341E-02 -3.69750722E-02 -1.05421324E-01
 -1.02862975E-02 -1.17322458E-01  4.55023604E-02 -1.34522374E-02 -2.63450718E-02
 -5.57234989E-02 -7.86125158E-01 -4.86586407E-02 -1.23502328E-01 -5.75674526E-01
  1.18571491E-02  6.73726889E-01 -4.46942023E-02  8.02614902E-02  4.01635753E-01
  1.18233773E-02  6.72974502E-01 -4.50331417E-02 -8.02537482E-02  4.02235824E-01
 -5.57357009E-02 -7.85908830E-01 -4.88279845E-02  1.23660062E-01 -5.76210877E-01
  1.16153006E-02  4.24160655E-02 -1.74936045E-01  1.26879210E-01 -2.85094691E-04
  6.78908365E-02  5.06533476E-01 -3.65654522E-03 -1.95812232E-01 -3.40604101E-02
  2.69220825E-02  2.83787588E-04  2.16176199E-02  6.00010031E-04 -8.66412870E-03
 -3.23228747E-02  1.62883096E-01 -8.45564767E-04 -2.20544872E-02 -2.56282501E-02
 -9.76597214E-01 -1.15497370E+00 -9.43857174E-02  3.47380608E-02 -2.10779128E-03
  2.96193500E-02 -1.20336074E-01  3.06090017E-02  2.06408082E-02  7.83958355E-02
 -4.39911557E-01 -1.47024907E-01 -2.30939822E-01  2.82389776E-02 -1.51333498E+00
  1.35373906E+00  1.14409199E-01 -1.59880011E-01  2.50565351E-03 -6.94733849E-03
 -4.11835920E-02  2.47457679E-01 -3.68722773E-02 -1.28806801E-01  4.71768963E-01
  3.87450704E-02 -1.95648712E-04 -8.24501446E-02  8.12749370E-01  9.45253416E-04
  1.48269598E-01  4.13838760E-01  3.83715921E-02 -4.65598956E-05 -1.41373270E-01
  6.74912528E-05  2.06823798E-02  7.85557308E-02 -4.40968724E-01 -1.46285632E-01
  2.30558910E-01  2.77576209E-02 -1.51643433E+00 -1.35141479E+00  1.14365206E-01
 -1.59880585E-01  2.71691947E-03  6.89527000E-03 -4.09392498E-02 -2.47186958E-01
 -8.69499549E-03 -3.24276149E-02  1.63191980E-01 -7.33501326E-04  2.15162193E-02
 -2.56862613E-02 -9.78989177E-01  1.15077636E+00 -9.16826114E-02  3.55898403E-02
 -2.79090907E-03 -2.97162008E-02 -1.20908247E-01 -3.06865459E-02 -9.57675576E-03
 -3.65728207E-02  1.33788407E-01  1.54457240E-01  1.18675605E-03  4.65910667E-02
  2.33412237E-01  1.45157142E-03 -6.54777645E-02 -9.52684560E-02  1.08377992E-01
  1.60074556E-04 -7.42556923E-02  4.43862315E-04  1.40929486E-02  5.13925216E-02
 -1.41165294E-01  2.42888575E-01 -1.85634664E-04 -4.30800188E-02  5.03499574E-01
 -1.30240357E-03  3.86511216E-02 -2.47538554E-01  1.06233030E-01  1.66266221E-04
  2.21644866E-01 -2.43316488E-04  7.40913592E-02 -1.37175664E-01 -2.66278107E-01
 -3.35945112E-01 -2.90345846E-02  7.41302512E-02 -1.34601303E-01 -2.66613930E-01
  3.35484485E-01 -3.08496028E-02  6.71459548E-05  4.06016441E-05  7.10498788E-03
 -6.13188654E-02  9.16267860E-02  3.42424029E-02 -7.93984213E-02  7.35438338E-02
  2.87603707E-02 -3.67563388E-02  2.98039806E-02  2.37730791E-03 -3.58952232E-02
  5.00623676E-02  8.20045683E-05  9.55345957E-05  6.78041572E-03 -6.15159659E-02
 -9.07219965E-02  3.40398546E-02 -7.96511984E-02 -7.25871773E-02  2.86159725E-02
 -3.72412478E-02  2.99247849E-02 -2.45337752E-03 -3.58067805E-02 -5.04770842E-02
 -6.02198306E-02 -1.58583483E+00 -4.01181742E-01 -1.05234858E-01  1.61644482E-01
  9.06769346E-02  1.75619681E+00  6.09832394E-02  2.10205577E-01 -1.62447432E-01
  9.09012053E-02  1.75706580E+00  6.14290148E-02 -2.11298999E-01 -1.61867964E-01
 -6.00834735E-02 -1.58248616E+00 -3.98836262E-01  1.05657999E-01  1.60525959E-01
 -1.35653976E-02 -4.32212286E-02  8.51931787E-03  3.08677865E-02  3.43355549E-05
 -8.12096674E-02 -4.75594824E-01 -3.61588774E-03  2.13227582E-01  2.06565492E-01
 -1.03738124E-01  4.61380631E-04  8.53207828E-02 -5.62672622E-05  2.11276766E-02
  8.33364342E-02 -5.52393857E-01  6.83908921E-02 -1.09915687E-01  1.19080682E-01
  1.06932799E+00  1.08919340E+00 -1.04857543E-02 -1.54303973E-01 -3.69423476E-02
 -1.95384455E-02 -1.59176433E-04 -1.04476917E-01  5.53287870E-03  2.56185315E-02
 -3.12960339E-01 -8.32507271E-02 -1.54772763E-01  5.69131714E-02  7.10545016E-01
 -9.37209332E-01 -1.15630477E-01  6.22928128E-02  3.35196808E-02  2.00291983E-02
 -1.69985984E-01 -3.26182316E-02 -5.79831542E-03 -1.31865416E-02 -1.31451442E-01
  2.48504467E-01 -3.21888658E-04  2.30261963E-02 -1.20790030E+00  3.79568923E-03
  1.44496721E-01  2.51423082E-01  8.53837389E-02  3.11791635E-04 -9.04124298E-02
 -2.73634867E-05  5.53683940E-03  2.56383408E-02 -3.13212885E-01 -8.28456529E-02
  1.54318945E-01  5.67438244E-02  7.04058669E-01  9.39216639E-01 -1.15922517E-01
  6.24788996E-02  3.44386616E-02 -2.01895138E-02 -1.70125517E-01  3.28845902E-02
  2.11211511E-02  8.33133538E-02 -5.52352878E-01  6.83890886E-02  1.09687797E-01
  1.19001343E-01  1.06278367E+00 -1.09264426E+00 -1.04155510E-02 -1.54288261E-01
 -3.78683085E-02  1.94945371E-02 -4.73670256E-04  1.04615262E-01  7.30643941E-03
  2.78208301E-02 -1.00484282E-01 -5.30526025E-02 -3.93298597E-05 -8.77668740E-02
 -1.70923939E-01  1.78196535E-04  9.99183446E-02 -2.33426853E-02 -1.24141720E-01
  3.72150970E-04  9.36085667E-02  2.51053179E-05  1.87315009E-03  4.20918487E-03
  3.51525422E-02  5.89807355E-02 -1.47832593E-04 -9.58608627E-02 -4.07246577E-01
 -2.25605532E-03 -1.02656684E-01 -4.27257322E-01  5.20487621E-02  4.75726069E-04
  1.95275304E-01 -1.88876615E-04  1.25747071E-01  4.44178231E-01 -1.82871938E-01
  1.06883083E-01 -1.30540107E-02  1.25917331E-01  4.49247054E-01 -1.84443216E-01
 -1.07885471E-01 -1.61011178E-02  1.87961737E-03  7.82998153E-03 -6.37270381E-02
  2.23081062E-02 -4.48549798E-03 -6.42789276E-02  4.65299558E-02 -6.85897871E-02
 -2.12231102E-02  3.02184499E-03 -3.07577077E-02 -2.20849116E-02  2.24024975E-02
 -5.56021788E-02  1.86679818E-03  7.78313588E-03 -6.34583675E-02  2.25075517E-02
  4.64195308E-03 -6.48147254E-02  4.66008635E-02  6.86544160E-02 -2.14413784E-02
  2.91951487E-03 -3.05902760E-02  2.23461093E-02  2.23070811E-02  5.55153812E-02
  1.50449098E-01  1.57552609E+00 -1.62914889E-01  3.81745802E-01 -1.12767462E-01
  1.66749865E-02 -1.10157865E+00  1.27832145E-01 -1.83022544E-01  6.32411069E-02
  1.67345500E-02 -1.10032292E+00  1.28139011E-01  1.82278503E-01  6.43400554E-02
  1.50531623E-01  1.57538420E+00 -1.62392555E-01 -3.81494458E-01 -1.15033333E-01
 -1.55108390E-05 -6.21935765E-05  5.00475005E-04 -3.09030242E-04  2.78227763E-02
 -3.60833912E-05  8.23042133E-04 -2.71276277E-01 -1.01362326E-03  4.36940889E-04
  9.75067055E-05  4.26367908E-01  8.70804148E-06 -1.95507549E-02 -1.39839737E-03
 -5.09375894E-03  2.50307841E-02  1.42174252E-02  1.34062356E-02  5.08691558E-02
  3.01275663E-01 -5.31064130E-02 -2.48314138E-01  1.69197477E-02  3.75432389E-01
 -1.54350711E-01 -1.42754716E-02  1.11534722E-02  1.67241299E-03  6.07800745E-03
 -2.52454261E-02  2.77974180E-03 -5.89515466E-03  4.50058294E-02  3.11917266E-01
  7.68263397E-02  1.82614161E-02 -4.24892993E-03 -2.04803999E-01 -1.31608659E-01
  1.81774222E-02 -9.14396675E-03  5.41910523E-05  1.77331180E-04 -3.48223029E-04
 -5.76008404E-04 -1.76556830E-02 -2.31253488E-04  3.68369766E-03  3.76000721E-01
  1.52492388E-04 -9.42645818E-04  1.14772046E-04  1.31251045E-01  3.51578892E-04
  5.77933195E-04 -1.72052982E-03 -6.27800266E-03  2.70241776E-02 -1.88546965E-03
 -6.91960401E-03 -4.53575590E-02 -3.11445113E-01  7.47173881E-02 -1.70826593E-02
  4.30456421E-03  2.04709236E-01 -1.31449298E-01 -1.76751319E-02 -8.71395888E-03
  1.38203683E-03  5.02319496E-03 -2.45392601E-02 -1.40149823E-02  1.35955363E-02
 -5.08016270E-02 -3.00619331E-01 -5.19024274E-02  2.49079601E-01 -1.62888076E-02
 -3.75627898E-01 -1.54147444E-01  1.37725720E-02  1.15967930E-02  1.59372040E-05
  5.89975057E-05 -1.94223048E-04  1.00817785E-06 -4.27585204E-02  4.34545661E-04
  6.88899839E-04  4.61744929E-03 -6.76591988E-04 -5.01835843E-04  6.44578191E-04
  3.19715162E-01 -3.59670851E-04 -1.07391750E-02 -2.89261983E-05 -1.02486650E-04
  2.04925141E-04 -3.53666716E-04 -1.17451741E-02  1.96313870E-04  1.06357647E-03
 -3.51775199E-01 -1.43406025E-04  1.10748514E-03 -1.23507648E-04  8.34623196E-02
 -6.25157474E-04 -1.66836361E-03  5.93922356E-03 -2.80081800E-01  1.14798534E-01
  5.63556789E-04  5.75930076E-01 -6.88925777E-03  2.76502150E-01 -1.13031440E-01
  1.01384483E-03 -5.75863943E-01  8.52752385E-04  3.08925958E-03 -1.67164466E-02
 -7.05657428E-03 -7.11917029E-03  1.49299612E-01 -1.44067834E-02 -1.71391352E-02
  1.01854961E-01 -7.25966743E-03 -7.64540989E-02  3.51722976E-02 -3.85932797E-03
  8.23958603E-03 -9.07497702E-04 -3.29730690E-03  1.81101925E-02  7.44679070E-03
 -7.30503466E-03 -1.48604630E-01  1.44852735E-02 -1.76973709E-02 -1.01471955E-01
  7.20602960E-03  7.69618050E-02  3.52090529E-02  3.72334857E-03  8.09621173E-03
  3.86512657E-03  9.38677261E-02 -4.17238379E-02  3.78651260E-02  4.81579731E-01
  9.62773821E-03 -7.80428181E-03 -2.62493433E-02 -2.33296259E-02 -3.89430494E-01
 -9.87383688E-03  8.69453497E-03  2.61895456E-02 -2.37460343E-02  3.88598019E-01
 -4.15151425E-03 -9.43356857E-02  4.25340991E-02  3.88619650E-02 -4.82052849E-01
 -3.65980624E-05 -1.29368041E-04  4.92696265E-04 -2.44137361E-04 -2.18325926E-01
 -3.48203653E-04  3.56238095E-05  1.50612916E-01  2.42904970E-04  3.80686929E-04
  4.10010726E-04  6.14181769E-02 -1.70750651E-05  2.06788835E-01  8.29011055E-03
  2.95938480E-02 -1.33010706E-01 -1.85371853E-02 -1.66548125E-01  1.52370780E-02
 -1.37578566E+00 -1.04860769E+00 -2.55426926E-03 -1.41925739E-01  4.53786753E-02
 -2.42187132E-02  9.01878448E-02 -3.96772193E-02 -8.89189734E-03 -3.14343004E-02
  1.05179636E-01 -4.60234741E-02  1.41950186E-01 -3.54832648E-02 -1.09153179E+00
  9.39938438E-01  4.16276438E-02 -7.25247621E-02 -8.14786640E-03 -2.52639339E-02
 -7.75835279E-02  9.94419216E-02  7.94319574E-06  2.78743138E-05 -7.74294817E-05
  1.21197304E-04  1.36766876E-01  8.97434123E-04 -1.95299713E-03 -1.00279483E+00
 -2.35486235E-03 -6.74945879E-05 -7.96847358E-04 -5.27205663E-03 -1.67741094E-04
 -7.24947303E-03  8.86951314E-03  3.13503283E-02 -1.04739644E-01  4.60983865E-02
  1.41872823E-01  3.48288284E-02  1.09458395E+00  9.42978534E-01 -4.26156717E-02
  7.26677574E-02  7.77639880E-03 -2.58995492E-02  7.73623486E-02  9.96149284E-02
 -8.25200812E-03 -2.94486559E-02  1.32179228E-01  1.88185834E-02 -1.66278117E-01
 -1.62206989E-02  1.37788662E+00 -1.05106073E+00  3.17065709E-03  1.41432526E-01
 -4.50428360E-02 -2.39417974E-02 -9.01994940E-02 -3.90424578E-02  1.43049555E-05
  5.33081810E-05 -1.72221611E-04 -5.40440375E-04  3.72592008E-01  2.98510604E-04
 -2.00974368E-04  1.39059842E-01 -8.33516689E-04 -9.98667787E-05  5.55764975E-04
  5.22246001E-02  1.08132694E-04  1.00890542E-01 -2.82669432E-06 -1.11746325E-05
  4.85586575E-05  6.12885901E-05  3.42959557E-01  3.76789104E-04  1.18681596E-04
  3.37049302E+00  2.13201269E-03  5.79820571E-05 -8.02029485E-05  9.28503848E-02
  7.64314116E-05  9.66178284E-02  1.31672532E-01  3.78228033E+00 -1.46279705E+00
  6.84985692E-01 -3.02344143E-01 -1.31557594E-01 -3.78117226E+00  1.46317957E+00
  6.83154467E-01  3.04050871E-01 -6.09671205E-03 -2.21592332E-02  1.22846401E-01
  4.73022295E-02  4.52507955E-02  2.66791156E-02  1.00023661E-01  1.62516716E-01
  1.29622755E-02  1.03625632E-01 -1.26715764E-02  8.40457417E-03  4.85605547E-02
 -7.60164419E-02  6.09130510E-03  2.21390568E-02 -1.22717296E-01 -4.72122037E-02
  4.53183984E-02 -2.61062366E-02 -9.98778669E-02  1.62794466E-01 -1.29183811E-02
 -1.03675651E-01  1.33656652E-02  8.05670797E-03 -4.84772297E-02 -7.59845833E-02
 -5.27601180E-02 -1.43162371E+00  3.75447927E-01 -3.57869697E-01  3.81180332E-02
 -4.48269135E-02  8.30730692E-01  8.51508890E-02  2.41778265E-01 -7.72842260E-02
  4.46857376E-02 -8.34981205E-01 -8.49090163E-02  2.42452937E-01  8.01449940E-02
  5.29267413E-02  1.43454574E+00 -3.76481564E-01 -3.58621864E-01 -3.99138004E-02
  9.38198781E-04  2.65914491E-03  1.25852311E-02 -3.45585378E-02 -3.72008648E-04
  5.26874904E-02 -1.87612394E-02 -1.21817666E-04 -9.05476304E-02 -2.29913832E-02
 -2.39301434E-01 -6.29214345E-05 -2.48091344E-02  4.53402719E-04 -1.40244869E-03
 -5.71637508E-03  3.91513031E-02 -2.68267443E-02  2.22975130E-02  2.65469997E-01
 -5.91883200E-02 -3.73110266E-02 -2.67815036E-01  7.11947690E-03 -1.48178733E-01
  5.01130681E-04  2.76783452E-02  2.12168516E-02 -2.52926778E-03 -9.88915379E-03
  7.21619385E-02  1.60667205E-02  4.24552782E-02  1.50662386E-01 -7.89495624E-02
  1.96985807E-01  4.57655309E-01  3.05322238E-02  1.27363291E-01 -2.20972319E-01
  2.92943942E-03 -2.43362859E-02  4.99657664E-03  1.68891088E-02 -4.75897057E-02
 -4.01130356E-02  3.80900749E-04 -5.90127571E-01  5.07536636E-01 -1.67322261E-03
  1.28134741E+00 -7.33813277E-02  5.10630555E-01 -3.59580440E-04  5.27327424E-02
  7.56894874E-05 -2.49450249E-03 -9.76571722E-03  7.16994137E-02  1.63979583E-02
 -4.20036664E-02  1.50443376E-01 -7.61673643E-02 -1.94692001E-01  4.58831018E-01
  3.08114446E-02  1.27214094E-01  2.21233872E-01  3.11597347E-03  2.46490730E-02
 -1.43470618E-03 -5.83402806E-03  3.97625242E-02 -2.68218547E-02 -2.30848469E-02
  2.65194658E-01 -5.44460507E-02  3.45581968E-02 -2.67263465E-01  7.83949898E-03
 -1.48150187E-01 -8.76688835E-05  2.70813386E-02 -2.10848595E-02  1.91121317E-04
  7.32327538E-04 -3.34059422E-03 -1.47876773E-02  7.33010173E-04 -1.09356951E-01
 -1.86428021E-02  3.25310679E-04  7.90074973E-02  1.54227156E-02  4.35151972E-04
 -6.65273197E-06  1.84226839E-03  2.17579218E-04 -2.91357055E-03 -1.04909740E-02
  2.24857845E-02 -3.95143637E-02  5.39253704E-04 -7.30915737E-02  2.08523608E-01
  4.79829526E-03 -1.92680685E-01  7.45280538E-02  8.43919427E-02 -1.58465495E-04
  1.70154797E-03  2.05316064E-04 -5.50326004E-02 -1.80764896E-01  4.59219449E-02
 -8.77419727E-02 -3.15538099E-01 -5.55310290E-02 -1.92102925E-01  5.01059883E-02
  9.03659966E-02 -3.14124555E-01 -3.17236214E-04 -1.24777332E-03  8.39141847E-03
  1.02186967E-02 -1.86888609E-02 -6.37915792E-02  5.71001489E-03  1.74008294E-03
  3.18945978E-02  5.82536368E-03  6.40780798E-04 -5.15190859E-02  5.30569490E-03
  2.30112323E-03 -2.94410040E-04 -1.16534220E-03  7.94919366E-03  1.01645454E-02
  1.88722318E-02 -6.37213070E-02  5.14934523E-03 -1.17367897E-03  3.19000103E-02
  5.34501976E-03  5.37812155E-04  5.14965749E-02  4.96986001E-03 -2.76749322E-03
 -1.18396062E-02 -5.72282801E-02  1.10664287E-01 -7.64186354E-02 -1.25286695E-02
 -3.77580363E-03  1.70326896E-01 -3.85212387E-02  4.82348267E-02 -7.03904981E-01
 -3.65621750E-03  1.67886129E-01 -3.91251515E-02 -4.72166928E-02 -7.04722101E-01
 -1.16308384E-02 -5.26360289E-02  1.08809651E-01  7.48811076E-02 -1.29914595E-02
 -3.40857979E-04 -1.35929564E-03  1.02513125E-02 -4.65248141E-03 -1.56388529E-04
  5.08413580E-01  4.72488536E-03  3.60777532E-03 -2.33134793E-01 -1.28814150E-02
  1.88024473E-01  6.81715150E-04 -8.13270260E-03 -3.08886655E-04 -6.12247095E-04
 -2.34925453E-03  1.60227957E-02  1.16959486E-03 -4.44946859E-03 -9.97959381E-02
 -4.78972844E-02 -1.52286571E-02 -5.21421463E-01 -1.41472331E-03  1.58790593E-01
  1.12379661E-01 -8.04105269E-03  8.40218390E-03  9.20884641E-04  3.46014193E-03
 -2.04561626E-02 -6.56136877E-03 -5.85477787E-04 -6.80410615E-02 -1.51287537E-02
 -3.81738569E-02  1.88823636E-01 -5.13747676E-03 -4.27781424E-02 -6.01501539E-02
  7.10265349E-03  1.02798429E-02 -3.63818825E-05 -2.84864486E-06 -6.91675384E-03
 -1.37747400E-02 -1.65985664E-04 -3.16069379E-02 -1.18154368E-01 -5.48946573E-03
  1.01823824E-01  2.58861297E-02 -9.48963696E-02  5.11830603E-04  9.63740936E-03
 -2.60330092E-04  9.12802926E-04  3.42913693E-03 -2.01634015E-02 -6.80808983E-03
  6.41478425E-04 -6.66076150E-02 -5.71783575E-03  3.75046041E-02  1.84380247E-01
 -4.55267830E-03 -4.27187684E-02  5.93474350E-02  7.01801894E-03 -1.00465785E-02
 -5.91461715E-04 -2.27056075E-03  1.55986601E-02  1.32750275E-03  4.09836366E-03
 -9.87714614E-02 -3.95183638E-02  1.27616580E-02 -5.25219962E-01 -1.76001496E-03
  1.58125859E-01 -1.13389946E-01 -7.81077151E-03 -8.80528676E-03  9.17404583E-05
  2.98557662E-04  5.01177165E-05 -1.57242440E-03  4.30224775E-05 -8.18441985E-02
 -9.85326033E-03  1.48670049E-04  6.33798635E-01  2.54797511E-03 -5.00991381E-01
  5.36271604E-05  6.18298884E-03 -2.91981471E-04  5.48622100E-04  2.34080060E-03
 -1.12615855E-02 -4.93295767E-03  7.18313578E-04 -4.80508187E-04 -8.39742922E-02
  6.86940785E-03  5.39972731E-02  5.57408566E-04  5.47439654E-02  1.87144419E-04
 -2.37633120E-02  2.94659080E-04  3.15928883E-03  4.74513425E-02  1.15428961E-02
  4.38641372E-02 -1.43077142E-02  2.61629515E-03  3.23401795E-02  1.62957207E-02
 -4.07328612E-02 -1.41705200E-02  1.04141504E-04  3.59640371E-04 -2.00109886E-03
  5.02120401E-03 -1.45980029E-03 -2.55909333E-01 -8.24808883E-04 -2.24442376E-03
 -5.55544638E-02  1.37703109E-03 -2.79669937E-01  1.96318750E-02  3.95687454E-04
  5.05884781E-04  1.11604829E-04  3.88888271E-04 -2.20609159E-03  4.77549005E-03
  1.52960738E-03 -2.56232965E-01 -6.71969008E-04  2.19695132E-03 -5.57097763E-02
  1.61536812E-03 -2.79408211E-01 -1.98231447E-02  7.29189237E-04 -7.17568137E-04
 -2.84474983E-03 -6.02871594E-02  7.27687790E-03 -1.75770476E-02  6.63344836E-01
  3.89650689E-03  2.27799515E-02  2.94322259E-02  2.39740766E-02 -1.78921697E-01
  4.02917275E-03  2.10947916E-02  2.91849693E-02 -2.38626803E-02 -1.75154258E-01
 -2.46562652E-03 -5.35120240E-02  8.37934750E-03  1.67104674E-02  6.65690341E-01
 -2.78392813E-05 -1.02862154E-04  4.21805569E-04  2.39623555E-03  1.21692133E-02
 -8.11782442E-04  2.89696954E-03  1.90661852E-01  5.53153021E-04  1.65785248E-03
 -5.81340180E-04  1.94469774E-01  1.35160951E-03 -1.30606404E-02 -1.84942601E-03
 -7.04362610E-03  4.44582406E-02  5.25720304E-03  5.23176749E-04 -3.36522904E-01
 -6.46519329E-02  2.03045118E-01  1.15429130E+00  2.66871089E-03 -8.18318177E-02
 -1.04843728E-01 -2.31579761E-02 -1.04060700E-02  8.75005636E-04  2.83725171E-03
 -5.05741133E-03  1.06623939E-02 -2.99659360E-02 -3.74333412E-01 -1.13859360E-01
 -3.12521874E-01  1.18469022E+00 -2.01813870E-02  1.24918199E-01 -1.03639778E-01
  1.61999661E-02 -2.61156823E-03 -5.76656544E-05 -2.41912797E-04  2.30951917E-03
 -1.27145752E-03 -3.13169424E-02 -3.42776346E-04 -3.04206712E-03 -3.35275209E-01
  1.04836084E-03 -1.38514415E-03  6.27869976E-04  1.14849918E-01 -4.21472844E-04
 -2.47689415E-02 -9.89332393E-04 -3.32018554E-03  9.44346876E-03 -1.01807642E-02
 -2.86858032E-02  3.74847369E-01  1.22119306E-01 -3.01380105E-01 -1.18455844E+00
  1.92412805E-02 -1.24543372E-01 -1.03226082E-01 -1.82640009E-02 -2.06908125E-03
  1.94527806E-03  7.36716873E-03 -4.50634994E-02 -4.28722721E-03  1.30432863E-03
  3.37193258E-01  7.38033228E-02  2.04814628E-01 -1.15248789E+00 -2.69735076E-03
  8.09732261E-02 -1.04284054E-01  2.20255162E-02 -7.31471662E-03 -2.81842377E-05
 -1.02861283E-04  2.93673181E-04  8.76513896E-04 -2.57989348E-02  5.41583685E-07
  3.68902849E-03 -7.14910048E-03 -1.19510621E-03 -5.97700845E-04  8.94205163E-04
  8.83927400E-03 -1.77510590E-03 -1.54467108E-03 -3.21082435E-05 -1.22392085E-04
  4.32786216E-04 -1.75860086E-04  2.55507428E-02 -3.19239718E-05 -1.43202636E-03
  2.44954462E-01 -5.49741987E-04  9.44200303E-04 -1.43053300E-04 -5.07092971E-02
  3.02946714E-04  2.71698065E-02  7.77001173E-03  2.78501596E-01  1.85410708E-03
  1.18807397E-01 -2.90010811E-02 -7.98567784E-03 -2.76243736E-01 -2.17514399E-03
  1.18540803E-01  2.89602794E-02  6.02549057E-04  2.16693195E-03 -1.17842515E-02
 -2.17117837E-03  9.20396215E-03  5.20781337E-02 -9.08375789E-03 -1.88432360E-02
 -3.50211553E-02 -8.89009197E-03 -8.25336197E-03  4.89954591E-02 -1.08744507E-02
  6.95714552E-03 -6.69191556E-04 -2.41540518E-03  1.34893521E-02 -2.18209360E-05
  6.82773416E-03 -5.10123157E-02  8.26803641E-03 -2.00297465E-02  3.51995066E-02
  8.63507640E-03  9.21304884E-03  4.90448112E-02  9.75850113E-03  6.28872918E-03
 -1.63503027E-03  6.78537644E-02 -7.67677097E-02  2.93479115E-02 -7.46120805E-01
 -3.28892431E-03 -2.22612066E-01  2.44745469E-02 -5.06459609E-02 -8.73610919E-01
  2.28568357E-03  2.04435060E-01 -2.34752262E-02 -4.73487701E-02  8.72444296E-01
  1.86478762E-03 -6.09401521E-02  6.84676713E-02  2.24504682E-02  7.43366896E-01
  5.45661528E-03  2.04929901E-02 -8.97795087E-02 -4.73938670E-01  2.27913853E-04
 -1.54500751E-02 -5.24953876E-01  5.59977083E-03  1.97184092E-02 -3.07365353E-01
  7.71449733E-03  1.22773898E-03 -2.73351559E-01 -1.53629724E-04 -9.39812487E-03
 -3.16816753E-02  5.67049865E-02 -9.25895618E-02  9.53021583E-02 -9.37261016E-03
 -8.29325694E-01  9.54488451E-02  1.94025214E-02 -1.64037805E-02  3.19574916E-03
 -1.47551522E-03  1.02451351E-01  3.00235185E-01  1.28227855E-02  5.38755777E-02
 -4.79801981E-01 -5.26781011E-02  1.21177769E-01 -2.73859218E-03 -9.46077830E-01
  1.23589978E+00 -3.07605563E-02  8.20558357E-02 -4.02736152E-03  2.18687530E-02
  1.63483194E-01  7.02026067E-02  7.75243547E-03  3.45544133E-02 -3.83264267E-01
  2.45928144E-01 -3.18931857E-04  3.66829166E-02  1.01460758E+00 -7.93288234E-03
 -7.32608222E-02  2.54070647E-01 -1.94805278E-02  7.55139135E-04  7.99599042E-02
 -3.48710062E-04  1.27862233E-02  5.37435918E-02 -4.79110831E-01 -5.33682976E-02
 -1.21478198E-01  1.38135246E-03 -9.38113438E-01 -1.24710681E+00 -4.38525817E-02
  8.27046967E-02 -5.12394163E-03 -2.31153491E-02  1.62949514E-01 -7.04306512E-02
 -9.33035809E-03 -3.14295582E-02  5.54218530E-02 -9.27504463E-02 -9.50454603E-02
 -6.20429346E-03 -8.21833904E-01 -8.69222673E-02  8.72499905E-03 -1.61156377E-02
  3.50618270E-03  2.62395440E-04  1.03155759E-01 -3.00866722E-01  3.71144724E-03
  1.33136610E-02 -3.56845716E-02 -1.82746873E-01 -4.87398690E-04  5.49735236E-03
 -6.70701947E-01 -7.44359130E-04 -1.50063192E-02  8.09224545E-02  6.34899563E-03
  5.62684791E-04  3.34918463E-01  5.13124563E-04  5.94493312E-03  2.22714402E-02
 -7.55722229E-02  6.74109435E-02  6.25316732E-04 -1.71822668E-02  5.06470981E-01
  5.57417727E-03  8.91478680E-02 -2.17032303E-01  4.46278421E-02  1.11741684E-04
 -2.56363231E-02  3.53291550E-04  1.52396983E-02 -3.89436843E-01  2.72149818E-02
 -1.12972162E-01  1.55706389E-02  1.48230757E-02 -4.02383430E-01  2.92237656E-02
  1.17186202E-01  1.65842264E-02  5.97791947E-03  2.22940277E-02 -1.52974922E-01
  2.12854871E-01 -2.42141667E-01  6.87619733E-03  6.98793222E-02 -9.88613966E-02
 -7.87745482E-04  2.28792507E-02  4.85251816E-03  2.03157266E-03  9.90586496E-02
 -4.69718128E-02  5.98019997E-03  2.23036014E-02 -1.53065952E-01  2.12675026E-01
  2.42403020E-01  6.20106997E-03  6.94745964E-02  9.79530542E-02 -8.45772210E-04
  2.33302810E-02  5.06127313E-03 -1.51043690E-03  9.91438149E-02  4.71466668E-02
 -1.85186818E-02 -6.30296364E-01  7.92271994E-01 -6.16070823E-01 -7.64284546E-03
  1.07782030E-01  1.90911224E+00 -7.99424903E-02  3.68476112E-01  4.67738080E-02
  1.07871722E-01  1.91493207E+00 -7.99280662E-02 -3.69485162E-01  5.52320873E-02
 -1.83085878E-02 -6.31306569E-01  7.93209062E-01  6.16437591E-01  8.03251492E-05
 -1.56025089E-05 -6.01512174E-05  4.55633165E-04 -5.20300983E-04 -4.49380527E-02
  5.28072443E-04 -9.25025884E-04 -1.46770904E+00 -1.68610235E-03 -3.44484411E-04
  3.25815808E-04  5.10187464E-03  4.68180087E-05  8.79657327E-02  1.98992780E-02
  7.75106325E-02 -5.37203152E-01  5.43329661E-02  1.15489625E-01 -8.63176809E-02
  8.51324410E-01 -1.12727806E+00  2.11331210E-01  8.67820233E-02 -1.95973061E-02
 -7.81954277E-03  2.22796360E-01  1.16268424E-01 -1.62499263E-03 -2.81152955E-03
 -5.01594051E-02 -1.45494751E-01  2.10370079E-01  2.36389877E-02  1.42475764E+00
  2.24498805E+00  5.94381156E-02  2.47923541E-01 -2.90096829E-02  2.69734226E-03
 -1.29617632E-01 -2.32860440E-02  1.16101237E-05  4.88406433E-05 -4.68569237E-04
 -1.13459779E-05  2.14055587E-01  2.07581293E-04  4.94103411E-05  3.29063739E+00
  1.90974952E-04  4.93240469E-04 -1.35300020E-04  9.22879377E-02  1.21978562E-04
  1.84903733E-01  1.66384462E-03  2.96590097E-03  4.89708322E-02  1.45545816E-01
  2.10092798E-01 -2.40875033E-02 -1.42568013E+00  2.24535039E+00 -5.86878735E-02
 -2.47973601E-01  2.87067049E-02  2.75960478E-03  1.29680829E-01 -2.35528654E-02
 -1.99135553E-02 -7.75614999E-02  5.37422729E-01 -5.41707601E-02  1.15496617E-01
  8.63214214E-02 -8.53369444E-01 -1.12658342E+00 -2.11575198E-01 -8.69282121E-02
  1.99573004E-02 -7.67386896E-03 -2.23044637E-01  1.16164028E-01 -2.02042300E-06
 -1.01496600E-05  7.38607845E-05 -2.69757415E-04  1.79799793E-01  9.23937310E-05
 -1.19655895E-03 -8.91854532E-02  6.85403884E-04  6.40882365E-05 -1.37999637E-04
 -4.17023359E-02  6.42143865E-04 -5.20934814E-02  1.33633098E-05  5.46473120E-05
 -2.34206534E-04 -2.36515111E-04 -3.99106226E-01 -1.69412366E-04 -2.06648516E-03
 -3.97124813E+00 -1.93712009E-03 -9.08051062E-06 -1.56405219E-04 -1.97596872E-02
 -3.49087954E-04 -2.23382506E-01 -1.62341315E-01 -4.48528035E+00  8.35462365E-01
 -1.40753524E+00  4.68649213E-01  1.62388922E-01  4.48659705E+00 -8.35957073E-01
 -1.40764116E+00 -4.70307740E-01 -5.01425304E-03 -1.77125206E-02  9.02645513E-02
 -3.83914318E-02 -1.27100829E-01 -1.14461448E-02  8.69747954E-02  2.04916860E-01
 -1.31358874E-02  6.97783845E-02  9.78406606E-03  2.00098918E-03  1.22528998E-01
 -7.01970239E-02  5.03063241E-03  1.77733926E-02 -9.06901476E-02  3.87772997E-02
 -1.26448760E-01  1.09103797E-02 -8.63426607E-02  2.05836651E-01  1.31208339E-02
 -6.98290795E-02 -1.00611988E-02  1.90346694E-03 -1.22300373E-01 -6.99666789E-02
  5.20882820E-02  3.00672281E-01  7.48148853E-01 -1.04875514E-01 -1.35779002E-01
  5.46182690E-02  1.68679308E+00 -2.11753817E-01  4.21331279E-01 -5.30815911E-02
 -5.44234190E-02 -1.68452905E+00  2.11844859E-01  4.20409275E-01  5.36522371E-02
 -5.21823535E-02 -3.02670389E-01 -7.47022340E-01 -1.03904744E-01  1.36911690E-01
  2.73008595E-02  1.07291125E-01 -8.25726902E-01 -1.89410712E-01 -6.10210539E-04
 -1.86797457E-03  3.49659228E-01 -5.82833276E-03  1.76118452E-03  3.14611552E-01
  2.12359846E-02  6.70594376E-05  1.09114787E-01 -1.78539191E-04  4.48539260E-03
  2.28892066E-02 -3.42983220E-01  4.81024213E-02  2.66422543E-01 -1.32442256E-02
  3.99412639E-02  3.57431788E-01 -5.21505740E-02  2.43456364E-02  1.55495363E-02
  3.46407602E-02  3.67311250E-01 -4.35578559E-02 -8.78958120E-03 -3.02246556E-02
  1.04679052E-01  8.09936540E-02  9.75756351E-02  1.08625987E-02  6.12991162E-01
  1.59227667E+00  1.46546501E-02 -1.10096582E-01  8.33939111E-03  2.72602677E-02
  2.50734301E-01 -2.12980244E-01  8.50266489E-03  3.24652395E-02 -2.40085492E-01
  4.29036559E-01 -4.59272669E-05 -3.78410050E-02  2.25699296E+00  5.22018622E-03
 -1.24008993E-01 -9.06484655E-02 -1.48327730E-02 -5.60854637E-06 -2.01068981E-01
  4.71799805E-04 -8.73814200E-03 -3.00282409E-02  1.03462485E-01  8.08744241E-02
 -9.75117246E-02  1.13748898E-02  6.08062271E-01 -1.58451270E+00  1.33652110E-02
 -1.10070740E-01  8.36696014E-03 -2.72300789E-02  2.51515087E-01  2.13266396E-01
  4.47764517E-03  2.28775994E-02 -3.43464657E-01  4.87998511E-02 -2.67409772E-01
 -1.37380562E-02  3.13484089E-02 -3.69903818E-01 -5.22085824E-02  2.46368222E-02
  1.51235894E-02 -3.48839738E-02  3.67131123E-01  4.32560371E-02  1.77654753E-04
  2.26299142E-03 -4.74595318E-02 -9.80012609E-02 -3.44557797E-05  1.11353892E-02
  2.51421704E-01  5.41052283E-04 -1.64177115E-03 -4.55207546E-02 -1.10130870E-02
  6.17748581E-05 -2.78017851E-01 -2.20225635E-04  1.47311520E-02  5.36530426E-02
 -1.46696541E-01  1.58055008E-01 -6.64835288E-04  7.77509492E-03  1.66535009E+00
 -4.68924596E-03  1.29887142E-01 -1.16541361E-02  9.48257659E-03 -2.69628225E-04
 -6.53454491E-02 -2.95073676E-04  6.62475913E-02 -9.91869631E-01 -1.20663340E-01
 -6.54303832E-01  5.84474465E-02  6.62742940E-02 -9.82740033E-01 -1.21964233E-01
  6.51867602E-01  5.82306098E-02 -7.01030818E-03 -2.49589983E-02  1.50616962E-01
 -2.27197737E-01 -1.87898517E-02 -7.23478260E-03  1.39396359E-01  1.08524940E-01
  5.21641549E-03 -3.42102670E-02 -2.46712989E-03 -4.00406926E-04 -2.98577901E-02
 -3.34931513E-04 -7.00086808E-03 -2.49215514E-02  1.50322322E-01 -2.27349522E-01
  1.85789171E-02 -7.17450865E-03  1.39580802E-01 -1.08514582E-01  4.99739114E-03
 -3.41655620E-02 -2.18535958E-03  1.72532218E-04 -2.96965261E-02  2.24605164E-04
  4.54120417E-02  1.10773931E+00  4.69218784E-01  1.55220148E-01  8.02708373E-02
 -1.12174416E-02  5.16667692E-01 -1.27546985E+00 -6.00374632E-01 -3.77268566E-03
 -1.11609202E-02  5.15287804E-01 -1.27795249E+00  6.01457621E-01 -3.22561648E-03
  4.54449817E-02  1.11528520E+00  4.70035046E-01 -1.57105640E-01  7.95273200E-02
 -1.18101495E-03 -6.00134339E-03  5.11924627E-02 -6.47319482E-02  1.23013965E-03
  6.64517796E-02  1.24599416E+00  8.71441786E-03 -4.97170364E-02  7.73826520E-02
 -6.57698269E-02 -1.11465032E-03 -2.14624746E-02  4.33781205E-04 -3.39065517E-03
 -1.59452484E-02  2.06828298E-01 -1.39754469E-01 -4.34376263E-02 -2.58430127E-02
 -9.27076557E-01 -2.80413225E-01  3.00266622E-01 -2.24642995E-01 -1.29069306E-02
 -1.42465605E-01  2.52736756E-01  3.77757634E-02  3.93763174E-03  1.90293315E-02
 -2.45789607E-01 -2.12449847E-01  6.54542282E-02 -7.46068798E-03  8.03448969E-02
 -3.88289157E-01  1.38653308E-01  7.03827325E-02  1.05216125E-02 -1.23420298E-01
 -6.53945467E-02 -2.13601039E-04  7.38585228E-03  3.23133824E-02 -3.59301403E-01
  2.09551686E-02 -5.18912772E-04  1.14698238E-01 -1.15699492E+00 -1.21637932E-02
  1.50985692E-02  1.90583500E-01  6.48345733E-02  3.77871729E-03  8.45185781E-02
 -1.25439067E-03  3.72402236E-03  1.82382999E-02 -2.41381046E-01 -2.13067466E-01
 -6.56159445E-02 -1.36223310E-02  7.40030308E-02  3.61238828E-01  1.53694786E-01
  7.31486511E-02  1.67140551E-02  1.21906169E-01 -6.94007128E-02 -1.35300600E-03
 -3.35380154E-03 -1.58641055E-02  2.07973082E-01 -1.45146918E-01  4.64713222E-02
 -1.98286164E-02 -9.16499283E-01  3.07449466E-01  2.85203029E-01 -2.26370394E-01
 -1.30426595E-02  1.40629157E-01  2.54874580E-01 -3.77928647E-02  1.09067586E-02
  4.20492291E-02 -1.62708786E-01 -6.45417041E-02  5.46497153E-05 -2.60775555E-02
  6.08542503E-01 -1.89438936E-03 -4.10553536E-03  1.33397682E-01  8.27148652E-03
 -2.97371794E-03 -4.56069479E-01 -1.18024707E-03  1.73744914E-03  8.12632064E-03
 -4.73673577E-02 -5.61546648E-02  3.41524616E-03 -5.52824843E-02 -6.27052758E-01
  2.07285202E-02 -4.46376915E-02 -1.34795212E-01  3.88501478E-02  5.04114334E-03
 -4.21131131E-02  1.71409497E-03  5.20425027E-04  4.17096926E-01  6.05162671E-02
  3.98063947E-01 -2.16312552E-02 -9.17738496E-04  3.62381196E-01  6.76527254E-02
 -3.78423058E-01 -3.29063418E-02 -1.51591830E-02 -5.66747801E-02  3.81220048E-01
 -2.29305019E-01  1.87901404E-01  3.16655454E-02  7.57022570E-02  1.13610940E-01
 -3.42650504E-02  1.53657256E-01 -1.38696733E-02  2.19305392E-02 -1.42812448E-01
  1.65761226E-01 -1.51895146E-02 -5.68007657E-02  3.82325724E-01 -2.27180757E-01
 -1.89240067E-01  3.37293800E-02  7.47211777E-02 -1.12783792E-01 -3.26969309E-02
  1.53003493E-01 -1.51555657E-02 -2.18408711E-02 -1.43538411E-01 -1.67220576E-01
  1.46835807E-02 -6.80467832E-01  5.37205143E-01 -4.69941413E-01 -2.90632858E-01
  3.18976729E-02  9.85766459E-02  4.05977302E-01  4.23873919E-01 -2.11962634E-01
  3.17752569E-02  1.15887198E-01  4.13426488E-01 -4.27942694E-01 -2.20712106E-01
  1.43889117E-02 -7.00209414E-01  5.34249347E-01  4.75327236E-01 -2.78479964E-01
 -2.36745719E-06 -1.06692110E-05 -2.40331708E-04 -5.97914876E-04  4.81221023E-02
  3.63358379E-03  8.51498954E-03  9.40846860E-01 -3.19913701E-03  2.28229850E-04
 -2.99657518E-03  1.15493907E-01  5.65062674E-04 -5.27894405E-03  7.13895145E-03
  2.95451667E-02 -2.58542845E-01  5.64726507E-02  1.46778054E-01  3.24230692E-01
 -3.75624708E-01  7.51407825E-01 -8.43492251E-01  1.07552458E-01  8.09010903E-03
  9.14509800E-02  4.80739718E-02 -5.66816721E-03  4.00075414E-03  1.57279094E-02
 -1.11846597E-01 -4.53463049E-02 -1.81076884E-02 -3.24942284E-01 -3.04116651E-01
 -2.56572097E-01  7.86916475E-01  6.06212219E-02  3.22468022E-01  6.21637994E-02
 -2.85498363E-02  1.31789062E-02  5.31269115E-05  2.37685110E-04 -2.91708726E-03
 -2.32916257E-04 -7.47821200E-02  4.49587984E-03 -2.17183870E-02 -3.11874002E-01
 -1.19840763E-03  2.22128130E-03  3.02516784E-03 -4.02347803E-01  5.21583284E-04
 -7.93414403E-02 -3.83742129E-03 -1.50518350E-02  1.05619410E-01  4.28153585E-02
 -1.92721978E-02  3.24047962E-01  3.11543440E-01 -2.42261250E-01 -7.70395691E-01
 -6.09128565E-02 -3.21039484E-01  7.42187372E-02  3.02017003E-02  1.32251847E-02
 -7.17685089E-03 -2.97009224E-02  2.60118167E-01 -5.69569688E-02  1.47754355E-01
 -3.26724854E-01  3.60826430E-01  7.54392996E-01  8.71111178E-01 -1.09198513E-01
 -8.56110222E-03  1.04303921E-01 -4.66036292E-02 -6.06613018E-03  6.77721046E-05
  2.59692262E-04 -9.48150904E-04 -2.70546988E-04 -4.47724076E-03 -9.65908865E-04
  2.95089127E-03 -1.90592402E-01 -8.29125202E-05  5.90415363E-04  1.65837006E-04
  2.82469846E-01 -2.52147084E-03 -5.52317180E-02  8.24239403E-05  3.41590006E-04
 -1.49855200E-03 -7.75735051E-04 -4.95882213E-02 -1.95389922E-03 -1.14041038E-02
 -2.60237879E-01 -2.00252389E-03 -1.11013862E-03  3.59897309E-04 -4.39737982E-01
 -1.82518500E-03  1.08284769E-02 -5.02481886E-02 -5.46159235E-01  8.92073276E-02
 -3.20063079E-01 -7.37524590E-01  5.10938108E-02  5.63762197E-01 -8.90896769E-02
 -3.31192247E-01  7.37658321E-01 -6.80471426E-04 -2.10754219E-03  3.50261263E-03
 -4.98749069E-02 -4.33054463E-02  7.27825794E-02  4.23792906E-02  4.50938012E-02
  9.19137280E-02 -1.12149165E-02 -7.74429044E-02 -1.45032025E-02  3.04932195E-02
 -2.52616148E-02  5.19756745E-04  1.50490974E-03  5.89295982E-04  4.71685495E-02
 -4.56821197E-02 -7.01199915E-02 -4.11747204E-02  4.39752578E-02 -9.47073377E-02
  1.27275147E-02  7.57907595E-02 -1.63731405E-02 -3.22364531E-02 -2.67188784E-02
  2.99881179E-02  8.01451208E-01  1.73304688E-01  1.47425993E-01  6.22652948E-01
  3.32337392E-03  1.22385600E-01 -1.52054908E-01  2.08999751E-02 -4.36244955E-01
 -2.80252371E-03 -1.25276490E-01  1.54361180E-01  1.64171219E-02  4.12676853E-01
 -3.00176812E-02 -8.11570454E-01 -1.68099528E-01  1.51834793E-01 -6.47636090E-01
  1.70453442E-03  7.36022428E-03 -8.18019917E-02 -3.93491586E-05  4.07196341E-03
  2.84097580E-01 -2.16892572E-01  3.05150387E-02 -2.38339905E-01 -3.56305310E-02
 -2.34576640E-01 -2.34035310E-03  4.27054768E-02  2.18152929E-03  1.29129294E-03
  6.74949374E-03 -9.59792951E-02  8.31982572E-02  3.36488231E-02 -1.35895558E-01
  6.97821448E-02  1.91878052E-01  1.16874622E+00  9.31775580E-02 -1.21487596E-02
 -5.10388509E-01 -8.91648527E-02  2.03806768E-03  3.47151700E-03  1.26011673E-02
 -7.16773415E-02  2.90350510E-02 -3.42048858E-03 -3.16151408E-03  3.20578966E-01
 -3.86180686E-01  6.79941655E-01 -7.33352033E-02  9.66619753E-02 -4.89169584E-01
  9.37222755E-02 -2.13816467E-03 -1.38980864E-03 -5.38270171E-03  2.89431040E-02
 -3.09338796E-02 -2.94197757E-03  3.39426620E-01 -8.00653105E-01 -3.67320398E-02
 -2.14394964E-01  4.51440852E-02  2.68201169E-01  5.10344940E-03 -7.20083667E-03
 -4.78335794E-03  2.77866544E-03  1.00426677E-02 -5.78662021E-02  2.83397364E-02
  9.21987986E-04 -1.31608138E-02  3.01616173E-01  3.04352362E-01  7.05497077E-01
 -6.60818547E-02  1.06065084E-01  4.86651918E-01  8.26921195E-02 -1.71139287E-03
  1.20488635E-03  6.19633605E-03 -8.59975868E-02  6.52841032E-02 -2.14517404E-02
 -1.27009551E-01  1.00919355E-01 -9.91487265E-02  1.14591466E+00  8.47594765E-02
 -1.13431045E-02  5.07408413E-01 -8.35752662E-02 -1.64992991E-03 -2.86410489E-03
 -1.09359857E-02  4.15223975E-02  4.78645849E-03  1.24120109E-04 -7.68437671E-02
 -1.70138066E-01 -7.78888287E-03 -3.66812225E-02 -3.53457856E-02  7.92273897E-03
 -4.56202022E-03  1.11206958E-01 -2.29653650E-03  5.45119208E-03  2.20116389E-02
 -9.02446203E-02 -9.45029635E-03  9.29289693E-03 -1.36003338E-01 -4.03790092E-01
  5.82917298E-02 -1.31868362E-01  3.67975051E-02 -5.91122432E-03  8.19281002E-03
 -1.05445223E-01  5.35763741E-03  2.23275149E-02  4.33085364E-01 -2.84937785E-02
  1.71698565E-01  7.02220743E-02  1.90510022E-02  2.83146611E-01 -9.83254452E-03
 -1.20223334E-01  5.79580341E-02  4.21607244E-03  1.58442207E-02 -1.07435703E-01
  3.67244458E-02 -5.43444515E-02  1.21552548E-01 -8.26735199E-04 -2.52444288E-02
 -1.29408410E-01 -4.55713657E-02 -6.58009033E-02  9.37252822E-02  3.47786637E-02
 -5.64077014E-02  4.08985919E-03  1.53266017E-02 -1.03055332E-01  4.32160262E-02
  5.04335763E-02  1.23309641E-01 -4.07955765E-03  2.90155568E-02 -1.25911455E-01
 -4.82992013E-02 -6.84137057E-02 -9.30665892E-02  3.11195749E-02  5.31550275E-02
 -4.53914565E-03  2.53680251E-01 -1.24731729E-01  1.90099830E-01 -1.02756339E+00
 -3.34512587E-03 -2.78946582E-01 -1.96353336E-01 -1.17392938E-01 -1.00801940E+00
 -3.59593811E-03 -2.27702198E-01 -1.72215854E-01  1.05097049E-01 -1.02227382E+00
 -6.40628252E-03  1.75122291E-01 -1.36919139E-01 -1.70555289E-01 -1.00931804E+00
 -9.77443801E-06 -2.63471942E-05 -6.94434632E-04 -4.70356202E-04 -1.91208832E-01
  7.02117050E-03  4.33227898E-03 -1.66188001E+00 -6.18963702E-03 -1.04364427E-03
 -6.09121580E-03  4.12106802E-02  6.45617888E-04 -9.14577698E-02 -4.63171654E-03
 -2.33604039E-02  3.14503967E-01 -4.20222541E-01 -3.13480393E-01  4.67426303E-02
  8.63910831E-01 -2.24021117E+00 -9.18386854E-02 -2.34729639E-01  6.06615065E-03
  7.04549787E-03  8.94577765E-02 -2.44283346E-03 -1.66130475E-02 -6.17278026E-02
  3.43801725E-01  3.05229963E-03  6.15162237E-02 -6.12584483E-02 -2.98779932E-01
  1.82472395E+00  1.94833308E-01  1.20123995E-01  6.58546603E-02  1.09093611E-02
 -2.40075397E-01  9.29773826E-02  4.31746964E-05  1.97525306E-04 -2.72300275E-03
 -1.43227957E-03  1.41770047E-01  8.77549133E-03 -3.78493690E-02  1.76686916E+00
 -4.02639030E-03  3.40389721E-03  6.79775207E-03 -5.30762017E-02  9.98474422E-04
  2.30101201E-01  1.69220449E-02  6.29432794E-02 -3.53421689E-01 -5.18611545E-03
  6.01791325E-02  6.04135739E-02  3.16512000E-01  1.85592826E+00 -1.59608920E-01
 -1.21996942E-01 -6.12590413E-02  3.56432449E-02  2.43714617E-01  9.24486572E-02
  4.60451374E-03  2.32859486E-02 -3.14533427E-01  4.21868759E-01 -3.13123046E-01
 -5.30541386E-02 -8.78626005E-01 -2.24130892E+00  1.47666700E-01  2.35233813E-01
 -7.00144361E-03  3.25562881E-02 -9.11007131E-02 -3.40507799E-03  3.35064213E-05
  1.30711396E-04 -4.81465879E-04 -6.08488457E-04 -1.08638556E-02 -2.25140811E-03
  1.83809426E-04  4.00283679E-01 -4.75344198E-04  2.79548913E-04  2.40910823E-04
  6.18245291E-02 -7.07864450E-04  1.24587398E-01  1.55747896E-04  6.50745215E-04
 -2.93923460E-03 -1.44740634E-03 -3.78628817E-01 -3.69511341E-03 -2.13399131E-02
 -2.37100179E+00 -5.10714235E-03 -6.23015340E-05 -1.12730300E-04 -1.65263493E-01
 -3.44653075E-03 -2.37047874E-01 -4.51526668E-02 -2.97844124E+00  3.20309982E-01
 -1.00343327E+00  6.55230127E-02  4.61520292E-02  3.01054910E+00 -3.20306319E-01
 -1.02153556E+00 -6.50405212E-02 -2.37093388E-03 -1.00110342E-02  9.08288998E-02
  1.66607352E-01  9.95952129E-02  1.89798571E-02 -9.43575233E-02 -9.82629194E-02
  1.77510937E-02 -4.96557860E-02 -1.88000644E-02 -8.68075013E-04 -8.94377286E-02
  8.87659535E-02  2.35684606E-03  9.95980664E-03 -9.05037105E-02 -1.67770899E-01
  9.88763114E-02 -1.29467049E-02  9.52351481E-02 -9.82938579E-02 -2.42486712E-02
  4.99712572E-02  1.54804626E-02 -5.15044521E-03  8.87255176E-02  8.89984873E-02
 -4.98121387E-02 -1.93857374E+00 -3.45984366E-01 -4.51803175E-01  9.59688148E-02
 -6.57502431E-03  1.04898258E+00  5.78278014E-01  2.75232918E-01 -1.45337276E-01
  7.03544228E-03 -1.06087569E+00 -5.78043114E-01  2.71743328E-01  9.57788159E-02
  4.93479614E-02  1.93328796E+00  3.46805217E-01 -4.53142049E-01 -1.48558399E-01
  9.73344067E-05  3.52885766E-04 -7.46983694E-05  1.76414360E-03  2.45096365E-01
  5.37858564E-04 -1.33295290E-02  3.66646472E+00  1.26182628E-03  4.17677268E-03
 -2.43700994E-04  2.84562387E-03 -4.72767691E-03 -2.41335477E-01  9.33652397E-03
  3.83860730E-02 -3.38197204E-01 -2.88630398E-01  2.59156486E-01 -6.12844665E-02
 -2.83922482E+00  1.05092530E+00  1.89773395E-01  5.12146745E-02  1.50413174E-02
 -2.27230475E-02  1.50096544E-01  6.58561216E-02  5.54890191E-03  2.60530101E-02
 -3.25609267E-01 -2.70493000E-01  9.47664562E-02  5.99798620E-02 -3.06196442E+00
 -1.47786695E-01 -1.52371076E-01  9.76301058E-02 -5.41497454E-02 -9.80380811E-03
 -2.52334380E-01  1.81452534E-01 -8.00670543E-05 -3.52709950E-04  4.67309674E-03
  6.15266294E-03 -2.37004454E-01  7.51104782E-04  1.23398403E-01 -2.31068668E+00
 -4.94495672E-03 -9.85032060E-03  1.07657052E-03  7.67546293E-02 -4.04620574E-03
 -2.58187261E-01 -6.60530125E-03 -3.01398386E-02  3.55912358E-01  2.76054248E-01
  1.02305857E-01 -5.84157842E-02  2.98600806E+00 -2.59060284E-01  1.54183125E-01
 -8.90376661E-02  5.62718548E-02 -8.29309360E-03  2.37479673E-01  1.80407698E-01
 -9.31187970E-03 -3.84295814E-02  3.41389400E-01  2.77509110E-01  2.60529715E-01
  5.92455475E-02  2.87720156E+00  1.05334631E+00 -1.80845423E-01 -5.81480109E-02
 -1.40049409E-02 -2.05194100E-02 -1.38632474E-01  6.83937514E-02 -4.60962440E-05
 -1.80577468E-04  5.42271704E-04  1.33737761E-03 -1.67263788E-01  2.58544065E-04
  1.68861675E-03 -2.82413341E-01 -1.33779770E-03 -3.22094867E-04 -3.77281172E-04
 -3.62348234E-02 -5.80126564E-04 -4.75565657E-02 -5.89877481E-04 -2.45824095E-03
  1.10574664E-02  5.74454879E-03  1.41651375E-01 -8.03441252E-05  5.95237046E-02
  8.66799364E-01  5.35742865E-03 -4.61242505E-03  8.63554841E-04  1.08808019E-01
  7.15726166E-03  1.09277615E-02 -4.14773381E-02  4.65236336E-01 -9.69114949E-01
 -8.25137826E-01  3.45362925E-02  3.83669850E-02 -5.65502736E-01  9.70516387E-01
 -7.72833388E-01 -2.65976587E-02  1.59059341E-03  5.75082590E-03 -3.31088440E-02
 -7.60964815E-03  2.79165671E-02 -2.43525554E-03 -2.76051872E-02 -1.21446033E-01
 -1.81268409E-02 -1.21186875E-01  1.11303412E-02  7.43101127E-03 -3.70169513E-02
  4.13046321E-02 -1.64622265E-03 -5.95136974E-03  3.42748643E-02  1.02267730E-02
  2.77710006E-02  3.68855563E-03  2.36589915E-02 -1.22040356E-01  1.71508556E-02
  1.21233902E-01 -1.17071265E-02  6.47252986E-03  3.87729992E-02  3.84261665E-02
 -2.61353052E-03  3.30931314E-02  1.46570114E-01  1.71591428E-01 -1.03880904E-01
  6.75711110E-03  1.51056128E+00 -5.85885482E-01  3.54498160E-01  3.88649247E-02
 -8.59410666E-03 -1.46059940E+00  5.95215918E-01  3.64732311E-01 -4.53601116E-02
  3.80553713E-03 -2.88888605E-02 -1.44333300E-01  1.87016678E-01  9.97029050E-02
  3.35939395E-03  1.18999646E-02  2.72642083E-02  8.45143768E-02 -5.45177088E-03
  4.95793604E-02 -6.67204354E-01 -7.99553807E-02 -2.80242776E-02  2.02221087E-01
 -6.59444547E-03 -1.55909025E-04 -2.35171840E-01  5.01070282E-03  4.27656729E-04
 -1.92835418E-03  9.34371403E-02 -2.64559755E-01 -5.51358257E-02 -7.01910234E-02
  9.46404984E-01 -7.26538104E-02  2.97890019E-01 -1.72398830E-01  3.68311276E-02
 -6.78283736E-02  2.60968797E-01 -4.97335146E-02 -2.51197815E-02 -9.72170245E-02
  7.21534363E-01  1.22263880E-01 -1.68479383E-01  4.23503793E-02 -1.68480923E+00
  2.53944633E+00  7.40421374E-02  2.10859021E-01  6.89053085E-02 -5.16460430E-02
 -3.45070081E-01  1.78931812E-02 -3.51551743E-03 -1.57521882E-02  2.18496905E-01
  2.97593908E-01  5.28262762E-03  5.48479410E-02  5.76375089E+00  5.30750583E-02
 -2.96904016E-01 -4.72421849E-01  5.46461753E-02 -1.74391487E-03 -1.73588175E-01
  5.98360894E-03 -2.48272192E-02 -9.59095130E-02  7.06905940E-01  1.10175924E-01
  1.64801738E-01  4.54858221E-02 -1.81514748E+00 -2.52049055E+00  6.53526950E-02
  2.14229150E-01  6.63440135E-02  5.21542302E-02 -3.54723926E-01 -2.50842774E-02
  7.97809567E-04 -3.99697228E-04  7.98637506E-02 -2.75524267E-01  4.40890847E-02
 -7.32170259E-02  8.19096572E-01  2.07254754E-02  3.08484758E-01 -1.69786329E-01
  3.70511596E-02  6.89241493E-02  2.66898532E-01  4.64401552E-02 -1.67576411E-03
 -6.71737149E-03  2.16216513E-02  6.11210021E-02  3.66147283E-03  1.65618084E-02
  6.57286896E-02  5.96889920E-03 -5.88912889E-02 -1.20855406E-02 -3.20902866E-02
  7.48854490E-04 -2.51229291E-02  1.00500019E-03 -2.81636657E-02 -1.17223042E-01
  5.25995767E-01  2.68405044E-01 -3.90317425E-03 -8.94661393E-03  2.77336191E+00
 -2.51028929E-02  2.42120934E-01 -2.29757949E-01  3.12219947E-02 -2.74707939E-03
  3.37472681E-01 -1.00776607E-03 -7.46639405E-02 -2.37702977E+00  6.71509058E-02
 -1.20881368E+00  2.07957438E-01 -7.60965871E-02 -2.34019922E+00  2.63630206E-02
  1.23593818E+00  2.10401345E-01 -1.39701582E-03 -5.09738029E-03  3.01587847E-02
  7.77676208E-02  1.29214341E-02  3.23558679E-02 -1.05414371E-01  3.76629980E-04
 -3.44822050E-02  5.68848996E-03 -2.15169336E-02  3.82993372E-02  4.49642170E-02
  7.40890375E-02 -1.30108657E-03 -4.74678105E-03  2.80740331E-02  7.71282420E-02
 -1.38531570E-02  3.24533934E-02 -1.06860491E-01  4.42788893E-03 -3.54412682E-02
  1.15215180E-03 -2.08334394E-02 -3.86603525E-02  4.36393700E-02 -7.56949080E-02
  2.83903792E-02  9.26644691E-02  5.21928637E-02 -3.81727012E-01 -1.21320562E-01
 -3.88671309E-02  1.12178949E+00  2.67753955E-01 -2.29969247E-01 -2.13489600E-01
 -3.85433382E-02  1.17904862E+00  2.43137199E-01  2.15473922E-01 -2.11269802E-01
  2.83662387E-02  9.57421614E-02  5.86473686E-02  3.73999201E-01 -1.27231996E-01
  6.49670640E-03  2.38313116E-02 -1.31580405E-01  1.42374779E-01 -1.82579473E-04
 -2.24609814E-02  1.02155424E+00 -6.39409337E-03  1.20394759E-01  7.05284488E-02
  6.14600376E-02  1.30166163E-04  2.38763378E-01  1.24299230E-05  1.61457833E-02
  6.37235528E-02 -4.89100112E-01  5.36317216E-02  3.23519993E-01 -5.22131484E-02
 -3.78541932E-01 -6.21505821E-02  1.82047763E-01  1.70591602E-01  5.87707447E-02
  1.90735282E-02  3.07338376E-01 -1.54991853E-01  1.69020355E-03  6.34514009E-03
 -4.35206399E-02 -2.11950700E-01 -1.28868995E-01  7.29261307E-02  2.51654312E-01
 -9.30773082E-01 -2.94043374E-01 -2.84204047E-02  7.35117670E-02  2.55585372E-03
 -4.23508841E-01  1.28757155E-02 -2.32827199E-02 -8.83230875E-02  6.09039299E-01
 -1.09664727E-01  4.68374946E-04 -2.57957771E-02 -5.92652930E-01  6.88594227E-03
  6.29020145E-02 -1.38623097E-01  6.48999652E-02  9.65513627E-05  8.56704383E-02
  1.08802608E-04  1.72327424E-03  6.47207795E-03 -4.43074728E-02 -2.12486526E-01
  1.28805177E-01  7.36712492E-02  2.41444747E-01  9.42178500E-01 -2.97177512E-01
 -2.84688214E-02  7.38666731E-02 -2.68654322E-03 -4.23567296E-01 -1.32601674E-02
  1.61333519E-02  6.36789889E-02 -4.88984848E-01  5.34671077E-02 -3.23510149E-01
 -5.30584190E-02 -3.90236573E-01  5.11797869E-02  1.84439218E-01  1.70544951E-01
  5.88459654E-02 -1.92612723E-02  3.07427374E-01  1.54334712E-01 -6.50564540E-03
 -2.13398615E-02 -7.64116942E-03 -5.57753923E-02 -1.84264708E-04  4.22477716E-02
  3.54004161E-01  4.62445269E-04 -1.10125969E-01 -9.36025082E-02 -6.08947984E-02
  5.06020318E-04 -1.69631519E-01 -1.50985633E-04 -5.55409466E-03 -2.15354388E-02
  8.12094573E-02  1.03680721E-01 -3.03704483E-04 -9.51617568E-03 -8.74179816E-02
 -2.23984542E-03 -9.09496999E-02  3.65857712E-02 -7.66040376E-02 -3.73100290E-04
  3.03900787E-01 -3.32496171E-04 -9.65554315E-02  1.28009725E-01 -1.06922581E-01
  3.54746764E-02  4.78668010E-02 -9.64245413E-02  1.33468654E-01 -1.07371102E-01
 -3.74405480E-02  4.82372443E-02 -8.62312719E-03 -3.14857805E-02  2.04999802E-01
 -2.33133780E-01 -3.08726942E-01  2.92116706E-02  2.83164598E-01  4.47022460E-01
 -3.15415191E-02 -4.09779034E-02 -1.16643519E-02  4.36853875E-02  4.31703719E-02
 -1.23116690E-01 -8.63083479E-03 -3.15122425E-02  2.05113892E-01 -2.33141782E-01
  3.08670159E-01  3.09259837E-02  2.83440544E-01 -4.47428839E-01 -3.45685510E-02
 -4.08576090E-02 -1.03229116E-02 -4.54808614E-02  4.32396241E-02  1.22965671E-01
  6.52122545E-03  7.89135733E-01  4.88895917E-01  7.07604605E-02  4.25255048E-02
 -2.59888715E-02 -8.73989393E-01  7.13339109E-01  4.56773063E-01  3.19914920E-02
 -2.58642631E-02 -8.75988374E-01  7.13845785E-01 -4.57933475E-01  3.30593178E-02
  6.45239508E-03  7.91511495E-01  4.89660370E-01 -7.03525335E-02  4.16113670E-02
 -2.16356650E-02 -8.47753491E-02  7.20580061E-01 -3.50393869E-01  5.42206285E-03
 -2.06541721E-02  6.65844196E-01 -1.41238953E-02  1.30160606E-01 -3.25239438E-01
  6.36502884E-02  6.95072010E-05  2.41772339E-01 -2.58478786E-03 -2.13993157E-03
 -5.46808615E-03 -1.18549453E-01  8.47284401E-02 -4.86461857E-02 -5.75036555E-02
  2.38042026E-01 -1.18338583E+00  2.35892549E-01 -4.24100035E-02  5.93442074E-02
  1.43726260E-02 -2.30355396E-01 -2.10614486E-01  8.54672501E-03  3.35139812E-02
 -2.30845525E-01  3.01720051E-01  4.81650705E-02  8.55647726E-02 -9.23614181E-01
  1.52195720E+00 -3.01451570E-01  1.68850325E-01  1.08151221E-01 -3.36457149E-03
 -1.59280087E-02 -1.40059514E-01  4.05742315E-03  1.29603868E-02 -1.25321815E-02
  4.70583298E-02  3.36942072E-03 -4.11060109E-02  2.20395721E+00 -7.06627417E-03
  2.59897968E-02 -1.10410114E-01  7.24896547E-02 -3.34958606E-04 -1.11719913E-01
  2.88204091E-04  8.93879822E-03  3.50687025E-02 -2.42570086E-01  2.99922565E-01
 -5.19660675E-02  8.56558406E-02 -9.45163091E-01 -1.52512881E+00 -3.02303679E-01
  1.74534350E-01  1.07723878E-01  3.55135191E-03 -1.61869579E-02  1.35413168E-01
 -1.86652321E-03 -4.41087494E-03 -1.25685934E-01  8.78773521E-02  4.95309067E-02
 -5.77273675E-02  2.41293250E-01  1.16905137E+00  2.36556473E-01 -3.79138586E-02
  6.00427428E-02 -1.41437052E-02 -2.34634340E-01  2.16464607E-01  1.42058186E-02
  5.48053301E-02 -2.15838918E-01  3.07566167E-02 -8.98119747E-04  4.96472607E-02
 -3.98564329E-02  1.14983814E-03 -1.37980225E-01  4.15343954E-02 -7.53952446E-02
  3.34916016E-04  1.91615983E-01  1.38173647E-04 -1.12730447E-02 -4.63323878E-02
  2.00260597E-01  5.92676266E-02 -6.13479631E-04 -1.86603178E-02  7.56002561E-01
 -2.74204225E-04  5.10159938E-02 -3.88058210E-02 -6.04370860E-02  4.06707229E-04
  5.55240456E-02 -9.24356646E-04 -2.67428758E-02 -6.58553283E-01  5.35387789E-02
 -4.43573865E-01  5.86881386E-02 -2.58164156E-02 -6.50485158E-01  5.44983790E-02
  4.38805786E-01  5.84332568E-02 -5.37259123E-03 -1.99984255E-02  1.29053796E-01
 -1.82829116E-01  2.47102978E-02  3.82568285E-02  4.61388871E-01  2.18665959E-02
 -4.27275571E-02  2.52576319E-01 -1.42350968E-02  5.64377082E-02 -2.08760761E-01
 -1.26206301E-01 -5.48138863E-03 -2.04020906E-02  1.31552047E-01 -1.83622279E-01
 -2.59446291E-02  3.77902929E-02  4.64563466E-01 -2.15518835E-02 -4.24112358E-02
  2.51170596E-01 -1.43910229E-02 -5.60389186E-02 -2.10486649E-01  1.27010758E-01
 -1.83272239E-02 -5.55775855E-01 -3.88619679E-01  3.08485897E-01  3.58870952E-02
  9.98123994E-03  9.98912087E-01 -1.34868593E-01 -9.47968733E-02  4.41633823E-04
  1.11999249E-02  1.02940835E+00 -1.26937761E-01  8.52210039E-02  6.12545606E-04
 -1.79873644E-02 -5.33766542E-01 -3.93793942E-01 -3.13199011E-01  3.55613661E-02
 -1.60977458E-04 -6.29280081E-04  5.14700845E-03 -2.71727657E-03 -6.53908436E-01
 -1.07943128E-03  3.07157391E-03  1.48512845E+00  4.70458121E-03 -2.59806869E-03
  2.12974726E-03 -6.81993467E-03  1.50938758E-03  2.39467246E-01  1.78512803E-02
  6.94136688E-02 -4.83892930E-01  1.79759941E-01 -4.73223248E-02 -2.55179791E-02
  5.11666448E-01  7.49027901E-01  1.30129411E-01  3.12851414E-01  1.88111313E-02
 -2.93492755E-02 -2.06068770E-01 -3.66146813E-01  2.12263917E-02  8.36324023E-02
 -6.16742532E-01 -9.66884619E-02  1.44998325E-01  3.70276186E-02 -1.04997198E+00
  4.27581574E-01 -2.06641723E-01  3.27769722E-01 -1.76535487E-02 -2.17301824E-02
 -5.47156433E-02  3.10060587E-01  3.21443428E-05  1.12089372E-04 -3.45974696E-04
 -7.57210899E-05 -4.52437838E-01 -1.44445936E-03  8.64677221E-03  1.01166383E+00
  3.11619122E-03 -2.71571870E-04  2.00321737E-03 -8.19151688E-03 -3.61880659E-04
 -6.37517684E-02 -2.10316284E-02 -8.28629394E-02  6.10841326E-01  1.00474900E-01
  1.43955607E-01 -3.19356883E-02  1.04087980E+00  4.14427578E-01  1.87536870E-01
 -3.25906764E-01  2.33188452E-02 -2.15228650E-02  5.53551161E-02  3.11596691E-01
 -1.79033328E-02 -6.95758739E-02  4.83040385E-01 -1.78749805E-01 -4.57592685E-02
  2.26944772E-02 -5.06164820E-01  7.61662042E-01 -1.18662454E-01 -3.13127833E-01
 -1.64949908E-02 -3.06219415E-02  2.01472909E-01 -3.64064694E-01  1.13097729E-04
  4.31599414E-04 -1.57082605E-03  2.03347491E-04  1.28465552E-01  1.21044081E-03
 -1.02079221E-03 -1.58420048E-01 -4.04285902E-03  4.43297477E-04 -2.29859550E-03
 -3.20275552E-02  1.61198693E-03 -1.01965447E-02 -4.81650784E-05 -1.92969739E-04
  7.51545916E-04 -1.92049794E-05  7.51374642E-02 -6.53535988E-04  2.72869572E-03
  2.00055806E-01 -7.02878411E-04 -3.26320485E-04 -2.15686222E-03 -7.54493943E-02
  5.59194881E-04  1.19348714E-01  7.31251670E-02  6.91873242E-01  2.04023345E-03
  3.49041384E-01 -7.83838088E-02 -7.36851194E-02 -6.95215099E-01 -2.04140390E-03
  3.52305699E-01  7.97984521E-02 -7.77687194E-03 -2.88966918E-02  1.80576720E-01
 -2.33574060E-02  4.75990679E-02  2.95534171E-02  1.68207030E-01  5.84446815E-02
 -5.85528080E-02 -9.40664685E-02  2.48556713E-02  2.88136232E-02 -7.81907756E-02
 -6.41636758E-02  7.72809606E-03  2.87134963E-02 -1.79407049E-01  2.13220396E-02
  4.64210674E-02 -2.69979004E-02 -1.62306699E-01  5.93124905E-02  5.54097929E-02
  9.76599077E-02 -2.52880662E-02  2.54903247E-02  7.51406785E-02 -6.23991919E-02
  2.25578039E-02  1.49208875E+00 -3.38179262E-01  3.01504724E-01 -6.29318914E-02
  6.02489707E-02  1.72786892E+00  5.49347159E-01  4.79817298E-01  6.13192837E-02
 -6.00522253E-02 -1.71687900E+00 -5.51709168E-01  4.80531509E-01 -5.90591794E-02
 -2.30076430E-02 -1.49886445E+00  3.32184959E-01  2.96980215E-01  6.68460379E-02
 -6.28717357E-04 -2.73377598E-03  5.99190111E-02 -4.96232842E-02 -3.31540293E-03
  1.24213387E-01  3.58589310E-01  9.84934992E-03 -6.50556502E-01 -2.24314558E-02
 -2.81837143E-01  1.25023092E-04  6.83886025E-02  1.14114098E-03  2.89826859E-04
  1.70142795E-03 -4.97585570E-02  1.21447188E-02  4.65778233E-02  1.93736369E-01
  1.50953998E-01 -2.70123135E-01 -8.08507050E-01  8.10476927E-03 -2.25697888E-01
 -7.97147410E-02  8.38287717E-02 -1.25550295E-01 -2.48783534E-03 -1.07712889E-02
  1.28788622E-01  8.38382187E-02 -1.00913395E-01 -3.34729860E-01 -3.42864304E-01
  6.61449600E-01  1.46642411E+00  2.70479978E-02 -3.89320532E-01  1.10986186E-02
 -9.81253371E-02 -3.27567462E-02 -2.24771555E-03 -9.33291045E-03  7.18742261E-02
 -2.80641822E-02 -2.33160302E-03  1.87597451E-01  1.34001411E+00  3.43169775E-04
 -5.82935656E-01 -7.99935907E-02 -2.70261378E-01 -1.46731563E-03 -5.16571319E-02
 -1.87782378E-04 -2.57821414E-03 -1.10963386E-02  1.30170982E-01  8.33239410E-02
  9.99209482E-02 -3.36901814E-01 -3.30020537E-01 -6.60746898E-01  1.47940318E+00
  2.47942554E-02 -3.91074043E-01 -1.12998226E-02 -9.73420331E-02  3.55401658E-02
  1.13524124E-04  1.01632344E-03 -4.50447980E-02  9.86475026E-03 -4.68797784E-02
  1.94870345E-01  1.46560264E-01  2.82137740E-01 -8.16856551E-01  4.79436475E-03
 -2.25703278E-01  7.81851022E-02  8.52920043E-02  1.21314925E-01  1.17477448E-03
  5.61144070E-03 -5.13778329E-02  1.30032317E-02  5.10919330E-04 -1.89350970E-01
  8.66784784E-02 -8.78993747E-04  5.52251851E-01 -2.72252159E-02  3.09824154E-01
 -8.68356590E-04  1.87897754E-03 -3.34169031E-05 -8.84906464E-03 -3.64801390E-02
  1.62548545E-01  7.64882602E-02 -8.24339247E-05  1.22080551E-01  4.11798938E-01
  3.08975399E-03  2.10180161E-01 -3.53341486E-02  2.85906170E-01 -1.16786539E-03
 -2.44357603E-02  2.85465170E-04 -8.99343211E-04 -5.75757893E-01  1.30813006E-01
 -2.09237372E-01  4.16727901E-03 -1.99834921E-03 -5.84249624E-01  1.31012351E-01
  2.13547144E-01  7.40260133E-03 -4.24436992E-03 -1.55212023E-02  9.91027404E-02
 -1.06359466E-01 -8.96957089E-02 -1.51253604E-01  1.99761332E-01  1.47284433E-01
  1.74731540E-01  4.77101484E-02  5.01373379E-02 -2.24760086E-01 -3.25004026E-02
 -6.47653058E-02 -4.15814418E-03 -1.52019081E-02  9.71360345E-02 -1.05832468E-01
  8.96080346E-02 -1.58757856E-01  1.97704982E-01 -1.45937951E-01  1.86060417E-01
  4.81690024E-02  4.56334361E-02  2.30377721E-01 -3.21195028E-02  6.39104495E-02
 -2.91368349E-03  1.11734241E-01  2.19024720E-02  1.15644836E-03 -1.96459045E-01
 -9.49220708E-03  1.49404126E-01  1.51482043E-01 -8.69752116E-02 -2.04589119E-01
 -9.65498915E-03  1.40573555E-01  1.43285668E-01  8.81127983E-02 -2.07749623E-01
 -3.57008971E-03  9.29488650E-02  2.51769853E-02  1.95020413E-03 -1.95096964E-01
 -7.71590885E-05 -3.05453126E-04  2.82130515E-03 -8.81042590E-04 -5.94115477E-02
  9.69017618E-04  2.27672128E-03  3.31564818E-01 -4.31520506E-03 -8.11057697E-04
 -2.59687575E-03 -8.13669407E-03  1.20670214E-03  2.38062540E-02 -2.05687863E-03
 -9.59782513E-03  1.28360716E-01 -7.96500158E-03 -7.19464162E-02  2.59081280E-02
 -6.30768440E-01  1.35114060E-01 -2.74003709E-01 -4.36439491E-02 -4.72529698E-02
  1.01179503E-01 -5.46499644E-02  4.46001766E-02  8.82944843E-03  3.60241853E-02
 -3.03147256E-01 -1.44226695E-01  1.50566137E-01 -8.11405144E-02 -3.46211732E-01
 -2.59290357E-01  5.84483084E-01  8.28157365E-02 -1.07969467E-01  1.26774761E-02
  4.11287973E-02  3.58081262E-02  3.61563484E-05  1.26277427E-04 -8.00253127E-04
 -1.38259663E-04 -2.25010180E-02  1.82016660E-03  1.44442852E-02 -2.39483090E-01
 -6.08276213E-03 -5.55114156E-04 -1.94061555E-03  1.88032650E-01 -9.61090776E-04
 -2.09256338E-02 -8.88279588E-03 -3.62621817E-02  3.06311827E-01  1.47484843E-01
  1.51990254E-01  7.54558181E-02  3.36666120E-01 -2.79400543E-01 -5.56265891E-01
 -8.15703374E-02  1.01820941E-01  1.30722583E-02 -4.13619833E-02  3.71708658E-02
  2.01816921E-03  9.45064441E-03 -1.27878053E-01  8.95984221E-03 -7.15078507E-02
 -2.24384780E-02  6.32387680E-01  1.46154404E-01  2.59454151E-01  4.27996617E-02
  4.30318943E-02  1.02992749E-01  5.41955577E-02  4.65564739E-02  3.32165441E-05
  1.27529894E-04 -4.80083948E-04  2.11236691E-04  1.96071030E-02 -1.84238182E-03
 -4.72605054E-04  1.95087180E-02  4.57798763E-03 -2.62177652E-04  2.36077649E-03
  1.46149589E-01  7.90792064E-04  1.82645653E-02 -8.35581208E-05 -3.45784686E-04
  1.55750406E-03  4.84292633E-04  7.89703159E-02  9.74762665E-04  3.71576265E-03
 -2.89796806E-02  2.03336354E-03 -1.54478150E-04  2.60534496E-03  1.41052947E-01
 -8.20481410E-04  5.79808631E-02 -2.00858533E-02  2.61212581E-01  1.23904615E-01
  2.21719909E-01  1.55300982E-01  2.04900631E-02 -2.72148322E-01 -1.20732556E-01
  2.26392846E-01 -1.55151532E-01  1.10324408E-03  3.94981369E-03 -2.34025854E-02
  3.79432897E-02  4.37797472E-02 -4.10670822E-01 -4.32048682E-02 -6.29988866E-02
  6.46812519E-01  1.13122050E-02 -2.61729347E-01 -3.01408915E-01 -1.43985611E-02
  1.55143146E-02 -1.11136211E-03 -3.97655660E-03  2.34922683E-02 -3.88360389E-02
  4.39529389E-02  4.08635392E-01  4.59849392E-02 -6.32978320E-02 -6.44676517E-01
 -9.44229458E-03  2.62777623E-01 -2.97817747E-01  1.33770382E-02  1.68000073E-02
 -1.33966739E-02 -3.28923472E-01  3.07456993E-02 -9.73917308E-02 -3.45092750E-02
  4.34671963E-02  4.95095799E-01 -5.67674522E-02  2.67520420E-01 -7.93632774E-02
 -4.35609628E-02 -4.86550758E-01  5.60657324E-02  2.71827247E-01  7.40973563E-02
  1.35388216E-02  3.23840044E-01 -3.35530788E-02 -9.93497410E-02  2.98729841E-02
 -2.49672956E-05 -1.05334057E-04  1.07428282E-03 -3.75749020E-05 -1.00840707E-02
 -1.18334421E-04 -2.06947616E-03 -5.92040312E-01 -4.94056834E-04 -2.50829919E-04
 -3.64944959E-04  1.67418942E-02  1.45610120E-04 -1.33305527E-03  1.04073443E-02
  4.54116315E-02 -5.06618661E-01  7.89899430E-02  2.03749868E-01 -4.12299594E-02
  1.99613325E+00 -4.19200231E-01  1.64701825E-01  2.02251938E-01  1.71717789E-02
  5.22922557E-03  6.16632939E-02 -2.47405301E-01 -2.05710904E-02 -8.46261079E-02
  7.34615252E-01  4.22911166E-01 -3.71882580E-01  2.56354613E-02  7.46419663E-01
  9.99483055E-01 -7.54476932E-02 -1.89176938E-01 -7.74915774E-02 -7.37968435E-03
 -1.21262922E-01 -3.80424018E-02  1.28727534E-05  4.73066993E-05 -3.32615408E-04
 -8.95720614E-05 -3.58150448E-02 -1.16618660E-05  7.20318000E-04  1.03055549E+00
  4.92373689E-04  1.15675101E-04 -4.50159775E-04  1.02802695E-01  7.97920197E-05
  7.83527743E-02  2.05911172E-02  8.47032129E-02 -7.35147433E-01 -4.22863110E-01
 -3.72120647E-01 -2.66914968E-02 -7.45752470E-01  9.97842282E-01  7.94721231E-02
  1.89291696E-01  7.57157302E-02 -7.64227912E-03  1.22125130E-01 -3.80266721E-02
 -1.04160806E-02 -4.54496839E-02  5.07119069E-01 -7.84571625E-02  2.03749209E-01
  4.23531980E-02 -1.99570255E+00 -4.17316459E-01 -1.68931621E-01 -2.02070282E-01
 -1.83863436E-02  5.43107607E-03 -6.28995819E-02 -2.47990694E-01  1.29331418E-06
 -1.28047932E-06  1.69465723E-04  9.88885266E-05 -3.59037486E-02 -4.40549670E-04
 -7.29031905E-04 -7.33205670E-02  8.93110746E-04  1.03485080E-05  3.97762689E-04
  3.71006266E-02  3.39511028E-04 -4.69106554E-02  5.28631627E-06  2.17171545E-05
 -9.76634219E-05 -9.74707992E-05 -1.58121184E-01  2.79745523E-04 -1.08858690E-04
  2.52775500E-01  6.87703557E-05  1.26017516E-06  3.96036409E-04 -3.10636811E-02
 -5.06247534E-04 -1.70248133E-01  9.31857368E-02 -3.16792819E-01 -5.24353871E-01
 -5.07569346E-01  3.09011955E-02 -9.30324731E-02  3.16294710E-01  5.24602783E-01
 -5.08130007E-01 -3.16577850E-02 -5.09566514E-03 -1.85652104E-02  1.14379682E-01
 -1.29160809E-01 -1.02843205E-01 -1.46612470E-01  1.86848794E-01  1.84457260E-01
  2.25791857E-01 -6.25540962E-02 -9.33938912E-02 -1.00342693E-01  8.80692661E-04
 -6.52733308E-02  5.13995804E-03  1.87292293E-02 -1.15482402E-01  1.30012785E-01
 -1.03591067E-01  1.46633877E-01 -1.87992006E-01  1.85919249E-01 -2.26024185E-01
  6.26967134E-02  9.38403917E-02 -9.96770885E-02 -7.96098125E-04 -6.53682424E-02
  3.87836673E-02  1.23000655E+00 -2.45715241E-01  4.41223779E-01 -1.22389015E-01
 -1.12447754E-01 -9.36517774E-01  2.35684499E-01 -6.60435350E-01  4.36974295E-02
  1.12536195E-01  9.38493147E-01 -2.36915828E-01 -6.60195268E-01 -4.34301384E-02
 -3.85965572E-02 -1.23099621E+00  2.45588464E-01  4.40327584E-01  1.23068781E-01
 -2.12667048E-02 -8.46469700E-02  7.41459320E-01  1.14665362E-01  1.08013598E-03
  3.29940304E-02 -3.16824444E-01  2.09391174E-02 -2.27115545E-01  1.92779468E-03
 -5.06761260E-02 -1.14595198E-05  2.13211985E-01 -8.63673137E-04  2.18056798E-02
  8.63663256E-02 -7.23038241E-01  1.16174146E-01  2.14909143E-01  3.82048914E-03
 -7.04653069E-01 -1.36685525E+00 -2.79518186E-02 -9.70032944E-02 -1.53561182E-02
  5.33760502E-03 -2.52157694E-01  4.09306648E-02  5.49604669E-03  2.70504313E-02
 -3.56400648E-01 -1.53311016E-01  4.69363294E-01 -4.60717218E-02 -1.30990303E+00
  1.51008531E+00  3.52890516E-01  3.65927039E-01 -4.00925232E-02  1.50820409E-02
 -1.72024408E-01 -2.23523910E-02 -4.35742643E-03 -2.05693568E-02  2.85426574E-01
  3.62341034E-01 -1.99200302E-03  3.43135101E-02  2.16226187E+00 -2.33001367E-02
 -3.92057352E-01 -2.34487062E-01 -3.37823120E-04 -5.03401772E-04 -3.63672614E-02
 -2.88132543E-03  5.43573665E-03  2.67973817E-02 -3.53642407E-01 -1.49625372E-01
 -4.72128736E-01 -4.66790971E-02 -1.26465059E+00 -1.51992816E+00  3.56851049E-01
  3.63502251E-01 -4.02696590E-02 -1.54821637E-02 -1.70275792E-01  2.73580822E-02
  2.18378927E-02  8.65118414E-02 -7.24514373E-01  1.19858453E-01 -2.17470025E-01
  3.91757689E-03 -6.65983620E-01  1.40664995E+00 -3.06170651E-02 -9.83878705E-02
 -1.51768415E-02 -5.39417514E-03 -2.56827765E-01 -3.95423994E-02  2.05040256E-03
  6.61425865E-03  1.69667870E-02 -1.37641964E-01 -3.05167288E-04 -6.95363368E-03
  6.52839961E-02 -5.93813000E-04  8.01952399E-02  3.27231177E-02  6.62619419E-02
  2.72864297E-04  1.62920636E-02 -9.77575396E-05 -3.72976713E-03 -1.73177192E-02
  1.00523410E-01  2.21205742E-01  9.28791459E-04  6.12596957E-02  1.17904068E+00
  1.04288836E-02 -8.81602575E-03  4.03554735E-02 -3.13786490E-02 -4.24539091E-04
  3.01351165E-01  9.97598414E-04 -6.90010876E-02 -6.35461982E-01 -1.38845540E-01
 -6.30433496E-01  1.47113581E-01 -6.91728802E-02 -6.58595479E-01 -1.37343065E-01
  6.38311564E-01  1.49997377E-01  6.76721862E-03  2.46264300E-02 -1.53598517E-01
  1.07016660E-01  1.50951468E-01 -4.24463093E-02 -2.82500269E-01 -2.39753237E-01
  6.56544375E-02 -5.72050851E-03  3.32190571E-03 -5.40822494E-02  2.30453455E-03
  9.16726567E-02  6.89689655E-03  2.51087389E-02 -1.56784064E-01  1.07967035E-01
 -1.53669848E-01 -4.27345711E-02 -2.84891262E-01  2.44188549E-01  6.57162178E-02
 -4.96364003E-03  3.26273271E-03  5.41886198E-02  1.71491596E-03 -9.19325181E-02
  4.09595300E-02 -6.21811133E-01  6.07712819E-02  5.38127088E-01 -4.29093725E-02
  1.45269445E-02  2.13833518E+00 -2.01446364E-01  6.00030034E-01 -1.23609251E-01
  1.40251657E-02  2.12240686E+00 -2.06802641E-01 -5.98727028E-01 -1.25261047E-01
  4.14362286E-02 -6.28456046E-01  5.46708238E-02 -5.49847698E-01 -4.16406315E-02
  1.52385971E-04  5.98794940E-04 -5.01620719E-03 -4.62285685E-04  2.77239405E-01
 -8.68796288E-05  1.41467589E-05  2.28400291E+00  1.44297928E-03  3.98729595E-07
  4.54105759E-04 -1.27483693E-02 -1.27461888E-03 -1.64979643E-01 -3.94487057E-03
 -1.63494986E-02  1.20908046E-01 -3.14179967E-01 -2.05692009E-01 -7.64004773E-03
 -2.31128048E+00  3.00217838E+00  5.43565628E-02  1.36503293E-01  9.02669195E-03
 -2.15858069E-02  4.50975269E-01  1.15673510E-01  1.01003900E-03  4.59705894E-03
 -9.29284731E-02 -2.55083765E-01 -3.27018197E-01  1.43851179E-02 -2.81297477E+00
 -2.35128772E-01 -1.03716809E-01  1.55353459E-01 -1.88643097E-02 -2.75059630E-02
 -1.26646845E-01  3.97024633E-01  1.58865603E-05  8.65652140E-05 -1.52431006E-03
 -2.27691302E-03 -2.73877005E-01 -1.45211995E-04 -1.45213231E-02 -2.98773104E+00
  1.51591611E-03  1.48468185E-03  2.00997698E-04 -1.17153183E-02  8.68935827E-06
 -5.09278959E-01 -1.07089222E-03 -4.89891359E-03  9.68285394E-02  2.56623705E-01
 -3.21093064E-01 -1.39338309E-02  2.82797573E+00 -2.16707249E-01  9.89563789E-02
 -1.59635151E-01  1.96234532E-02 -2.74230357E-02  1.28153911E-01  3.96730264E-01
  3.68848442E-03  1.53286633E-02 -1.12146824E-01  3.12612463E-01 -2.04011396E-01
  7.05702070E-03  2.31991809E+00  2.98243067E+00 -5.27774978E-02 -1.35294142E-01
 -8.32636000E-03 -2.15837782E-02 -4.47022986E-01  1.16142076E-01 -1.83670664E-05
 -6.47250831E-05  4.72731252E-05  7.64017691E-04 -1.95313138E-02  4.82801928E-05
 -1.21005837E-03 -4.99757650E-02 -4.51901939E-04 -1.22111372E-04 -4.23549908E-04
 -1.08158281E-02 -2.61302886E-04 -9.26518816E-03  8.03032542E-06  4.77836826E-05
 -3.93625195E-04 -1.19577667E-03  1.66579304E-01 -3.09713169E-04 -6.88420785E-03
  1.91532057E+00  5.82246493E-04 -3.09532404E-04 -1.40769037E-05 -1.38305338E-03
 -1.33553119E-03  1.65286601E-01  2.56948962E-02  2.05176687E+00 -1.67752238E-01
  6.88525217E-01 -1.58173032E-01 -2.51680298E-02 -2.04301009E+00  1.69421684E-01
  6.80611581E-01  1.57683614E-01 -1.08879656E-02 -4.05955243E-02  2.70494270E-01
 -4.63520487E-02 -2.27064409E-01 -1.60845096E-02  1.68235205E-01  3.67341136E-01
  1.65182068E-02 -7.88882280E-02 -6.43213492E-03 -5.52900646E-03  7.91224881E-02
 -2.12720726E-02  1.08359550E-02  4.04114692E-02 -2.69464730E-01  4.55277852E-02
 -2.25578506E-01  1.67996616E-02 -1.65698564E-01  3.65723843E-01 -1.78411019E-02
  7.82777208E-02  6.37614599E-03 -6.19031411E-03 -7.87519562E-02 -2.02503947E-02
 -4.16246384E-02  6.41206174E-01  5.88442804E-01 -1.07024378E+00 -5.18918740E-02
  2.69963196E-02  1.09823574E+00  4.14510237E-01 -1.03971755E-01  3.30271796E-02
 -2.73012470E-02 -1.12418463E+00 -4.11429339E-01 -9.71160546E-02 -3.16063839E-02
  4.11347060E-02 -6.32273847E-01 -5.86455517E-01 -1.06246695E+00  5.29235986E-02
 -1.72463867E-02 -6.42809085E-02  4.38888345E-01  5.74984267E-01 -7.87679320E-04
 -9.88297741E-03  1.42422689E+00 -2.41947339E-02  1.55330681E-01  1.94913160E-01
  1.61945123E-02 -9.53578021E-05  3.15209051E-01 -1.15765224E-03  7.14559577E-03
  2.16949737E-02 -1.11096891E-02  1.12966736E-02 -3.79768900E-01  9.14678566E-03
 -2.34941019E+00 -2.68882932E+00 -6.05481716E-02 -4.63301470E-01 -1.61591538E-03
 -2.49648760E-02 -5.02937965E-02 -1.14501076E-01 -1.49234104E-02 -5.63534772E-02
  4.37450605E-01 -5.90498813E-02  2.72501423E-01  1.25376339E-02 -1.76047904E+00
  3.01449422E+00 -1.52952308E-01  4.57018527E-01 -4.59229718E-03 -4.92538502E-03
  2.61561952E-01  3.22124954E-02  3.21181286E-02  1.23902052E-01 -1.02724961E+00
  1.36091526E-01 -3.39608545E-03 -9.91898528E-03  1.41673324E+00  2.50548977E-02
  2.52610300E-01 -1.46535030E-02 -2.69240298E-02  2.79271484E-05 -1.78727521E-01
 -2.91848008E-03 -1.47927332E-02 -5.57663308E-02  4.30562284E-01 -5.68126534E-02
 -2.78979989E-01  1.20584410E-02 -1.81128989E+00 -2.96682397E+00 -1.50605117E-01
  4.55269745E-01 -4.08054212E-03  4.23281117E-03  2.67944069E-01 -3.17745046E-02
  6.76660894E-03  2.02119752E-02 -6.82551007E-04  8.19344573E-03  3.84728923E-01
  9.81673445E-03 -2.39717929E+00  2.64698607E+00 -6.11789888E-02 -4.66210460E-01
 -1.93005538E-03  2.45364929E-02 -5.45161962E-02  1.12732105E-01 -9.35310424E-03
 -3.37478804E-02  7.91636156E-02  3.98087358E-03  2.32088882E-03 -2.77945196E-02
  5.03983507E-01 -3.34567320E-03  6.26983741E-03 -1.46846471E-01 -3.73212337E-02
 -5.90713780E-05 -9.84438496E-02 -2.12977913E-03 -6.86437187E-03 -2.72727407E-02
  1.05381161E-01 -5.60531007E-02  8.80135505E-04 -3.55536242E-02  1.95796388E-01
  1.02263208E-02  1.84831657E-01 -8.50151376E-02  1.28675792E-01 -6.16277337E-05
 -2.38535286E-01  7.48084436E-04  2.09462472E-02 -3.49171934E-01  2.25117684E-01
 -8.44591634E-02 -1.06739737E-01  1.96097184E-02 -3.76177559E-01  2.28577796E-01
  9.44093797E-02 -1.04654728E-01 -2.11746905E-03 -7.83563431E-03  6.16443153E-02
 -1.40090460E-01 -1.90857447E-01  3.56567856E-02  5.65870870E-02  3.87827310E-01
 -6.85177380E-02 -9.01737424E-02  2.30988243E-03  3.80751362E-02  3.58477410E-02
 -9.58273512E-02 -2.43035071E-03 -9.00327428E-03  6.97211397E-02 -1.51961361E-01
  1.94590932E-01  3.54108204E-02  7.58054539E-02 -3.95532349E-01 -6.83335575E-02
 -9.10011343E-02  2.15940246E-03 -3.84340939E-02  2.81082855E-02  9.93941435E-02
 -4.34538247E-02 -2.94476805E+00  4.97587031E-02 -3.16436864E-01  2.83288085E-02
 -1.75428078E-02  3.03349994E+00 -1.24906889E-01  3.68093173E-02  6.85481866E-02
 -1.70018052E-02  3.03353041E+00 -1.29029031E-01 -4.39998858E-02  6.72312564E-02
 -4.62873067E-02 -2.95635197E+00  5.13410647E-02  3.24591392E-01  3.11696949E-02
  2.56069927E-04  9.68165429E-04 -7.16701072E-03 -7.11688437E-03 -5.14931158E-02
  1.19479624E-04 -1.96040047E-02 -1.81369436E+00 -4.08938747E-03 -2.09815771E-03
 -2.58831392E-04 -6.15339120E-04 -4.48452709E-03 -1.02207712E-01  1.37158783E-02
  5.41601258E-02 -3.96873085E-01  1.23657722E-01  1.80969683E-01 -1.11098674E-02
  1.86255361E+00 -1.60698473E+00  9.19072663E-02  1.12664411E-01  1.10329302E-02
 -1.78542075E-02  1.59112013E-01 -8.15973762E-02 -4.31639405E-03 -1.92466336E-02
  2.19036976E-01 -7.52544338E-02 -2.25519805E-01  1.43842855E-02  1.98021316E+00
  1.84861924E+00 -1.23331126E-01  5.66340503E-02 -1.13489481E-02 -1.81694466E-02
 -2.02948579E-01  5.73085554E-03 -4.39023628E-04 -1.69784250E-03  1.43658227E-02
 -1.10819875E-03 -2.05406473E-01  1.39712767E-04 -1.94720313E-02  1.99913198E+00
 -4.74810940E-03 -1.47978928E-05  7.74104195E-04 -1.42128157E-02  2.67712087E-03
 -2.00156075E-01  4.72235995E-03  2.08038522E-02 -2.32011628E-01  7.56174565E-02
 -2.19681907E-01 -1.45877814E-02 -1.93232151E+00  1.93208553E+00  1.27955417E-01
 -6.84820784E-02  1.17718491E-02 -1.83568384E-02  1.96031152E-01  5.60871811E-03
 -1.39028579E-02 -5.47410029E-02  3.97773783E-01 -1.25034899E-01  1.72217282E-01
  1.06076259E-02 -1.80176674E+00 -1.68101292E+00 -8.73997890E-02 -1.00884311E-01
 -1.06081835E-02 -1.88245961E-02 -1.57541256E-01 -8.52694329E-02  1.08307050E-04
  3.88153708E-04 -8.69800834E-04  4.74163019E-05  1.93894407E-01  9.63699843E-04
 -6.49248465E-03 -3.10185941E-01 -6.36922881E-04  1.88064730E-03  9.88835846E-04
 -2.90487572E-03  1.35656269E-03 -1.52722199E-01  1.14830538E-04  4.57044920E-04
 -1.80008763E-03  8.45902870E-04  5.25097875E-02  6.00694792E-04 -1.05944450E-03
  6.46483159E-01 -2.87386304E-03  1.16198164E-03 -2.50819572E-03 -4.23783514E-02
  3.85923239E-03  4.59896767E-02  4.08790800E-02  8.55141620E-01 -1.07218805E-01
  3.11100273E-01 -9.03132490E-02 -4.17564835E-02 -8.44800992E-01  9.97487693E-02
  3.09170067E-01  9.47862011E-02  1.16501551E-02  4.34590352E-02 -3.01120898E-01
  4.61516949E-01  1.63648030E-01 -1.04511585E-02 -7.32133451E-01 -3.17328066E-01
  1.48560355E-02  1.64352380E-03 -7.57326375E-03 -3.53373633E-03  3.00414670E-01
  1.30704984E-01 -1.15908922E-02 -4.32389862E-02  2.99392909E-01 -4.57995321E-01
  1.58299762E-01  8.26735063E-03  7.30856454E-01 -3.06392751E-01 -1.04374957E-02
  1.31700774E-04  7.22641225E-03 -1.78658549E-03 -3.01301958E-01  1.27785756E-01
  9.82521273E-02  4.84176641E-01 -5.10314631E-04  2.96789384E-01 -5.06434309E-02
 -2.34573869E-02  4.02878211E-02  1.24408266E-01 -2.61636538E-01  3.20388214E-02
  2.39591322E-02 -1.18893115E-01 -1.21690331E-01 -2.62917356E-01 -3.43939168E-02
 -9.74113417E-02 -4.06714126E-01 -1.21927381E-04  2.90581112E-01  4.96904305E-02
 -3.06472958E-03 -1.35536825E-02  1.91005636E-01 -8.51808729E-02  2.28310776E-04
 -2.29510899E-02 -1.46143629E-01 -4.66903629E-03  1.10598654E+00 -2.78038838E-02
  8.72640910E-02 -4.50551063E-05  9.88819212E-02  2.60801953E-04  7.10679089E-04
  4.55311030E-03 -9.49335219E-02  2.02004019E-01  2.81221451E-01  9.20723971E-02
  2.88084704E-01 -3.94047524E-01 -1.14197351E+00  4.86045077E-02  4.44466923E-02
 -1.69725320E-01  6.09045481E-02 -1.68086035E-01  4.36538455E-04 -4.61723275E-04
  1.10778138E-01  8.54033379E-02 -1.14292214E-01 -3.66738084E-02 -7.23812083E-03
  1.01329188E+00 -2.57456722E-01  6.52384804E-02 -2.50539886E-01 -1.96278883E-03
 -8.44717673E-02 -1.62792530E-01  6.23526163E-03  2.49074176E-02 -3.00151056E-01
 -2.86233322E-01  3.76731490E-04 -5.93697275E-02  1.79436157E+00  3.67665531E-03
  1.05222124E+00  4.47763526E-02 -2.78228251E-01 -5.35895658E-04 -6.76961469E-02
 -3.72145835E-05  3.92548931E-04 -6.43598422E-04  1.12564105E-01  8.47049377E-02
  1.14485229E-01 -3.69891402E-02 -1.46237642E-02 -1.00587365E+00 -2.55514089E-01
  6.49247256E-02 -2.51132589E-01  1.16284491E-03 -8.54545290E-02  1.62861444E-01
  7.05299653E-04  4.51756587E-03 -9.41085327E-02  2.01213286E-01 -2.81822885E-01
  9.15957623E-02  2.78262906E-01  3.94102088E-01 -1.14289538E+00  4.81651894E-02
  4.44212183E-02  1.68094941E-01  6.20511163E-02  1.67248466E-01  2.32964096E-03
  8.75121959E-03 -2.28154851E-02 -1.09579212E-01  4.19094068E-04 -3.88604966E-01
  1.90091600E-02 -1.16624268E-03  5.37139407E-01  2.35706422E-02 -1.81584840E-01
 -1.39326751E-04 -3.68969045E-02 -8.19252047E-04 -1.95996060E-02 -7.92667365E-02
  3.39498010E-01  9.56882271E-02 -5.73362059E-05 -2.06129960E-02 -1.06938596E-01
 -1.08095283E-03  3.89601375E-01 -1.65050585E-01  3.88981658E-01 -2.05647104E-04
 -2.78647935E-01 -3.49420616E-07  1.13391689E-02 -7.52124139E-01  4.79328680E-01
 -1.02098272E-01 -2.55056756E-01  1.14181682E-02 -7.50252543E-01  4.79742195E-01
  1.00378358E-01 -2.54070353E-01  2.05792625E-03  7.74082196E-03 -5.30091729E-02
  4.30760153E-02  4.94769266E-02  2.52082333E-01 -1.22933062E-01 -9.88804205E-02
 -5.82460740E-01  1.11270225E-02  6.62855239E-02  2.28435276E-01  2.30848863E-02
  5.81498074E-02  1.97728437E-03  7.43469269E-03 -5.07804661E-02  4.07687616E-02
 -4.87609922E-02  2.51482137E-01 -1.18610341E-01  9.72435399E-02 -5.81510041E-01
  1.11092491E-02  6.58940704E-02 -2.28107687E-01  2.11870025E-02 -5.76756286E-02
  4.49051577E-02  6.37101802E-01  1.60412760E-01  3.19263466E-01  3.66606067E-01
 -1.04965997E-02  1.94988782E-01  1.34567121E-02 -1.97445975E-01  2.56907353E-01
 -1.06100856E-02  1.92161427E-01  1.64313325E-02  1.95788553E-01  2.57487502E-01
  4.50094752E-02  6.33383171E-01  1.62091042E-01 -3.19410728E-01  3.66661055E-01
 -6.02479761E-03 -2.51113640E-02  2.89131981E-01 -4.19469867E-02 -4.21554888E-04
 -1.03825763E-02  2.17644267E-01  4.39226319E-04 -7.10570875E-01 -3.56182536E-02
 -5.40934675E-02 -9.32452291E-04  2.05061550E-01 -2.20632184E-03 -4.60064026E-04
 -9.15208010E-04 -2.43122180E-02  2.77095888E-01  2.81062566E-01 -6.90540921E-02
 -1.60769235E-01 -9.56677195E-01  1.09229997E+00 -5.43970551E-03 -7.92344485E-02
  9.56560151E-02  8.98787547E-02 -2.51660720E-01 -1.55187415E-03 -9.46170894E-03
  2.37902036E-01  1.15739918E-01 -2.02802362E-01  8.76439223E-02  7.31788172E-03
  1.45559479E+00 -3.83955884E-01  1.15540370E-01  2.26741453E-01 -3.86758499E-02
 -2.11381859E-02 -2.44016343E-01  1.56176199E-02  6.32350541E-02 -7.09594734E-01
 -4.29485377E-01 -2.07711479E-03  4.62397665E-02  1.51098963E+00  2.85773235E-03
 -3.42370433E-03  1.19597512E-01  1.94600030E-01  8.57284032E-04 -1.21659128E-01
  2.92553349E-04 -1.45183765E-03 -9.00858900E-03  2.31868902E-01  1.17891166E-01
  2.02129176E-01  8.85258184E-02  4.21922602E-05 -1.47169681E+00 -3.93865226E-01
  1.16526168E-01  2.28285124E-01  3.75566962E-02 -1.71589409E-02  2.43503097E-01
 -4.71066945E-04 -9.14598099E-04 -2.64290792E-02  2.77361811E-01 -2.78539655E-01
 -7.00985705E-02 -1.59147189E-01  9.37737165E-01  1.10249606E+00 -4.87698379E-03
 -7.91868070E-02 -9.56974342E-02  8.80509003E-02  2.54308362E-01  1.66834217E-03
  6.58916596E-03 -2.01457435E-02 -1.55175955E-01 -5.30653271E-04  3.68040657E-01
  1.04899268E-01 -3.22433902E-05 -6.45412745E-01  1.25350918E-02  8.85316950E-02
 -1.02847998E-03 -7.84960949E-02 -1.16674347E-04 -2.52183331E-02 -1.01075183E-01
  4.22583851E-01  3.62336317E-02  3.78839876E-05 -1.28749563E-01 -5.59584976E-01
  2.49998105E-03  3.47838174E-01 -2.67798895E-01  1.08371948E-01  9.59660866E-04
 -4.13002463E-01  2.95032215E-04  2.28485114E-02 -5.77576536E-01  6.10239141E-01
  7.85799727E-02 -1.86998018E-01  2.20923683E-02 -5.85455131E-01  6.08534089E-01
 -7.16561249E-02 -1.88238509E-01  1.97165547E-03  7.44689623E-03 -4.98445576E-02
  2.77939359E-02  2.16590285E-02 -1.76341815E-01 -1.42695368E-01 -4.29309262E-02
  4.60167711E-01  4.63033149E-03 -7.41746105E-02 -1.38249259E-01  3.99282260E-02
  6.40447418E-02  2.01791639E-03  7.62500859E-03 -5.12025363E-02  2.81806081E-02
 -2.29084634E-02 -1.75921998E-01 -1.43329266E-01  4.50097565E-02  4.60904909E-01
  5.07130294E-03 -7.54869248E-02  1.38215115E-01  3.98576149E-02 -6.38937912E-02
  5.28403399E-02  2.80281124E-01  2.40800501E-01  3.20420400E-01 -3.67248228E-01
 -2.16273271E-02  3.17133571E-01  4.72964480E-02 -3.47203398E-01  3.14125144E-02
 -2.19520529E-02  3.33324475E-01  3.76152914E-02  3.51951857E-01  3.43550737E-02
  5.22176738E-02  2.90657265E-01  2.40084162E-01 -3.17425323E-01 -3.69473344E-01
  3.08539215E-05  1.20130671E-04 -1.12930861E-03  2.90451537E-05  1.14447108E-01
  1.25911868E-04 -2.06384186E-03 -3.14190531E+00  2.18408935E-03 -2.69869322E-04
  2.18796351E-04 -3.14263881E-02 -7.87055168E-04 -4.86670119E-01 -5.44810094E-03
 -2.61238655E-02  4.13587368E-01 -1.16641133E-01  2.83170880E-01  4.98962513E-03
  2.44788984E+00 -2.34223090E+00 -4.22695291E-02 -1.16254448E-01  1.32486376E-02
 -3.85876370E-02  2.19703662E-01  4.91009841E-01 -7.13802106E-03 -3.44683596E-02
  5.49472774E-01 -2.28339086E-01 -9.54184914E-03  3.31463992E-03  3.15374291E+00
 -2.04537664E+00 -4.72155580E-02 -1.44142215E-01 -3.01673581E-02 -5.20028620E-02
 -4.83643597E-01  5.48242534E-02 -8.07241190E-05 -3.23604568E-04  3.27720729E-03
  8.67654449E-04 -5.86951102E-01 -6.30324952E-04 -6.38953519E-03  3.77902625E+00
  3.60821159E-03 -5.55709046E-04 -1.50245158E-03 -2.34394438E-02  6.96537285E-04
  4.80706793E-02  7.16298392E-03  3.45714342E-02 -5.50905225E-01  2.27655660E-01
 -9.51089095E-03 -3.76464617E-03 -3.15131191E+00 -2.02951581E+00  4.37627660E-02
  1.43027880E-01  2.67843320E-02 -5.29309463E-02  4.82999545E-01  5.35856212E-02
  5.44074533E-03  2.60842151E-02 -4.12808944E-01  1.15092997E-01  2.84628778E-01
 -4.65003512E-03 -2.44630657E+00 -2.35086705E+00  3.29712055E-02  1.16953489E-01
 -1.11505127E-02 -3.76154104E-02 -2.19711241E-01  4.89314039E-01 -7.56368470E-06
 -2.99059293E-05  1.16181762E-04  5.18282706E-04 -1.48614651E-01 -1.85893095E-03
 -7.44661032E-04  1.64103698E-01  3.75703115E-03  7.13985659E-05 -2.53605079E-04
 -3.46318941E-02  2.84156484E-04 -1.56260688E-02  6.66463689E-05  2.69616017E-04
 -1.14550485E-03 -2.05009316E-04 -4.13855943E-02  6.49041640E-04  1.52177829E-03
  9.58196526E-02 -1.45785672E-03  7.36066196E-04 -5.79616971E-04 -1.11456463E-01
  1.76412538E-03  6.76756518E-02  8.98650568E-02  5.04015578E-01  2.56639009E-01
  6.62581247E-01 -7.95033185E-02 -9.03173052E-02 -4.99523038E-01 -2.60677399E-01
  6.62417767E-01  8.17277461E-02 -1.56038781E-03 -5.81126370E-03  4.59614388E-02
 -6.78699143E-02 -1.71500757E-01 -1.52916203E-02  4.79419494E-02  2.50153330E-01
  7.04403682E-04  5.82702413E-02  6.77916972E-03  6.33914039E-04  2.50980828E-02
  2.34367375E-02  1.56567742E-03  5.83311429E-03 -4.61942133E-02  6.80193085E-02
 -1.71478031E-01  1.71533650E-02 -4.74750325E-02  2.50434956E-01 -5.52672558E-03
 -5.83876854E-02 -6.19594512E-03 -6.92055513E-04 -2.51582504E-02  2.37395152E-02
  3.93244242E-02 -1.00421540E+00 -1.44078052E-01  2.41505118E-01 -3.49822863E-02
  5.24121798E-02 -2.48587149E+00  1.04504623E+00  7.04708022E-01 -2.82142289E-03
 -5.22953681E-02  2.47830787E+00 -1.04244046E+00  7.02191196E-01  5.10674082E-03
 -3.96014878E-02  1.00606102E+00  1.42925171E-01  2.43301958E-01  3.85725219E-02
 -1.56688901E-04 -6.33173273E-04  5.93170673E-03 -1.12581180E-03  5.56043754E-02
 -3.33070821E-06  1.25834284E-02 -8.64560980E-01  1.57233942E-03 -6.88753278E-04
  8.53208661E-04  4.37924317E-01  5.00437327E-03  3.13006866E-02 -2.56205599E-03
 -1.01822528E-02  7.76370597E-02  5.16352669E-03 -1.49804197E-02 -2.42687076E-01
  6.68748749E-01  1.79598921E-01  2.79369512E+00 -2.39316115E-02 -1.08104005E-03
  9.38655986E-02 -2.06786494E-02  5.36057697E-02  2.68828586E-03  1.07488867E-02
 -8.46540646E-02  4.07770085E-03  2.43577955E-02  2.13828766E-01  7.02908317E-01
 -2.32299151E-01 -2.54557067E+00  1.70253493E-02  3.86484288E-01  3.09954095E-01
  1.02099554E-02  2.58785103E-02  9.16633048E-05  3.92023612E-04 -4.73552346E-03
  1.43119104E-03 -2.83142171E-02  2.17193064E-05 -4.37827313E-02  7.98465330E-01
  1.09161248E-03  1.11329438E-03  5.16508500E-04 -4.40150243E-01 -4.06008318E-03
  1.89212329E-03 -3.02551997E-03 -1.21442765E-02  9.77071874E-02 -6.67071560E-04
  3.42375648E-02 -2.13466348E-01 -7.07124093E-01 -2.34810394E-01  2.53916422E+00
 -1.86300593E-02 -3.86378949E-01  3.10836264E-01 -9.64516202E-03  3.32375879E-02
  2.87258524E-03  1.14060936E-02 -8.78334989E-02 -2.92519059E-03 -1.73297283E-02
  2.41986611E-01 -7.05948977E-01  2.24266557E-01 -2.79197905E+00  2.20228972E-02
  4.85158044E-03  9.34541959E-02  2.07925455E-02  5.68718111E-02  1.17677209E-05
  4.36204524E-05  1.67721213E-05 -2.50367164E-03 -6.38482621E-03  3.51682855E-04
  1.17485758E-03  2.07591171E-02 -2.16936646E-04 -4.24035402E-04 -2.17175975E-04
  5.94837811E-01 -1.15091097E-03  9.01613405E-03  2.15041795E-04  8.91492424E-04
 -4.03400115E-03 -3.63915619E-03 -3.46383037E-02 -7.82190592E-04 -1.40317996E-02
 -1.38558171E-01 -2.52503219E-03  3.70992234E-03 -1.98454487E-03 -2.71015077E-01
  2.85150923E-03  1.98781988E-02  1.89088054E-03 -1.93637946E-01  5.95436523E-02
 -8.12115595E-02 -3.60164621E-01 -9.49367118E-04  2.37212935E-01 -7.17503080E-02
 -9.54303295E-02  3.59036384E-01  2.29477518E-03  8.75037244E-03 -6.23359277E-02
 -3.70535582E-03  4.43735171E-03  1.50609225E-01 -2.00658914E-02 -3.67512254E-02
  1.53743542E-01  5.46717629E-02 -3.10851509E-01  1.38393083E-02  5.21143027E-04
  2.85831639E-03 -2.25600447E-03 -8.61630691E-03  6.16368291E-02  4.81222925E-03
  4.68772225E-03 -1.50946713E-01  1.64143537E-02 -3.74891214E-02 -1.52902691E-01
 -5.30712381E-02  3.10739087E-01  1.44838641E-02  4.74453633E-04  4.00004219E-04
 -2.57607235E-03  1.71712269E-01 -3.41161382E-02 -3.64129091E-02 -5.45730673E-01
  8.58929130E-03 -2.41752772E-01 -5.93301307E-02  4.37665500E-02  8.77072377E-01
 -9.86920310E-03  2.22284140E-01  7.25017836E-02  5.25326352E-02 -8.76689548E-01
  4.07638929E-03 -1.99007842E-01  4.07497022E-02 -4.11875880E-02  5.47538328E-01
  1.67835145E-02  6.88463814E-02 -6.87886579E-01  1.08611030E-01  6.42809235E-04
 -6.09794629E-03 -1.36523004E+00 -1.30474109E-02  1.05068846E-02  7.50611989E-02
  6.60931972E-03  4.47781267E-03 -5.41771412E-01  2.21783897E-04 -1.46171316E-02
 -5.65262896E-02  4.31549912E-01 -6.56090305E-02 -1.05918074E-01 -1.42931118E-02
  1.99354982E+00  2.35210387E+00  9.12196802E-02  1.25135565E-01  1.46511493E-02
  3.44316466E-03  4.40954336E-02  9.41183196E-02  1.74862370E-02  7.21870196E-02
 -6.70549271E-01 -1.34081392E-01  4.23227848E-01  2.26025864E-02  2.39321549E-01
  4.65259687E-02 -2.02350487E-01  1.11061467E-01 -2.12376680E-02 -1.05849171E-02
 -8.76063580E-03  3.59626845E-01 -4.88760600E-03 -2.10741782E-02  2.58722823E-01
 -2.45291813E-01 -1.61410200E-04 -4.90554305E-03  4.49923433E+00  1.09403183E-02
  1.97286443E-01 -8.30779561E-02  1.94827928E-02 -4.01865317E-03  3.65932123E-01
 -3.61681322E-04  1.74547329E-02  7.20585296E-02 -6.69509418E-01 -1.33633122E-01
 -4.22568442E-01  1.83711505E-02  2.17061165E-01 -4.79259741E-02 -1.53003067E-01
  1.11198505E-01 -2.88345311E-02  1.71315955E-02 -8.63673345E-03 -3.58747050E-01
 -1.45758372E-02 -5.63600436E-02  4.30195723E-01 -6.52322055E-02  1.05841642E-01
 -9.37770121E-03  1.97380121E+00 -2.35500145E+00  3.56282685E-02  1.25597035E-01
  1.45958272E-02 -5.81585330E-04  4.35797025E-02 -9.22539348E-02 -1.02572325E-03
 -3.66080861E-03 -7.22706585E-03  1.97544392E-01 -1.91817821E-05  3.30450908E-02
 -1.00460546E-01  7.73933631E-04 -6.06505442E-02  1.16324371E-03  9.10734087E-03
  5.82504190E-03  3.16874313E-02  4.11032509E-04 -2.62749855E-02 -1.07958227E-01
  4.77008984E-01  3.64794400E-01 -4.12027957E-04 -1.28309759E-02  1.15356424E+00
 -2.29550074E-03  3.35711985E-01 -4.56033831E-01  1.19297932E-01 -2.08662751E-03
 -3.87279101E-01  4.82846007E-04 -5.21502753E-02 -2.18050929E+00  7.27424858E-01
 -6.31735597E-01  1.30276886E-02 -5.20873830E-02 -2.17640462E+00  7.26104664E-01
  6.29754001E-01  2.04501723E-02 -1.52774679E-03 -5.19929272E-03  2.54234492E-02
 -4.51167383E-02  1.09283379E-02 -1.30868157E-02  1.25377694E-01 -2.18703909E-02
  4.22192148E-02 -7.09803199E-02 -1.13123037E-02 -1.26662884E-02 -1.48381401E-02
 -1.02322736E-01 -1.54103712E-03 -5.25129371E-03  2.57943373E-02 -4.43120471E-02
 -1.08975355E-02 -1.56071842E-02  1.24189409E-01  2.15340782E-02  3.86289885E-02
 -7.18974762E-02 -4.48477679E-03  1.29766515E-02 -1.41276005E-02  1.02338000E-01
 -9.47055608E-02  1.70360313E+00 -2.73398531E-01 -2.50616775E-01 -2.73036760E-02
  4.43093572E-02  9.71949446E-01 -6.02108544E-01  3.24257118E-01  7.48222444E-02
  4.41000044E-02  9.77984355E-01 -6.00638336E-01 -3.23001708E-01  5.69703287E-02
 -9.46461858E-02  1.70229786E+00 -2.74290736E-01  2.49539309E-01 -1.80310898E-02
 -3.73218669E-07 -3.10097914E-06  1.16119312E-04 -2.81422173E-04  3.74240717E-01
 -2.01009565E-04 -2.93942565E-04 -7.11086698E+00  9.72643655E-04  5.50212134E-05
  2.66166302E-04 -5.35564470E-02 -7.28436544E-05  3.88546777E-01 -7.50951589E-03
 -2.70173103E-02  5.72956929E-02  6.60371331E-03 -7.57105729E-02  2.05056964E-02
  6.67791216E+00  1.78036283E+00 -2.73915283E-01  5.03212408E-02  3.09399910E-02
 -5.02497698E-02 -1.67753902E-01  1.60595818E-01  1.28906686E-02  5.13284085E-02
 -4.06373186E-01  1.83877903E-01  5.09283951E-02 -1.29955046E-02  5.37327634E+00
  6.86910744E-03  1.96472918E-01  6.32239900E-02 -7.25207978E-02 -6.77534219E-02
 -1.10791466E-01  4.05564924E-01  7.10805194E-06  3.41615966E-05 -5.85030216E-04
 -2.62097127E-04 -3.14649095E-01 -6.31505586E-05  4.46948976E-03  7.27450915E+00
  1.94757285E-03 -9.41348450E-05  2.19770810E-04  4.79604752E-02  1.21822986E-04
 -4.85929712E-02 -1.28882918E-02 -5.13110479E-02  4.05964600E-01 -1.84280548E-01
  5.10879998E-02  1.30070321E-02 -5.37177486E+00  7.32477291E-03 -1.98641698E-01
 -6.33651971E-02  7.18162147E-02 -6.74166446E-02  1.10905425E-01  4.05455904E-01
  7.52394794E-03  2.70865856E-02 -5.82651923E-02 -6.77836856E-03 -7.64836578E-02
 -2.03979508E-02 -6.67612759E+00  1.78132799E+00  2.72499746E-01 -5.01364746E-02
 -2.85476036E-02 -5.07300917E-02  1.68108668E-01  1.60677527E-01  8.33828539E-06
  3.45186456E-05 -1.90776596E-04  2.61787524E-04 -3.23168398E-02  1.02071244E-03
 -4.84680346E-05  8.61265077E-02 -1.37138297E-03  2.01071195E-04  6.35814887E-04
 -1.01525983E-01  5.30472677E-05  7.67137219E-02 -1.60052072E-05 -6.53049919E-05
  2.85260744E-04  2.17563867E-04 -9.42567102E-02 -3.72541005E-04  3.13324867E-04
 -9.34200142E-01  4.09304912E-04 -3.11390183E-04 -8.30265699E-05 -9.94714024E-02
 -4.06147917E-04 -5.69574135E-02  7.07060402E-02 -8.32306913E-01 -2.86463085E-01
 -6.32021145E-01 -8.92680700E-03 -7.08413155E-02  8.29739418E-01  2.87211998E-01
 -6.31609386E-01  7.90816830E-03  1.82093992E-02  6.97326160E-02 -5.07335807E-01
  8.32553801E-03  5.67781072E-02 -3.42915556E-02 -1.76041269E-01 -3.55278231E-01
 -8.46439453E-03  4.33486646E-01  4.18834435E-02 -1.79115076E-03 -1.75141349E-03
  2.08939796E-02 -1.82390518E-02 -6.98462714E-02  5.08150740E-01 -8.15210395E-03
  5.68549011E-02  3.32386933E-02  1.76821421E-01 -3.55077506E-01  1.14546524E-02
 -4.33091809E-01 -4.25345932E-02 -1.59549857E-03  1.58372826E-03  2.06904273E-02
 -7.96545118E-03  2.65059673E+00 -4.49553772E-01 -1.32687249E-01  1.11755693E-02
  4.74070791E-02 -1.00218574E+00 -4.19965025E-01  7.38207059E-02 -1.12196341E-01
 -4.75618139E-02  1.00241276E+00  4.20048607E-01  7.34985929E-02  1.12932156E-01
  8.08752155E-03 -2.64681467E+00  4.50824759E-01 -1.33158309E-01 -7.95863261E-03
  9.01286469E-05  3.94936906E-04 -4.13047919E-03  3.87097212E-04 -2.14547152E-01
 -1.78333899E-03 -2.15693689E-02 -3.25929185E+00  7.14316545E-02 -8.66903905E-04
  1.31270067E-02 -2.17628832E-03 -3.87309080E-03  3.92680013E-02  1.08399339E-02
  3.97388399E-02 -1.54889347E-01 -1.02394317E-01  2.30348040E-01 -9.13568473E-03
  2.89503906E+00 -5.21727799E+00  2.02767380E-02 -7.01886848E-02  5.57037088E-02
 -2.40011134E-02 -1.39354897E-02 -2.05102734E-01 -4.71703791E-03 -1.76972969E-02
  5.26523911E-02 -2.24468870E-01 -2.52050096E-01  8.62585950E-03  2.82230951E+00
  6.12568253E+00 -2.25832891E-01  1.97977702E-01 -4.51889904E-02 -2.98078949E-02
 -2.40420844E-01 -1.39958683E-01  2.21828265E-04  9.78168757E-04 -1.14631995E-02
  6.29672291E-04  7.49033185E-02 -4.98322181E-03  1.39403111E-03  2.78403368E+00
  1.86825663E-01 -1.04359923E-03 -5.42685566E-03 -2.09247119E-02 -9.06883101E-03
 -4.61661231E-01  4.68817680E-03  1.78025941E-02 -6.31267986E-02  2.27564627E-01
 -2.48509751E-01 -5.67359845E-04 -2.86784500E+00  6.10600170E+00 -1.07084954E-01
 -1.98871520E-01 -5.54636426E-02  4.13779941E-03  2.38788414E-01 -1.44889001E-01
 -1.03874349E-02 -3.77608509E-02  1.30609722E-01  9.57214515E-02  2.29022944E-01
 -6.61077986E-03 -2.86438641E+00 -5.22967972E+00 -6.25454267E-02  7.09941207E-02
  5.67426687E-02 -1.49372134E-04  1.47970084E-02 -1.98110305E-01  3.77773258E-05
  1.45121807E-04 -5.97904785E-04 -5.76757539E-05 -2.24780543E-01 -5.09290054E-03
 -3.03462838E-03  2.01637402E-01  2.88904792E-02  5.17618139E-04  1.64226435E-02
  2.23532899E-03  5.54304182E-04  1.25111639E-01  2.57559843E-04  1.12038919E-03
 -6.56588439E-03 -1.05950839E-03  1.23101838E-01 -2.48621682E-02 -8.00388619E-03
  6.57310184E-01  3.20080681E-02  3.77489888E-03 -3.87635284E-03  1.95834399E-02
  1.05265360E-03  6.66346321E-02 -3.71634613E-02  1.03373651E+00 -6.77540560E-02
  3.48374984E-01 -7.60878587E-02  2.91551030E-02 -1.00901319E+00  6.15867839E-02
  3.39931120E-01  4.52456856E-02  8.09535000E-03  3.07242891E-02 -2.14488706E-01
 -7.95488742E-02 -1.12777546E-02 -3.67803972E-03  7.83391684E-02 -1.76847893E-01
  7.14772079E-03  4.28011542E-01 -7.04089745E-03 -8.35570625E-03 -2.48620922E-01
  1.27518516E-01 -7.92868009E-03 -3.00871834E-02  2.09695465E-01  7.98385373E-02
 -1.37517851E-02 -1.72915562E-03 -7.97203758E-02 -1.70323773E-01  1.09222345E-03
 -4.28055992E-01  4.10583877E-03  1.11859758E-02  2.49269533E-01  1.28127367E-01
  1.92312948E-01 -1.17274744E+00 -1.38704219E-01  5.97013418E-01 -1.00482757E-02
 -5.12442591E-02  1.93958823E+00 -2.45346391E-01 -5.56634368E-01  5.96640146E-02
  4.47255613E-02 -1.91761696E+00  2.60826150E-01 -5.52941318E-01  4.18157587E-02
 -1.96032672E-01  1.19932010E+00  1.34092387E-01  5.95902068E-01  3.42711976E-02
  1.12441886E-03  4.93666408E-03 -4.63775619E-02  1.68535506E-02  1.26107630E-02
 -2.77168696E-02 -2.96513879E-01  2.36298907E-01  1.05695237E+00 -9.81894475E-04
  1.95155978E-01 -8.63471857E-04 -4.56472076E-02 -2.24186769E-03  3.28801012E-03
  1.45291640E-02 -1.88168624E-01 -5.50652311E-02 -3.61386091E-03 -1.25696239E-01
  2.85621153E-02  4.04830703E-01 -2.73704257E-01  1.20999818E-02  8.58328730E-01
 -1.77963818E-01  1.47924993E-02 -4.83661180E-02 -3.88862596E-04  3.04671989E-04
 -7.63577613E-02  2.77871653E-02 -5.98059179E-03  6.45934023E-02 -6.14140358E-01
 -1.75827406E-01 -2.61715552E+00 -1.76463781E-02 -7.84858453E-01 -2.60409770E-01
  9.17251705E-04  4.76632002E-02  3.64234298E-03  1.60773657E-02 -1.90169892E-01
  1.20810434E-02 -4.16687855E-03 -7.86475490E-02  9.59700995E-02 -2.06697752E-01
  2.93229417E+00 -2.54598465E-02 -9.04047702E-02  3.44230880E-03 -1.50460006E-01
  3.00990496E-02 -9.64883371E-04 -1.85967318E-03 -6.99739436E-02 -1.19429722E-03
  3.83757435E-02  6.57466585E-02 -2.03265019E-01 -6.26447209E-01 -2.63892320E+00
  8.13130340E-03 -7.82936723E-01  2.61526117E-01 -3.08005826E-02 -3.04534574E-02
  4.63020167E-03  1.94416430E-02 -2.06750204E-01 -6.81275067E-02 -2.65116557E-02
 -1.26569235E-01  4.43717939E-01  2.82714436E-01 -2.56254026E-01  2.27047297E-03
  8.59876614E-01  1.80082788E-01  1.46135283E-02  7.24145061E-02  2.96229495E-04
  1.13393079E-03 -4.98467212E-03  1.12434899E-02  1.45272693E-02 -7.52057805E-02
 -5.14080198E-02 -1.41652263E-02  4.41162802E-01  3.25260134E-03  2.61801526E-01
 -4.46973050E-04  1.69816105E-02 -8.22866598E-03  4.59835546E-03  1.98001255E-02
 -1.12730529E-01 -1.68857549E-02 -7.53941206E-03 -3.91778806E-01 -9.78023156E-02
 -3.97033147E-02  5.14275559E-01  5.66815766E-02 -4.98294512E-02  1.02916555E-03
  6.78083958E-03 -4.64578494E-03 -5.89821897E-02  9.36175387E-02 -3.89645004E-02
  4.15709457E-02 -2.47719615E-01 -6.31203249E-02  2.21348807E-01 -4.68268739E-02
 -8.37921538E-02 -2.59662114E-01  6.38505643E-04  2.47002196E-03 -2.00581180E-02
  5.43982538E-03  1.93353710E-02 -4.61827784E-02 -7.07347518E-03 -3.65340972E-02
  7.24728578E-02 -2.97659624E-02 -2.30752349E-02 -1.58943105E-01  1.69791521E-02
 -1.42039779E-02  1.72203741E-03  6.58192386E-03 -4.87222604E-02 -4.96903892E-03
 -1.83726102E-02 -4.60384760E-02  2.77468155E-03  6.07703692E-02  7.30101960E-02
  2.54902722E-02 -2.44540217E-02  1.58600843E-01 -1.51474847E-02 -2.09047238E-03
 -3.80824313E-02  2.48526843E-01 -3.04508978E-02 -3.47556139E-02  1.68711128E-01
 -4.79762005E-02  1.06245803E-01  1.41563370E-01  1.04141297E-02  7.99789640E-01
 -5.41672779E-02  3.50522949E-01  1.07101514E-01  6.10980181E-02  8.04525127E-01
 -1.34332515E-02  1.01100489E-01 -4.82576678E-02 -4.27770388E-02  1.62898656E-01
 -1.84818364E-02 -8.11624389E-02  9.46199405E-01 -1.27026430E-01  1.81933883E-04
  9.02790014E-04  2.47136793E+00 -6.25301893E-04  1.85340330E-01  1.69765249E-01
  3.46753282E-02 -1.35085028E-04  5.98998190E-01 -2.31283657E-04 -1.08559461E-02
 -5.43241456E-02  9.00027971E-01  1.42835405E-01 -3.35151021E-02 -2.67106987E-02
 -1.64776154E+00 -1.34769447E+00 -4.70010921E-02 -2.07717440E-02  1.85180901E-01
 -3.58116012E-02 -3.47543073E-02  3.68149293E-01 -1.03501707E-02 -5.14256581E-02
  8.64424447E-01 -2.11132502E-01  6.65202413E-02  8.69047232E-03  1.96711544E+00
 -6.26662498E-01 -4.19521688E-01 -7.16142340E-03 -1.33079016E-01 -4.17894218E-02
 -9.46503428E-02 -3.66048600E-01 -1.87277651E-02 -8.35440467E-02  9.99421572E-01
  6.44827961E-02  3.03248302E-04 -2.20659566E-02  3.09779600E-01 -9.09690030E-04
  4.04223982E-01 -9.70074072E-03  2.10603312E-03 -1.28775236E-03  6.37729418E-01
 -7.88254181E-04 -1.03762312E-02 -5.15508654E-02  8.66366509E-01 -2.11052933E-01
 -6.64920428E-02  8.09937692E-03  1.96965921E+00  6.33104039E-01 -4.12170312E-01
 -7.63980977E-03 -1.33545425E-01  4.01209813E-02 -9.45135394E-02  3.66294000E-01
 -1.08502783E-02 -5.43074849E-02  9.00074981E-01  1.43624883E-01  3.36087648E-02
 -2.67309982E-02 -1.64746296E+00  1.34368414E+00 -5.15742696E-02 -2.01412842E-02
  1.84256219E-01  3.35017990E-02 -3.51380616E-02 -3.68533224E-01 -5.62979244E-03
 -2.28129141E-02  1.18173583E-01  4.11372536E-02  2.74349204E-06 -2.75837250E-02
  2.27064664E-01  5.05779817E-04  1.24392863E-01 -5.23144464E-02  5.41261944E-02
 -1.40451934E-04  2.69148762E-03  4.76867354E-05 -5.69406619E-03 -2.63576646E-02
  1.87821816E-01  5.10291249E-02 -2.24056870E-04 -1.97889800E-02  1.12105129E+00
  5.40398513E-04 -4.57474550E-02 -2.12028337E-01 -1.00754505E-01 -1.49527180E-03
 -1.10105019E-01  5.22536622E-04  1.44476475E-01 -1.02072042E+00  3.62639085E-02
 -3.44377017E-01  1.41099876E-01  1.44475969E-01 -1.02074806E+00  3.59071086E-02
  3.43202639E-01  1.44220160E-01 -8.64237903E-03 -3.35375563E-02  2.57569445E-01
  5.31221064E-02 -1.13700168E-01 -4.92376181E-03  6.04884915E-02  2.98115213E-01
  5.33634206E-05  7.72013402E-02 -3.07719579E-03 -3.00925769E-02 -6.69722278E-02
  6.40733914E-02 -8.63439780E-03 -3.35063551E-02  2.57315627E-01  5.30972019E-02
  1.14020194E-01 -4.94723380E-03  6.04782086E-02 -2.98466750E-01  2.49492317E-04
  7.77882968E-02 -3.09161661E-03  3.00797597E-02 -6.69708942E-02 -6.44306557E-02
  2.53425307E-01 -1.57096552E+00  1.15102692E-01  1.44720566E-01  4.30032322E-02
  2.42102338E-01 -1.24809715E+00 -7.63853123E-01  3.22914014E-02  9.26807683E-02
  2.42338327E-01 -1.25265514E+00 -7.64302061E-01 -3.19726518E-02  9.28798740E-02
  2.53599523E-01 -1.56860791E+00  1.14952410E-01 -1.44950076E-01  4.63962622E-02
  2.03889227E-05  8.52029833E-05 -1.37398477E-03  7.45986802E-05 -2.98568758E-02
 -2.65180043E-03  1.74448342E-03 -7.50111788E-01  3.52289359E-02 -1.13551925E-03
  7.63058539E-03  1.95545707E-01  1.03101975E-03  9.39321701E-03  9.18983365E-04
  2.96756943E-03  1.37601271E-03  7.06424144E-03  8.66291649E-04 -5.79133400E-02
  8.90841050E-01  9.73822382E-02 -7.46501371E-01  9.07204531E-02 -1.85224638E-01
  8.88638527E-01 -3.03890103E-02 -2.07956897E-03 -2.21596462E-03 -1.10465469E-02
  1.83257951E-01  4.85915733E-03 -3.51753888E-02 -1.14954596E-01  6.90872024E-01
  6.94612318E-02  1.47541695E+00 -2.33072084E-02 -2.51687684E-02  7.29294900E-01
 -9.89177908E-02  8.26903772E-02 -1.38837975E-05 -7.07435040E-05  9.04091113E-04
 -1.53197840E-03 -1.65424754E-01  2.34698550E-03 -8.99803186E-03  1.15852541E+00
 -3.87249380E-02  1.00713018E-03  9.11205253E-03  7.21857058E-01  2.48687265E-03
  7.78243355E-03  2.31200680E-03  1.13537481E-02 -1.83012980E-01 -3.27426564E-03
 -3.36734644E-02  1.11036132E-01 -6.79327012E-01  7.62542428E-02 -1.40544421E+00
  2.52354479E-02  3.15073232E-02  7.33309689E-01  1.00364052E-01  8.46853390E-02
 -1.07596392E-03 -3.60910558E-03  4.76882067E-03 -3.09168062E-03  1.23929280E-03
  6.04614383E-02 -9.04145879E-01  9.78660875E-02  6.73812808E-01 -9.06544561E-02
  1.99906184E-01  8.83709920E-01  3.14439741E-02 -2.33065420E-03  2.43543977E-05
  1.00155546E-04 -4.28654137E-04 -7.59980174E-04 -2.17037409E-02 -6.92935209E-04
 -4.45601567E-04  4.11064374E-02  1.55183563E-03  1.16644650E-04 -1.53044128E-03
  3.68172324E-01 -9.61381735E-04  1.72066461E-02 -1.47518771E-04 -5.96506953E-04
  2.74875300E-03 -2.26224304E-04  1.21874987E-01  1.54251067E-03 -3.09376648E-03
 -3.32110756E-01 -9.08190236E-03 -1.43898099E-03 -9.41568468E-03  1.11979013E+00
 -9.69636702E-05 -2.32821552E-01  3.98786637E-03  1.23034745E-01 -2.36268966E-01
  1.68254306E-01  9.32311887E-01 -3.78565892E-03 -1.18464110E-01  2.37008679E-01
  1.67167324E-01 -9.16062964E-01  2.21032316E-04  8.91180882E-04 -6.72066898E-03
  1.58831605E-02 -3.58864871E-02  1.76876661E-01 -2.30908388E-02  4.19969876E-02
 -8.27365294E-02  4.50336725E-02  4.04274284E-02 -1.02831417E-01  9.08634202E-03
  1.18644127E-02 -1.70249398E-04 -6.92951999E-04  5.19579080E-03 -1.63903844E-02
 -3.66468342E-02 -1.76120466E-01  2.25476918E-02  4.32851782E-02  7.95320751E-02
 -4.57551208E-02 -3.82707567E-02 -1.02208015E-01 -8.44573229E-03  1.21715983E-02
  1.94414861E-02  3.88220183E-01 -1.38671797E-01  4.44136192E-02  9.78100776E-01
  3.00959973E-02 -1.55885814E-01  8.51016640E-02  1.74616055E-02  3.33402442E-01
 -2.92501871E-02  1.49095323E-01 -8.66679643E-02  1.80417578E-02 -3.62711195E-01
 -1.98790247E-02 -3.91920579E-01  1.44900955E-01  4.64842023E-02 -9.46987989E-01
 -4.13983171E-04 -2.75454257E-03  8.07047154E-02 -1.73828227E-02 -8.60730593E-04
  2.63283727E-01  4.95690700E-02 -5.86343594E-03 -3.40939762E+00  9.17500831E-02
 -6.65580584E-01  3.14130492E-03  1.25678355E-02  5.35195453E-04  2.64921810E-03
  1.00681329E-02 -6.69964339E-02 -9.07416745E-02  2.47834229E-02 -1.25914850E-01
  1.52795683E-01  8.01381895E-03  3.40667325E+00  1.78435858E-02 -6.39996564E-01
 -1.97724117E-01 -3.18248107E-03  5.21711670E-02 -4.50834794E-03 -1.73933829E-02
  1.30745939E-01 -4.55482311E-02  6.97273316E-02  1.72248396E-01 -1.48054165E-01
 -1.05465532E-01 -3.02915066E+00 -6.51973252E-02 -2.09467338E-01  2.30460535E-01
 -8.59430359E-02  1.93922616E-02 -3.70986533E-03 -1.59216121E-02  2.12526150E-01
  1.12358290E-01 -2.13342769E-03 -2.28308341E-01  4.69696389E-01  1.28827809E-02
  3.24287850E+00 -3.71563574E-02 -7.50745652E-01  8.13230391E-03 -4.10614112E-02
 -4.76338317E-04 -4.48421267E-03 -1.72461847E-02  1.27570110E-01 -4.53986162E-02
 -7.10061815E-02  1.74580851E-01 -1.61918660E-01  1.18035413E-01 -3.05684968E+00
 -6.63028478E-02 -2.09528742E-01 -2.12475969E-01 -8.32995209E-02 -1.71229547E-02
  2.65668347E-03  1.01352626E-02 -6.90958204E-02 -9.05078482E-02 -2.46036613E-02
 -1.24156596E-01  1.30386326E-01 -1.02353269E-02  3.41704636E+00  1.64633198E-02
 -6.36027828E-01  2.19330047E-01 -1.29256149E-03 -5.23624801E-02 -1.15229525E-03
 -4.88983905E-03  2.57505836E-02  7.62532998E-02 -6.26170619E-04  8.74715265E-03
 -4.49653072E-02 -4.78445969E-05  2.22154501E-02 -1.45681003E-02  9.61143253E-02
  4.58932520E-03  5.64444869E-02  3.22372338E-04  9.01503452E-03  3.61339342E-02
 -1.57625521E-01 -8.87659519E-03  1.62413136E-03 -5.85166016E-02  3.89583779E-01
 -3.34394335E-03  5.35281997E-01  1.70844984E-01  7.30622746E-01  1.28212521E-02
  1.00313473E-01 -3.16414768E-03  1.18384657E-02 -2.19377009E-01 -8.83188646E-02
 -1.18815421E-01 -5.56381890E-01  1.18444721E-02 -2.24372119E-01 -8.16734481E-02
  1.23108946E-01 -5.77224186E-01 -1.46090702E-03 -5.62145517E-03  4.10680179E-02
  1.64062984E-02  1.13940674E-03 -1.22720249E-02  4.47391220E-02 -5.53855064E-04
  6.34938116E-02  1.32444929E-02 -6.94483042E-02  5.44142103E-02 -3.68793876E-02
 -2.87982177E-03 -1.49681191E-03 -5.76068790E-03  4.21251462E-02  1.59119367E-02
 -2.53716773E-03 -1.62064339E-02  4.55431039E-02  1.78289100E-03  6.47295463E-02
  1.06737017E-02 -6.96401897E-02 -5.66974229E-02 -3.72021576E-02  3.31895084E-03
  3.19444879E-02 -2.44067368E-02 -6.64303414E-02  3.45959026E-02 -1.36449772E+00
  1.42624161E-02 -7.13744530E-02  3.36429862E-02  9.15417183E-02  1.25797844E+00
  1.34246154E-02 -7.47129804E-02  3.24243027E-02 -9.24074018E-02  1.24785859E+00
  3.09642621E-02 -3.44059757E-02 -6.14310977E-02 -3.14438110E-02 -1.38643838E+00
 -9.39318433E-03 -4.24919245E-02  6.69593853E-01 -4.03196097E-03  1.08984836E-04
 -1.64911038E-01  7.88049632E-01 -9.24536615E-03  2.15571147E+00  3.54773449E-01
  2.24513509E-01  4.56522743E-04  2.70038116E-01 -9.10097885E-04  1.55899574E-02
  6.00971234E-02 -4.42313273E-01 -3.55572928E-01  1.53354483E-01  1.33297270E-01
  3.13580921E-01 -8.62974872E-01 -1.82098642E+00  1.09512631E-01 -2.70934838E-03
 -2.35987233E-03  1.77149540E-01 -1.56787832E-01 -1.41337046E-02 -5.07046907E-02
  2.71174545E-01 -3.36350270E-01  1.61384253E-02 -7.43224072E-02 -7.28484854E-01
  1.48869591E+00  1.51309510E+00 -9.78277248E-02  1.87681461E-01 -1.82847619E-01
 -2.04310330E-01 -2.18426823E-02  3.80817440E-03  2.00541973E-02 -3.96897111E-01
  5.69934298E-02 -7.31731128E-04  1.65588513E-01  2.63847752E+00  7.67549415E-03
 -1.05975264E+00 -2.95380532E-01  5.69751084E-02  6.82435868E-04 -5.56026559E-01
 -9.93587869E-04 -1.41226363E-02 -5.06537008E-02  2.70655682E-01 -3.35385239E-01
 -1.74540599E-02 -7.36903522E-02 -7.41501164E-01 -1.46174802E+00  1.51362732E+00
 -9.90701386E-02  1.88209164E-01  1.87230791E-01 -2.02050062E-01  2.21109658E-02
  1.55957152E-02  6.01364629E-02 -4.43487937E-01 -3.54780445E-01 -1.51888032E-01
  1.33937264E-01  3.01290623E-01  8.34637698E-01 -1.82133279E+00  1.10865993E-01
 -3.55714610E-03  6.80257409E-03  1.76089487E-01  1.57128259E-01 -7.57938926E-03
 -3.11219911E-02  1.55776469E-01  2.95728820E-01  1.03552808E-05  1.88540104E-01
 -2.09034265E-01  2.78419287E-04 -7.24554800E-01 -6.80716325E-02 -1.30639769E-01
  6.13605072E-04  1.97848726E-01  3.24820358E-04  2.01638241E-02  8.13700064E-02
 -3.81670843E-01  1.22488147E-01  3.24668323E-04 -2.80600237E-01  3.81403648E-01
  1.22562621E-03  1.27520092E+00  3.26713905E-02  5.54686823E-01  1.01514558E-03
 -3.07889907E-01 -4.10383739E-04  9.05950354E-03 -8.92750878E-01  3.02050894E-01
  2.92330911E-02 -5.81263788E-01  8.92862537E-03 -8.98779614E-01  3.02270930E-01
 -2.54549868E-02 -5.82259727E-01 -5.13503715E-03 -1.98758768E-02  1.45957194E-01
  8.39907187E-02 -9.60314481E-03  1.47487791E-02  1.37410840E-01  1.45423100E-02
  7.74133074E-02  8.61659129E-02 -4.96495456E-02  2.90140764E-02 -1.34287821E-01
  3.36372981E-02 -5.13030965E-03 -1.98568499E-02  1.45770786E-01  8.41922826E-02
  9.75380523E-03  1.40142351E-02  1.36963368E-01 -1.45126069E-02  7.79816747E-02
  8.60897463E-02 -5.00355181E-02 -2.96370776E-02 -1.33646583E-01 -3.36664036E-02
  1.43531112E-01  1.81632683E-02 -1.91114564E-01  1.69487679E-01  5.08408032E-01
 -7.53774439E-02  7.49126820E-01  4.06814642E-02 -8.06854227E-02 -5.03638028E-01
 -7.53536395E-02  7.40255732E-01  3.82141058E-02  8.01211303E-02 -5.08381917E-01
  1.43101694E-01  2.89790326E-02 -1.92639677E-01 -1.68192347E-01  5.03653516E-01
  1.00222159E-02  4.28823887E-02 -5.74031960E-01 -3.38935155E-02 -3.91695259E-03
 -1.51343423E-01 -7.81532491E-01  7.44413453E-02  2.47141747E+00 -1.52807927E-01
  1.23810854E-01 -1.45914369E-04 -2.60065100E-01  5.34659083E-04 -1.23837455E-02
 -4.88011470E-02  4.03253528E-01  2.04452076E-01 -1.00621105E-01  1.45039452E-01
 -7.16471870E-02  9.62768064E-01 -1.79720998E+00 -1.13188470E-01  4.67908111E-02
 -1.55745750E-01 -1.98740934E-01  3.18571778E-01  4.70022337E-03  1.32480313E-02
  5.08096056E-02  2.91388751E-01  1.44588837E-01 -7.37734316E-02  3.57778380E-01
 -2.07940405E+00  1.05276417E+00 -4.84930438E-02  1.11802357E-01 -2.06483046E-01
 -3.15988067E-02  3.10070160E-02 -1.04146457E-02 -4.91340161E-02  8.20249297E-01
  1.61405438E-01 -4.92494166E-04  1.69831426E-01 -1.95733046E+00 -6.41783471E-02
 -4.26484822E-01  3.18192230E-01 -1.67059058E-01 -5.87528697E-04  4.80085550E-01
  9.62313628E-04  4.62581259E-03  1.30314404E-02  4.92936449E-02  2.90316708E-01
 -1.42906807E-01 -7.43769476E-02  4.79373813E-01  2.03283175E+00  1.05520470E+00
 -5.19131467E-02  1.10285862E-01  2.04314605E-01 -3.51916437E-02 -3.44505339E-02
 -1.21019625E-02 -4.75364259E-02  3.86190944E-01  2.03113621E-01  9.79782651E-02
  1.44763716E-01  4.31468549E-02 -9.33348404E-01 -1.80035282E+00 -1.12704045E-01
  4.71420264E-02  1.53418168E-01 -1.89346661E-01 -3.18163492E-01  6.28489861E-03
  2.54534415E-02 -1.25134459E-01 -1.65140973E-01 -1.29872760E-03  2.36572630E-01
  1.66293939E-01 -5.28934432E-03 -9.11616260E-01  4.31370817E-02 -8.43672148E-02
 -1.48215559E-04 -9.75145383E-02 -1.53151629E-03 -5.36860483E-03 -2.18121165E-02
  1.15688414E-01 -1.08380890E-01  2.87817150E-05 -3.98352521E-01  4.38631349E-02
  3.19514421E-03  1.66191278E+00  4.27189167E-01  8.06371394E-01 -2.43980257E-04
  5.16173685E-01 -1.86059343E-03  9.74205826E-03  6.08605841E-01 -4.11303501E-01
 -2.55273716E-01 -9.07954790E-01  9.99562044E-03  6.12970624E-01 -4.05767295E-01
  2.48368528E-01 -9.08305802E-01  2.14907725E-03  8.43405896E-03 -6.19069326E-02
 -5.79784942E-02  1.33148895E-02  2.77165661E-02 -5.66154623E-02 -1.13182179E-02
  1.05941547E-01 -8.09935259E-02 -1.20157507E-01  3.29076411E-02  6.76454867E-02
 -4.98078321E-02  2.13982357E-03  8.39388344E-03 -6.14092474E-02 -5.99262450E-02
 -1.92024094E-02  2.77745414E-02 -5.21550302E-02  2.21807645E-02  1.05984071E-01
 -8.41120168E-02 -1.19833872E-01 -3.29121734E-02  6.35865166E-02  4.98001143E-02
 -7.47381871E-02 -1.34208619E-01  8.38632440E-02 -9.67134147E-02  4.02069442E-01
  1.24709181E-01 -1.16077499E+00  1.24495544E-01  3.19494712E-01 -3.69302391E-01
  1.22683052E-01 -1.17561729E+00  1.25974345E-01 -3.16337831E-01 -3.67227215E-01
 -7.66486722E-02 -1.01887990E-01  9.75268778E-02  9.75663283E-02  4.05229196E-01
  5.97744989E-06 -2.56039492E-05  2.28396278E-03  6.51467895E-04 -3.96706873E-01
  3.10975795E-04  1.06643107E-02  9.02215305E+00 -7.48718142E-03  2.10122320E-03
 -9.93244158E-04 -3.15279920E-03  5.98264923E-03  8.01420273E-02 -1.79503430E-02
 -7.91682434E-02  1.01227256E+00  2.12015774E-02 -9.74226048E-02  5.77069441E-03
 -6.89487297E+00  1.26149220E+00  5.44403527E-02 -1.45826616E-01  1.61079671E-02
 -6.43607306E-02 -5.63018301E-01  7.30990214E-03  6.97744554E-03  2.51334580E-02
 -1.12969843E-01  8.54872907E-02  7.13004245E-02  6.71125612E-03 -7.62662464E+00
 -2.08384141E+00 -6.60085878E-02  2.75430099E-01  1.40549613E-02 -3.65101178E-02
  2.12355799E-01 -1.83959083E-01  1.18413551E-04  5.50883900E-04 -9.35368398E-03
 -9.76752016E-04  4.03206937E-03 -1.54075057E-03 -2.38103191E-03 -8.05320064E+00
  3.15183195E-03 -2.37218625E-03  2.04026313E-03 -3.59302554E-02 -3.71776033E-03
  6.67382536E-02 -7.10050440E-03 -2.55490032E-02  1.13981668E-01 -9.19999775E-02
  7.54986976E-02 -5.66252569E-03  7.62816264E+00 -2.11036285E+00  5.33991680E-02
 -2.75362268E-01 -1.49236475E-02 -3.95983407E-02 -2.13360519E-01 -1.80978766E-01
  1.81274503E-02  7.98043183E-02 -1.01563530E+00 -2.57604147E-02 -9.90059626E-02
 -7.07799104E-03  6.87641415E+00  1.27684452E+00 -4.08089752E-02  1.47058405E-01
 -1.56919520E-02 -6.58969014E-02  5.68985889E-01  1.12308290E-02 -7.24509543E-05
 -2.92149156E-04  1.60752784E-03  3.18472908E-03 -1.67906049E-01 -4.50291431E-04
 -5.50571680E-03 -7.28260946E-01  2.79464153E-03 -5.53060129E-04  1.43280242E-03
 -2.78377195E-02  2.18943416E-03 -2.03532727E-01 -3.08660756E-05 -1.17110964E-04
  3.26072833E-04  2.45621945E-03 -1.11791258E-02  5.23952092E-03 -1.01526161E-02
  6.38060238E-01 -2.08499691E-02 -3.00818364E-03 -7.89372234E-03 -1.57052560E-03
 -3.96864108E-03 -8.71332455E-02 -1.62548213E-02 -8.56821185E-02 -3.02356860E-01
 -4.30360301E-01 -3.35555221E-02  1.43055854E-02  9.17171712E-02  3.09443601E-01
 -4.38365673E-01  5.26219412E-02  3.45478120E-03  1.36046268E-02 -1.17143270E-01
  1.03020517E-01 -3.20040590E-01 -1.17017518E-02 -2.77061114E-01  5.59964893E-01
  4.50622697E-03  2.07114251E-01 -3.39799480E-03  1.14289745E-02  2.52581272E-01
 -2.31059940E-02 -3.38891518E-03 -1.33472282E-02  1.14931211E-01 -1.01915897E-01
 -3.21917809E-01  1.16000597E-02  2.80210645E-01  5.65122371E-01 -4.23745304E-03
 -2.07514523E-01  3.18509404E-03  1.17209492E-02 -2.55848732E-01 -2.20493293E-02
  1.07710109E-01 -2.17271141E+00 -7.68038216E-01  8.59314687E-02 -5.93896687E-02
  7.74754814E-02  1.34520979E+00 -4.97159391E-02  1.28677062E-01 -4.19522273E-02
 -8.09467312E-02 -1.33433725E+00  4.78275964E-02  1.32222531E-01  4.52992675E-02
 -1.07131944E-01  2.17180613E+00  7.76207913E-01  8.55173350E-02  5.67172016E-02
 -1.39488139E-03 -5.66779997E-03  3.44222503E-02 -1.50460160E-02  2.85696220E-03
 -9.90896697E-02  2.72561851E-01 -3.74151249E-02  3.32926786E+00 -6.50875865E-02
 -3.92745557E-01  6.35589633E-04  9.55431464E-02 -1.64278083E-03  2.73704997E-03
  1.06527523E-02 -9.62669739E-02 -1.95818340E-02 -4.97952226E-02  1.32299741E-01
 -3.40083930E-01 -1.49529757E-01 -1.67425023E+00  1.12249397E-02  2.68575290E-01
 -5.90905736E-01  2.00738520E-02 -5.43031907E-03  1.46686581E-03  6.33933042E-03
 -8.96515715E-02 -4.01343604E-02 -6.97453623E-02 -1.33196648E-02  9.07750318E-02
 -1.01568011E-01 -6.34137235E-01  5.93964178E-03 -4.04927142E-01 -1.30344516E-01
  3.69998485E-02 -1.89703416E-02 -1.25696286E-03 -4.06245661E-03 -5.09323024E-02
  4.33628083E-02  1.47300001E-03 -9.23383516E-02 -9.39884569E-01  3.27673599E-02
  2.22384785E+00 -8.05580012E-02 -2.85309121E-01  5.50042064E-04 -5.47890580E-02
 -9.50889882E-04  1.38934194E-03  5.91860427E-03 -8.09506775E-02 -4.13859171E-02
  6.95420444E-02 -1.29101444E-02  3.88608406E-02  1.45995626E-01 -6.31628641E-01
  7.10381649E-03 -4.03594735E-01  1.33699874E-01  3.70450711E-02  2.17954700E-02
  2.70477851E-03  1.04172280E-02 -8.96029754E-02 -1.66600231E-02  5.19265229E-02
  1.33030317E-01 -4.06780914E-01  1.08043448E-01 -1.67571449E+00  1.54416164E-02
  2.67453575E-01  5.94089972E-01  1.55079071E-02  3.22386008E-03 -6.00877606E-04
 -2.38066527E-03  1.45614666E-02 -3.24871792E-02  8.97023078E-04  3.82390102E-01
 -2.79348329E-02 -5.36464554E-04 -1.52531864E+00  6.51568059E-03  1.23227067E-01
  5.10870157E-04 -1.76351919E-02 -5.30866882E-04 -1.00156723E-03 -4.27146818E-03
  2.71395998E-02  1.29543604E-01 -1.25838349E-05  4.97437408E-01 -7.20868515E-01
 -1.56702417E-03 -1.74059360E+00 -8.41581223E-03 -2.48686802E-02 -7.62879900E-04
 -1.10658788E-01  1.33397012E-03 -1.72087398E-02  4.96601692E-01  7.26106577E-02
  1.93462198E-01  5.00884327E-01 -1.72310950E-02  4.93212425E-01  6.75330942E-02
 -1.87749176E-01  5.01619451E-01  9.20394304E-04  3.33994880E-03 -2.31506272E-02
  2.69021009E-03 -5.88665790E-03  1.03376870E-01 -1.85316364E-02  4.36072363E-03
  1.51400154E-01  1.89224491E-02 -4.13032094E-01  6.49298470E-02  1.61455917E-02
  1.54070940E-02  8.82215260E-04  3.19084826E-03 -2.19672881E-02  3.70992424E-03
  7.94205377E-03  1.02965788E-01 -1.91527319E-02 -7.38368788E-03  1.51619148E-01
  2.09976282E-02 -4.14430406E-01 -6.68193210E-02  1.63096956E-02 -1.66091956E-02
 -2.25353025E-02 -1.63646353E-01  3.29518982E-02 -3.98539128E-02  1.50420511E-01
 -4.43419724E-02 -2.00936294E-02  7.01615602E-03 -2.99046185E-02  1.37245984E-01
 -4.19735404E-02 -2.79794614E-02  2.41243334E-03  2.84031433E-02  1.32990391E-01
 -1.95660741E-02 -1.66128678E-01  3.26075069E-02  4.12069527E-02  1.47573702E-01
 -8.25291578E-03 -2.70885575E-02  1.74666538E-01  1.16789226E-01 -5.71032243E-05
 -1.31836200E-02 -1.52592126E+00  1.28868513E-02  4.58431502E-01 -9.36071181E-02
 -4.51624882E-02 -1.81139784E-04 -8.75599279E-01 -3.40266682E-04  1.20194615E-03
  1.24145860E-02 -3.25297442E-01  8.91578157E-02  1.02129569E-01  2.06034764E-02
  2.68211281E+00  7.26068234E-01 -2.71363678E-01  1.00990275E-01  5.86943079E-02
 -7.61753982E-02 -9.35929645E-02 -2.43989737E-01  4.06208123E-04  2.92044767E-03
  3.17738806E-02  1.31463909E-01  2.36535973E-01 -1.97074813E-02 -1.27629272E+00
  2.73025126E+00  1.33183875E-01  2.08917057E-01  3.61965213E-03  2.03883791E-03
  1.49446554E-01  3.72794198E-01 -1.01913178E-02 -4.74809299E-02  8.91204993E-01
 -1.66645863E-01  1.60837717E-04 -8.54982182E-03  7.37034442E+00 -1.02497307E-02
 -2.60532495E-01 -9.35058084E-02 -1.35146634E-01  6.02929139E-04  1.59608244E-01
 -9.37382695E-04  2.32724173E-04  2.18341065E-03  4.04862358E-02  1.29620111E-01
 -2.36828603E-01 -1.91414301E-02 -1.24816420E+00 -2.70260566E+00  1.31458207E-01
  2.04595831E-01  5.11532364E-03  9.53889160E-04  1.47108585E-01 -3.71831050E-01
  1.40952998E-03  1.32627720E-02 -3.33647645E-01  9.07472063E-02 -1.01101610E-01
  2.10249958E-02  2.69240049E+00 -7.59195006E-01 -2.66312122E-01  1.06538627E-01
  5.65261512E-02  7.95608544E-02 -9.07829129E-02  2.44422292E-01  1.33377492E-03
  5.64591208E-03 -6.50081895E-02 -5.16585345E-02 -5.40227680E-04  3.86985569E-02
  4.32471182E-01 -4.05467806E-03 -1.58698021E-01 -3.75921289E-02  2.26961308E-02
 -1.23431213E-03 -6.12929450E-02 -1.77398680E-03  1.47112393E-02  5.53556962E-02
 -2.03505581E-01 -5.88809847E-01  6.53993718E-05  1.89232516E-03  4.66672996E+00
  9.04889234E-04  2.83542228E-01 -7.37837115E-01  1.49955257E-03  5.24971657E-04
 -3.59507895E-01  3.09638280E-04  3.53026121E-01 -3.95587164E+00  5.18030756E-02
 -7.69588848E-01  2.93615285E-01  3.52603382E-01 -3.95831484E+00  5.38041458E-02
  7.67417548E-01  2.94883511E-01 -4.81563042E-03 -1.79321014E-02  1.34133806E-01
 -6.27829728E-03 -1.03456571E-01  1.42521371E-02 -1.04661815E-01  2.89120165E-01
  1.01197718E-02  1.11077962E-01 -5.23767019E-02  5.93135813E-03  9.02368607E-02
  1.04334982E-01 -4.92559396E-03 -1.83606326E-02  1.37621595E-01 -6.65339679E-03
  1.01578932E-01  1.50267325E-02 -1.01359343E-01 -2.86022379E-01  1.01909597E-02
  1.10112517E-01 -5.13804056E-02 -4.04637581E-03  8.72779003E-02 -1.05907176E-01
  8.89596018E-02  1.25762191E+00 -7.09003648E-01  6.03866838E-02  4.52126938E-02
  2.17365410E-01  1.94782860E+00 -2.01964380E-01 -2.75921101E-01 -6.28442054E-02
  2.17940713E-01  1.92130167E+00 -2.02643235E-01  2.75200737E-01 -6.58036193E-02
  8.94266692E-02  1.28374248E+00 -7.01343123E-01 -5.79024828E-02  3.84737347E-02
 -1.32127321E-04 -5.16986797E-04  4.38149034E-03 -7.11466985E-04 -3.02574491E-01
 -3.34439496E-04  4.96198760E-03  1.64171049E+00  1.34071395E-02 -1.69991531E-03
 -9.13439846E-04 -2.95059442E-01 -1.75291596E-03  1.71883033E-01  8.33436083E-03
  2.86305877E-02 -5.32288351E-02  1.91617340E-01 -1.67630715E-01  1.25343419E-01
 -1.88924278E+00  3.03071911E+00 -2.54459155E-01  4.74757580E-01 -4.73544179E-01
 -5.62420810E-01 -1.18420515E-01  8.94492633E-02 -1.24732621E-02 -5.77253749E-02
  8.73769955E-01 -1.49659664E-01  1.32507299E-02  1.12188282E-01 -4.89330130E-01
 -2.79825691E+00  8.87665690E-01 -1.32139673E-01  4.55551765E-01 -5.63628501E-01
 -1.08605639E-01 -1.51177236E-01 -8.13321358E-05 -3.25211823E-04  2.89363426E-03
 -1.32278528E-04 -1.99361622E-01 -5.54856876E-04  1.64149042E-02 -1.31184086E+00
  8.74000849E-03 -2.64909473E-03 -8.05993760E-04  5.46768364E-02 -1.27025070E-03
  1.74977831E-01  1.24895329E-02  5.78219355E-02 -8.75275767E-01  1.47965731E-01
  1.31385049E-02 -1.11901867E-01  4.82112394E-01 -2.80884889E+00 -8.92663083E-01
  1.32786408E-01 -4.56792068E-01 -5.62208587E-01  1.09051941E-01 -1.53427330E-01
 -8.16306389E-03 -2.79174483E-02  4.59836105E-02 -1.92389843E-01 -1.65350910E-01
 -1.24294157E-01  1.90119225E+00  3.02678995E+00  2.43640079E-01 -4.72886684E-01
  4.73888406E-01 -5.58240575E-01  1.18252441E-01  8.92123988E-02 -3.47247333E-05
 -1.40743156E-04  5.94725361E-04 -1.66276662E-03 -4.72587513E-03  1.45139830E-03
  2.95919756E-03  4.24239637E-01 -6.89183804E-03 -1.30269586E-04 -5.31131622E-04
  4.13814423E-02 -1.42973501E-03  1.97394922E-01  9.75233022E-05  3.81942807E-04
 -1.60195052E-03  8.73279049E-04  6.19619312E-02  2.33917555E-03  3.73584703E-03
 -4.98347689E-01 -7.93934946E-03 -5.40208661E-04  2.97190195E-04  6.97768306E-01
 -2.93500964E-03 -2.46615729E-01 -4.80812628E-02 -4.54420434E-01 -2.12149726E-01
 -1.57126383E-01  5.62281428E-01  4.97097607E-02  4.39441586E-01  2.16626712E-01
 -1.56240446E-01 -5.57086806E-01 -8.44716651E-03 -3.28691833E-02  2.62920693E-01
  5.50550042E-02 -3.65921216E-02  1.70641428E-02  8.13517099E-02  1.06013164E-01
 -1.53270891E-02  2.49071959E-02 -2.21418946E-01  1.50871928E-01 -1.25864435E-01
  1.09128192E-01  8.37419730E-03  3.25746702E-02 -2.60379521E-01 -5.43792411E-02
 -3.38681266E-02 -1.63435524E-02 -8.45206162E-02  9.90172199E-02  1.62731910E-02
 -2.14696529E-02  2.19007459E-01  1.50155108E-01  1.28025846E-01  1.06185877E-01
  1.65356077E-01  1.11761077E+00  2.36232329E-01 -1.61141951E-01 -5.13586213E-01
  1.59532975E-01 -1.48256986E+00 -2.99660221E-01  5.88579345E-02 -8.98309174E-01
 -1.59264726E-01  1.49262172E+00  2.96717433E-01  6.12619740E-02  8.97975032E-01
 -1.64285163E-01 -1.11399783E+00 -2.45234266E-01 -1.60376606E-01  5.15409470E-01
  1.71279783E-02  6.63108498E-02 -4.25721002E-01  1.37448468E-01 -1.27539099E-02
 -4.58250904E-03 -1.33441417E+00  5.13710616E-02  2.98443437E-01  5.05378532E-01
 -4.32064447E-02  1.02451195E-02  7.57883327E-02  5.10792432E-03 -8.58592687E-03
 -3.47560528E-02  3.50575036E-01 -7.58363235E-02  3.53901436E-01  4.62089662E-03
  2.86316487E-01 -3.08463031E-01 -1.15774337E-01 -1.27912838E-01  1.06295837E-01
 -5.48476463E-02  1.37653975E-02 -2.17055643E-01 -9.62797252E-03 -3.94186695E-02
  4.10744429E-01  1.53756886E-02  6.80588500E-02 -1.32837374E-02 -9.49509037E-02
  1.15085574E+00 -3.92807098E-02 -5.97340453E-02 -1.92629177E-02  4.23758629E-02
 -9.99536018E-02 -1.44391594E-01  1.27913775E-02  4.99855462E-02 -3.48653542E-01
 -1.09277986E-02 -5.35324883E-03  9.26191966E-04  1.84491567E+00 -5.52203119E-02
 -7.13125183E-02  3.12527455E-01 -1.08241616E-02 -9.32431978E-03  1.73991234E-01
  5.22076762E-03 -8.78812880E-03 -3.55028848E-02  3.49445240E-01  3.16209190E-02
 -6.68035789E-02 -7.64051637E-03 -1.02564529E-01 -1.34803248E+00  4.06686759E-02
 -5.31281258E-02  1.14220600E-03 -1.52864473E-02 -9.76079142E-02  1.24941037E-01
 -9.16446412E-03 -3.66610495E-02  3.49163756E-01 -9.55121398E-02 -3.68359290E-01
  1.00704034E-02  4.51627971E-01  5.11866690E-01 -1.56116087E-01 -1.62477626E-01
  7.56587691E-02  7.19821287E-02  1.86956878E-02  2.27729648E-01  3.65873490E-03
  1.43755596E-02 -5.76069969E-02  4.02595355E-01  8.24372591E-04  1.80707443E-02
 -6.22937037E-01  2.22409832E-02 -6.53270670E-02 -2.63561248E-02  3.78257097E-02
 -3.88909830E-03  2.85563950E-01  9.44619056E-03 -5.26027279E-03 -2.22984368E-02
  1.16833230E-01 -3.70812727E-01 -3.27313171E-03  8.24320249E-02  1.87291340E+00
  2.11695716E-02 -2.39765300E-01 -4.19139917E-01 -7.34853928E-02 -1.99116677E-02
  1.14132025E-01  2.69711152E-03  7.80835077E-02 -1.17134022E+00 -1.87880328E-01
 -2.70541815E-01  2.33930010E-01  7.71257866E-02 -1.17719781E+00 -1.76678895E-01
  2.47705460E-01  2.71251853E-01  2.72992837E-03  1.20299840E-02 -1.22246203E-01
 -1.86597581E-02  2.31333466E-01  1.08026913E-02  3.10222538E-01 -5.98169663E-01
  1.32859962E-03 -2.71627984E-01 -3.88990458E-02 -5.09807517E-03 -2.72473707E-01
 -2.52156057E-01  3.57802338E-03  1.53373865E-02 -1.48938240E-01 -2.20059436E-02
 -2.31786611E-01  1.42059765E-02  2.99090900E-01  6.04474267E-01 -1.16577832E-03
 -2.70900484E-01 -4.98518780E-02 -4.80899427E-04 -2.59323314E-01  2.62481024E-01
  8.33609545E-03  5.00659837E-01  6.92853126E-01  2.18699249E-01  4.15883734E-02
  4.90829125E-02  2.41110650E-01  1.90407294E-01  9.24717856E-02 -1.09595726E-03
  3.71528849E-02  3.61167759E-01  2.36160450E-01 -9.45602337E-02 -5.01296703E-02
 -6.27110134E-03  4.38291129E-01  6.59887140E-01 -2.33313898E-01  2.93695493E-02
  6.11894777E-04  2.37052703E-03 -1.57273805E-02  4.78526892E-03  3.68800381E-01
 -1.35621337E-05 -4.35157116E-02 -2.40763239E+00  2.04060641E-03  1.73578359E-02
 -9.93784108E-04 -3.15302581E-01  3.70751767E-03 -1.40440905E-01 -5.24030614E-03
 -1.44403172E-02 -1.61468610E-01 -2.87058116E-01  2.11298134E-01  9.90063986E-02
  3.14222278E+00 -2.88591179E+00 -4.88574536E-01 -4.26183311E-01 -5.06458370E-01
 -3.53874430E-01  1.11613967E-01 -1.81165738E-01  9.15916017E-03  4.45516685E-02
 -7.70191869E-01  2.11600864E-01 -4.57690619E-03  1.02263194E-01  7.97137549E-01
  2.84436339E+00  1.18588629E+00  1.02132522E-02  3.72453266E-01 -4.94863060E-01
  1.73451144E-02  2.69255443E-01  4.70866758E-04  1.85437061E-03 -1.37977921E-02
 -2.05814894E-04  1.72373399E-01  2.54036203E-04  5.29372562E-02  2.45598198E+00
 -1.03620497E-02  1.11985370E-02  6.22366167E-04  2.43983151E-01  5.79197374E-03
 -1.18906010E-01 -9.80265081E-03 -4.71718430E-02  7.96517428E-01 -2.10119580E-01
 -9.09234645E-03 -1.02973019E-01 -7.98577779E-01  2.77040544E+00 -1.17798813E+00
 -1.53599845E-02 -3.69629112E-01 -4.97985401E-01 -2.45835650E-02  2.79193305E-01
  4.63506889E-03  1.19880765E-02  1.85870621E-01  2.81422230E-01  1.87395561E-01
 -9.87774766E-02 -3.12573993E+00 -2.85847167E+00  4.85917427E-01  4.15569292E-01
  5.11047076E-01 -3.52906577E-01 -1.09664266E-01 -1.66552297E-01  1.13591214E-04
  4.47817012E-04 -1.76222983E-03  1.41925552E-02 -9.84389877E-03  1.25208182E-04
 -2.22953204E-02 -5.20964799E-01  5.90217908E-04 -1.00323589E-03  1.32070777E-03
  1.31290285E-01  1.00514003E-02 -2.11569253E-01 -2.05977560E-04 -8.58271692E-04
  4.28812119E-03 -1.19632123E-02  1.15961419E-01  1.55073371E-03  5.72686324E-02
 -8.76518054E-01 -3.64680302E-03 -1.23783075E-02 -2.08287274E-03  6.26060470E-01
  5.46170012E-03 -7.10136303E-02 -2.44037329E-02 -2.27215129E-01  1.99344357E-01
  3.53315368E-01  5.84332079E-01  2.83544271E-02  1.58641592E-01 -2.12344598E-01
  3.70053552E-01 -5.71003660E-01  1.10187499E-02  4.30467634E-02 -3.47972320E-01
 -5.12826478E-02  3.25646388E-02  5.44010576E-02 -1.08258789E-01 -1.45279296E-01
 -3.60813210E-02  3.58061790E-03 -1.89727539E-01  8.98071088E-02  1.42673048E-01
 -1.36953152E-01 -1.07759907E-02 -4.20064194E-02  3.37826830E-01  4.99372775E-02
  1.65344275E-02 -5.40238904E-02  1.29635566E-01 -1.03334421E-01  3.61498513E-02
 -2.22149791E-02  1.87924319E-01  9.04487775E-02 -1.60956989E-01 -1.19438650E-01
 -2.13882597E-01 -5.19409785E-01 -4.21394451E-01  2.28135135E-01 -3.15478790E-01
 -1.75883426E-01  1.39983726E+00  6.15045565E-01  1.17022761E-02 -8.30193007E-01
  1.78203038E-01 -1.38570372E+00 -6.00354211E-01  4.07953826E-03  8.26835810E-01
  2.13256569E-01  5.50875913E-01  4.69373127E-01  2.12667259E-01  3.17267662E-01
 -8.20960435E-06 -6.27950568E-06 -1.19060951E-03  5.54577870E-04 -3.05957960E-02
  3.49890210E-05 -3.40074443E-03  4.38388043E-01 -3.57497097E-03 -2.18575803E-03
 -6.15902057E-04 -8.22406422E-02 -1.05481860E-03  9.43654119E-03 -6.66930630E-04
 -3.42421028E-03  6.55506056E-02  3.99982324E-02 -1.80197363E-02  1.49489526E-02
 -5.77388972E-01  1.74312975E-01  1.69390571E-01  1.50444549E-03 -4.69856619E-01
 -1.26230875E-01 -1.35810815E-02  3.31294939E-02  5.19280042E-04  1.59283600E-03
  8.82944369E-03 -1.60516834E-02 -3.13195296E-03  1.21437517E-01 -3.04934809E-01
 -1.67631914E-01  4.90140195E-01  3.62889000E-02  4.23785412E-02 -6.68165402E-01
  3.84202493E-03 -3.77314823E-02 -6.31627687E-05 -2.74480191E-04  3.79752379E-03
 -7.27028273E-04 -9.30447835E-03 -3.50521381E-05  2.18391457E-02 -5.94988584E-01
 -1.58239181E-03 -1.47962232E-03 -3.52483054E-04  1.34352977E-01  1.05694607E-03
 -2.81219990E-02 -5.17156691E-04 -1.57383053E-03 -8.70713239E-03  1.58914051E-02
 -3.58914734E-03 -1.21339394E-01  3.03063511E-01 -1.79877852E-01 -4.90338746E-01
 -3.41944220E-02 -4.19487069E-02 -6.68541956E-01 -2.79589295E-03 -4.16017700E-02
  7.54721716E-04  3.82951291E-03 -7.10168563E-02 -3.87732163E-02 -1.62761975E-02
 -1.50621834E-02  5.83444121E-01  1.53599147E-01 -1.63791028E-01  4.46272392E-04
  4.68471877E-01 -1.27245763E-01  1.77305494E-02  3.39863557E-02 -2.69734390E-05
 -1.07683360E-04  5.48559532E-04  2.82538251E-04  6.51415151E-03 -1.07082604E-05
 -4.09955944E-03  3.34805156E-02  8.21136130E-05 -1.22668853E-03 -2.20923217E-05
  6.71714450E-01 -2.16817800E-04  8.74793837E-03  2.40781534E-05  8.83045391E-05
 -3.27485021E-04 -1.09515924E-03 -6.17746795E-02 -3.43915753E-04  1.45402159E-02
  5.95438441E-01  2.70150665E-03 -2.14709723E-03  3.37562214E-04 -2.83443750E-01
 -1.36245397E-03  1.04556800E-01  2.43480939E-02  3.63713208E-01 -5.99901573E-02
 -5.08527634E-02 -2.00688913E-01 -2.32371927E-02 -3.88618298E-01  6.09990595E-02
 -4.53730132E-02  2.01293090E-01 -9.21950153E-04 -3.62116837E-03  2.96163315E-02
  3.71387063E-04  3.32948474E-03  2.13988080E-01  1.42085313E-02  6.79733366E-03
 -3.55253357E-02 -7.33716448E-03  3.42126263E-01 -6.44122166E-01 -1.06672975E-02
  1.05999999E-02  1.03008625E-03  4.05050230E-03 -3.32757157E-02 -5.19772102E-04
  2.68338740E-03 -2.14140109E-01 -1.35094016E-02  9.83983215E-03  3.59860051E-02
  9.95608163E-03 -3.41557990E-01 -6.44407688E-01  1.15542421E-02  9.96171273E-03
  2.36287487E-02 -1.37810507E-01  7.94592577E-02 -3.33464413E-02 -5.83842860E-01
  1.90155781E-02 -1.88756338E-02 -8.89886012E-02 -1.03583185E-02 -5.81229099E-01
 -1.85479166E-02  3.14691571E-02  8.47685363E-02 -8.39030545E-03  5.81611892E-01
 -2.37211602E-02  1.55760674E-01 -7.59255121E-02 -2.98218859E-02  5.81530980E-01
  3.74364611E-05  1.32130215E-04 -9.20322545E-05 -2.21941134E-04  6.59193918E-02
  1.85840246E-04 -2.39130059E-03  1.32855235E+00  4.52941789E-03  2.80536617E-03
  5.02266537E-04 -3.13455315E-01 -3.41760003E-04 -1.14459152E-01 -1.91519064E-02
 -8.21939066E-02  9.99085815E-01  3.48222565E-01  4.38154615E-02 -1.71726711E-02
 -2.92426469E+00 -1.50492526E+00 -8.45381726E-01 -4.93984385E-01 -1.47323043E-01
  2.16044367E-01 -3.91771280E-02  2.83228493E-01  1.73489372E-02  6.57204292E-02
 -4.37700721E-01  2.49859286E-02 -2.00538963E-01  3.40506431E-02 -1.33204761E+00
  2.18191275E+00  9.84924733E-01  7.54320145E-01 -2.58923525E-02 -1.56720423E-01
 -2.42095717E-01  6.08741511E-03  6.77481700E-05  2.83862625E-04 -3.20463137E-03
  7.15313914E-04 -3.99291319E-01  2.36768235E-04 -1.33376902E-02 -2.28046131E+00
  8.03405969E-03  2.03140549E-03  6.49914882E-04  4.66270644E-01 -2.66164303E-04
 -4.22736364E-01 -1.73415532E-02 -6.56939629E-02  4.37020071E-01 -2.40507242E-02
 -2.00857275E-01 -3.34782931E-02  1.33300209E+00  2.18687576E+00 -9.90627511E-01
 -7.56935768E-01  2.28447723E-02 -1.53718365E-01  2.41440341E-01  8.24276361E-03
  1.90302267E-02  8.16755966E-02 -9.93116532E-01 -3.49322884E-01  4.14022935E-02
  1.71564643E-02  2.92743680E+00 -1.49129866E+00  8.40975760E-01  4.91367447E-01
  1.47888660E-01  2.17215103E-01  3.52910934E-02  2.83121637E-01  4.32545254E-05
  1.71013411E-04 -8.44273615E-04  2.86081666E-04  1.39455188E-01  5.54688705E-05
  2.64705629E-03 -1.18492810E-01 -1.27702268E-03  9.81026722E-04 -1.02676177E-03
  2.36998984E-02  5.67499172E-04 -1.23150834E-01 -2.50474297E-05 -9.74346213E-05
  4.29598775E-04 -7.01365794E-05 -3.50502301E-01  8.46938357E-04 -5.25285381E-03
  3.21476793E+00 -4.16049557E-03  7.37021173E-04  4.94357745E-04  1.24388165E-01
  1.02500839E-03 -2.97201176E-01  1.74767326E-01  1.63208767E+00 -7.61841835E-01
 -3.82234359E-01 -4.83387914E-02 -1.75447298E-01 -1.61805945E+00  7.59524216E-01
 -3.85322801E-01  4.95642716E-02 -1.43454026E-03 -5.78815265E-03  4.64982418E-02
 -8.99606617E-02  1.41118259E-01  2.68267225E-02  1.47010810E-01 -1.74620975E-01
 -4.95256678E-02 -1.61821172E-01 -1.44295469E-01  1.11761399E-01 -8.99665186E-03
 -2.16504063E-03  1.34383621E-03  5.43188021E-03 -4.35075414E-02  8.97936903E-02
  1.40583163E-01 -2.67904565E-02 -1.46444737E-01 -1.74832587E-01  4.91401401E-02
  1.58949152E-01  1.44680791E-01  1.11704922E-01  7.91473440E-03 -8.75788839E-04
  7.74938118E-02 -2.12685681E+00  8.88552900E-01 -1.62980611E-01  3.32045143E-01
  1.99756661E-01  1.62570170E+00 -1.71973467E-01 -5.26335452E-02 -3.06430876E-01
 -1.99897989E-01 -1.63316279E+00  1.74528642E-01 -5.42821068E-02  3.07566410E-01
 -7.76083538E-02  2.11570523E+00 -8.91981743E-01 -1.67076108E-01 -3.33608566E-01
 -2.04192091E-03 -1.48388282E-02  5.59729668E-01 -7.58609539E-02 -1.99091181E-04
  3.43244115E-03 -1.23277283E+00  1.01920427E-02 -9.27009426E-03  7.17264552E-01
  8.42140416E-02  4.54572859E-03 -5.66932435E-01  1.10050366E-04 -1.37652855E-02
 -6.05638854E-02  7.74129824E-01 -2.53955458E-01  2.85761026E-01 -1.66917535E-02
  2.13853871E+00 -1.85044595E+00  7.33123863E-02 -3.26360448E-01  1.34754692E-03
  9.54763111E-03 -7.39534594E-01  3.60734669E-01  4.80866486E-03  1.99879739E-02
 -2.80711598E-01  1.26045855E-01  5.66052087E-03  2.74579017E-02 -1.30467882E+00
 -4.59218121E-01 -2.93956052E-01 -2.32544480E-01 -6.74599064E-02 -9.68670178E-02
 -2.77650792E-01 -2.51957003E-01  4.85784918E-03  2.33509121E-02 -3.84448380E-01
  1.29347757E-01  5.42331777E-05  5.92095733E-03 -7.75058170E-01 -2.47697276E-03
  6.85577438E-01  2.29082518E-01  1.40430186E-01 -3.05136000E-03 -5.32483491E-01
  1.23295079E-03  4.82617416E-03  2.00538052E-02 -2.81180172E-01  1.25452477E-01
 -5.30752507E-03  2.72266468E-02 -1.28960794E+00  4.52785130E-01 -2.80648517E-01
 -2.32142921E-01 -7.19495529E-02  9.80628844E-02 -2.78934048E-01  2.52990149E-01
 -1.37517810E-02 -6.05117945E-02  7.73651836E-01 -2.53136055E-01 -2.85452547E-01
 -1.78449929E-02  2.14544245E+00  1.85446376E+00  5.18190460E-02 -3.26795980E-01
  2.58656435E-03 -1.44233214E-02 -7.39590300E-01 -3.60821624E-01  1.67391418E-02
  6.68562226E-02 -3.65890538E-01 -1.46397251E-01 -5.47400327E-04 -4.69224594E-03
  1.85402474E+00 -7.93777783E-04  2.69183403E-02  3.11977659E-01 -3.87003826E-02
  1.28616145E-03 -5.43240293E-02 -5.58814012E-04  1.04336113E-02  4.18602287E-02
 -1.91182283E-01  1.72439930E-01  7.35856153E-04  9.16709677E-02 -2.05106652E+00
 -8.33150285E-03 -6.59573824E-01  1.86040054E-01 -5.42036173E-02  2.63410688E-03
 -1.31298215E-01 -1.15429203E-03  9.40398988E-02  1.10390767E+00  2.18950080E-01
  5.35557247E-01  5.23189707E-02  9.47189632E-02  1.11778508E+00  2.16277378E-01
 -5.35497319E-01  4.76838313E-02 -2.23123756E-02 -8.77848632E-02  7.45736356E-01
  2.78805975E-03 -7.99494413E-02 -1.29875201E-02 -1.68064354E-01  6.08476722E-01
  1.22973443E-02 -3.09780752E-01  4.17932243E-02 -8.82989168E-03  2.35216554E-02
 -6.65408084E-02 -2.23549366E-02 -8.79548046E-02  7.47247704E-01  2.41690295E-03
  7.90088090E-02 -1.32174809E-02 -1.66466928E-01 -6.07159302E-01  1.17511297E-02
 -3.10592757E-01  3.78025718E-02  3.28648362E-03  2.23533812E-02  6.59770527E-02
  2.02346265E-01 -1.73143514E+00 -1.16908200E+00  4.79827897E-01 -2.90476716E-02
  4.95225447E-02 -7.72052430E-01  7.80412770E-01  1.42963528E-01  3.32793048E-02
  5.01373725E-02 -7.76267747E-01  7.77258585E-01 -1.41811182E-01  3.21980718E-02
  2.02771653E-01 -1.73334341E+00 -1.16490606E+00 -4.78517621E-01 -1.78134968E-02
  3.51053449E-05  1.66999017E-04 -2.86789706E-03 -1.25282250E-04  7.87874330E-02
 -1.10803409E-04  6.65109395E-03  4.69927909E-01 -4.17346228E-03 -4.69752912E-04
 -2.69760449E-03  1.06714296E+00  1.23368909E-03 -2.84609554E-02 -7.14994577E-03
 -3.03324760E-02  3.49295968E-01  9.36568317E-02  4.57756471E-02  1.43083421E-01
 -7.98552937E-01 -4.75301158E-01  2.36103384E+00 -1.99245971E-01  1.18489833E-01
 -8.93998313E-01 -3.31432608E-02  6.95777432E-02  5.77902797E-03  2.09265896E-02
 -9.67080294E-02  4.55791904E-02 -9.31413502E-02 -5.19107224E-02 -6.82806029E-01
  8.26812206E-01 -1.72626525E+00  2.94028543E-01  4.62346336E-01  6.43110311E-01
 -1.83656749E-01  6.32389577E-02  7.86933007E-05  3.35211591E-04 -3.44394418E-03
 -9.63285862E-04 -2.06595355E-01 -3.89889730E-04  2.73421255E-04 -4.98657754E-01
 -1.33827572E-02 -2.43900942E-04 -5.91604545E-04 -7.31495687E-01  2.93725718E-03
 -8.74469287E-02 -5.74917304E-03 -2.07689961E-02  9.40579629E-02 -4.58947130E-02
 -9.36037095E-02  5.09312896E-02  7.01272649E-01  8.22616842E-01  1.73674294E+00
 -2.93087417E-01 -4.61863990E-01  6.38281916E-01  1.87584522E-01  5.90184055E-02
  7.16681503E-03  3.04576158E-02 -3.52330574E-01 -9.19474822E-02  4.65002381E-02
 -1.42743552E-01  7.92561531E-01 -4.86068930E-01 -2.35998724E+00  2.00084322E-01
 -1.18207424E-01 -8.95715012E-01  3.63781355E-02  7.30948738E-02 -7.38608972E-05
 -3.00448313E-04  1.62438036E-03  9.76778920E-04  6.62017196E-02 -1.77086133E-04
 -3.63968433E-03 -2.00413768E-01  7.69692676E-04 -7.45606727E-04  1.61753672E-03
 -1.59752962E-01  6.86446747E-04 -8.83313135E-02 -9.86046505E-05 -3.92245810E-04
  1.71648109E-03 -1.63807863E-03  3.46558907E-02 -1.24651294E-03  1.16444007E-02
 -7.48349720E-01  6.15382995E-03 -4.26906693E-04 -2.09995188E-03  9.43545691E-01
  3.25296565E-03 -6.26334505E-01 -1.81811234E-02 -1.01059272E+00 -1.62704989E-01
 -2.03278098E-01  6.10039314E-01  1.64854664E-02  1.00332222E+00  1.57138024E-01
 -1.95098096E-01 -6.09910757E-01  1.40748665E-03  5.55565444E-03 -5.00894936E-02
 -4.47707856E-02  6.62323518E-02 -1.03467011E-01  5.04058437E-02 -1.14263871E-01
  1.50938941E-01 -5.53371494E-02  2.96878366E-01 -1.50215554E-01  1.64826214E-02
 -1.85824595E-02 -1.36672961E-03 -5.39983667E-03  4.87831755E-02  4.54197547E-02
  6.64375937E-02  1.03876280E-01 -4.98242966E-02 -1.12906704E-01 -1.51143379E-01
  5.75813176E-02 -2.98659496E-01 -1.50589946E-01 -1.71062668E-02 -1.96753378E-02
  1.35384329E-03 -6.10663429E-01  3.16270769E-01 -4.69762148E-02 -1.09873023E+00
  1.04743976E-01  6.52041319E-01  2.13382830E-01  4.45736810E-02  5.17380312E-01
 -1.06379260E-01 -6.45176564E-01 -2.22571154E-01  4.65131769E-02 -5.17040620E-01
 -3.29093402E-03  6.27412245E-01 -3.14605182E-01 -4.80815866E-02  1.09926826E+00
  4.41297572E-03  2.17389886E-02 -4.36076981E-01  7.20674404E-02  9.40174861E-04
  1.85290478E-02 -8.94684402E-01 -1.24836432E-02  7.70047480E-01 -3.74682936E-01
  6.13815481E-01  4.26101115E-03  7.17719689E-02 -1.10061623E-03  1.02232516E-02
  4.23560210E-02 -5.02252162E-01  1.03688913E-02 -1.50507474E-01 -5.43745100E-02
 -3.39815015E-01  9.83372105E-01 -3.80597512E-01  2.27145880E-02 -2.08088937E-01
 -3.78528018E-02  1.63844417E-01  2.78352073E-02 -9.83592745E-03 -4.48794138E-02
  6.41196761E-01  6.78091439E-02  9.70536101E-02  1.26486557E-01 -1.15815374E+00
 -1.08897042E+00 -1.07358679E+00  3.22482769E-03 -4.36646844E-01 -7.90241709E-01
 -3.92809528E-01 -2.69759196E-01 -1.98900717E-02 -8.98788378E-02  1.21221367E+00
  1.82851575E-01 -3.55052477E-04  1.52504457E-01  3.18827306E-01  1.38675562E-02
  3.59917717E+00  2.17836042E-01  2.30525288E-01 -2.62239291E-03 -2.45583628E-01
  5.03067910E-04 -9.90420560E-03 -4.51839783E-02  6.45283044E-01  6.74372012E-02
 -9.75159380E-02  1.26875999E-01 -1.18079735E+00  1.11178118E+00 -1.06019276E+00
  1.61216205E-03 -4.38951674E-01  7.95532539E-01 -3.93095507E-01  2.72993216E-01
  1.02725138E-02  4.25304532E-02 -5.03004199E-01  9.81118445E-03  1.51414919E-01
 -5.53564709E-02 -3.57550649E-01 -9.99681520E-01 -3.98159788E-01  2.54195541E-02
 -2.09331032E-01  3.10692143E-02  1.61832527E-01 -2.90950049E-02  3.18701498E-03
  1.37886310E-02 -7.19134356E-02 -4.02933303E-02 -1.29788030E-04  3.56481702E-02
 -6.31820395E-01  4.70774682E-04 -2.37836001E-01 -1.01307942E-01 -3.95838415E-01
 -1.12909628E-03  1.07803707E-02  1.30370273E-04  1.27876825E-02  4.82800614E-02
 -1.55290492E-01  1.98260134E-01 -4.03872758E-04  2.57581177E-01 -1.55614770E+00
 -3.02821386E-03 -1.59540371E+00  1.13424025E-01  4.84070113E-01  2.95631777E-03
 -6.29899887E-01 -1.96638295E-03  3.17560107E-01  1.69145978E-02  5.62691023E-01
  5.82345490E-01  3.96974775E-02  3.16852037E-01  2.72684859E-02  5.61964229E-01
 -5.84752621E-01  3.51763495E-02  1.12823193E-02  4.49386009E-02 -3.89077568E-01
 -5.68693546E-02  8.12077472E-02 -9.35953800E-02  9.26916980E-02 -3.71070265E-01
  1.37040298E-01  1.09841100E-02  2.96260262E-01 -1.61030166E-02  1.15241422E-02
 -6.00957389E-02  1.12796298E-02  4.49305371E-02 -3.89110894E-01 -5.65352890E-02
 -8.11824972E-02 -9.26060724E-02  9.18502930E-02  3.70359633E-01  1.35508877E-01
  1.09700102E-02  2.94364914E-01  1.62552126E-02  1.14893092E-02  6.07626512E-02
 -6.96357998E-02  4.57173545E-01  5.63565439E-01 -2.87301310E-01 -1.58431563E-01
  1.72476256E-01 -8.57231218E-01  7.92123935E-01  2.59150169E-01 -6.44938457E-02
  1.73624999E-01 -8.68800780E-01  7.92486234E-01 -2.59568773E-01 -6.88939455E-02
 -6.85047081E-02  4.57934986E-01  5.62813169E-01  2.88108340E-01 -1.50264467E-01
 -1.20186898E-03 -6.96721142E-03  1.93579224E-01 -9.45199219E-02 -4.67208045E-04
  4.70561611E-02  8.86722951E-01  3.81245901E-02  1.63973147E+00  2.82595317E-01
  6.29536578E-01 -4.71713225E-04 -6.59650643E-02  3.70969974E-03 -7.40857962E-03
 -2.92372433E-02  3.01935873E-01  1.23622819E-02  1.15790780E-01 -3.21376490E-02
  1.00196823E-01 -5.77133725E-01 -1.01937106E+00 -1.53123245E-02 -3.13073132E-01
 -2.09708898E-01 -1.49039728E-01 -5.47377441E-02  6.45028950E-03  2.97339806E-02
 -4.54315428E-01 -2.35709478E-02 -4.29517570E-02  1.11601651E-01  1.24412540E+00
  9.85354590E-01 -7.74775724E-01 -2.17591834E-02 -5.86008527E-01 -9.01400724E-01
  4.46562823E-01  4.14357665E-01  1.41823502E-02  6.18806868E-02 -7.39068378E-01
 -1.43697943E-02  4.61103768E-04  2.40407085E-01 -1.66923527E-01 -5.09355208E-02
  3.72734800E+00 -1.74362941E-01 -4.78270372E-02 -3.31635174E-04  5.83669263E-01
 -3.83397012E-03  6.51153544E-03  3.00266172E-02 -4.58173178E-01 -2.50775383E-02
  4.32351975E-02  1.11670871E-01  1.33653465E+00 -1.04486551E+00 -7.73313856E-01
 -1.76693765E-02 -5.85642351E-01  9.01265317E-01  4.50759725E-01 -4.19378034E-01
 -7.47798438E-03 -2.94815086E-02  3.03789337E-01  1.50719253E-02 -1.16270955E-01
 -3.19282829E-02  1.53059861E-01  6.22953530E-01 -1.01960421E+00 -1.55177466E-02
 -3.13480139E-01  2.11589354E-01 -1.43793232E-01  5.84886091E-02 -5.97279253E-03
 -2.51673671E-02  1.38287917E-01  6.17215315E-02  3.96212754E-04  9.17398149E-02
  3.29153749E-01 -5.11581001E-03 -6.33627844E-01  5.75488275E-02 -5.43637123E-01
  9.71734256E-05  1.24565801E-03 -1.40316269E-03 -1.27665053E-02 -4.93187424E-02
  1.86160316E-01 -2.60664539E-01  7.21751809E-04  2.84593355E-01  2.38512555E+00
  1.30904814E-02 -1.16448516E+00 -2.24859056E-01  8.60475876E-01 -2.03932156E-04
  4.93619977E-01  3.31257615E-03 -3.10219090E-01 -4.91334138E-01 -6.42877804E-01
 -6.87430351E-01  5.36146051E-03 -3.06321342E-01 -5.30140005E-01 -6.41768329E-01
  7.02959457E-01  8.09731181E-03 -7.47410800E-03 -3.00987551E-02  2.67067518E-01
  5.58026571E-02 -6.47399174E-02 -9.57007856E-02 -7.65954573E-02  2.68900795E-01
  1.80207457E-01  4.29863071E-02  3.28747180E-01  1.42613792E-03 -1.03585420E-02
  6.87391001E-02 -7.55657849E-03 -3.04274297E-02  2.70055891E-01  5.59280743E-02
  6.51937813E-02 -9.58944179E-02 -7.55957080E-02 -2.70089708E-01  1.80366186E-01
  4.33464203E-02  3.28318152E-01 -2.16407037E-03 -1.13305604E-02 -7.04213031E-02
 -8.63799819E-03 -1.78254545E-01 -4.50835946E-01  2.70313064E-01 -1.84853067E-01
 -1.78257173E-01  1.03150610E+00 -8.29047768E-01 -1.85851699E-01 -2.04279967E-01
 -1.80352085E-01  1.05161419E+00 -8.42783363E-01  1.90063579E-01 -2.05375661E-01
 -1.06535421E-02 -1.73861810E-01 -4.51314851E-01 -2.73523575E-01 -1.85644760E-01
 -5.52596175E-05 -2.52216675E-04  3.86239686E-03  3.22560941E-05  8.28258065E-02
  3.75535819E-04  1.38417337E-04 -3.89411145E+00  6.83365250E-03  7.45316336E-04
  2.58847887E-03  3.15250025E-02 -9.20042619E-04 -6.42745783E-01 -6.72757546E-03
 -2.34460065E-02  1.69577158E-01  1.79101880E-01  8.24599620E-02  7.99527039E-03
  2.32659296E+00 -2.39566027E+00 -9.27183482E-03 -5.58210601E-02 -5.43022391E-02
 -4.68382294E-02  4.60586614E-01 -2.67032689E-01  2.06244977E-03  1.45458230E-02
 -2.63608734E-01 -1.46565581E-01 -1.90691665E-02  7.78655110E-03  5.95633287E+00
  3.57696674E+00  1.30509093E-01  3.72934039E-01  9.70054231E-03  4.76829478E-03
  7.05404793E-01  6.25513751E-01  3.25565122E-05  1.62193517E-04 -2.73054234E-03
 -6.02032671E-04  1.23825029E-02  7.69767881E-04  1.10176882E-02  7.78599651E+00
  1.13318109E-02 -3.98393052E-03 -9.53044290E-04  8.19307794E-02  3.81692849E-03
  1.24755610E+00 -1.93849726E-03 -1.39927320E-02  2.56112410E-01  1.44780275E-01
 -1.70674939E-02 -7.16264668E-03 -5.94033102E+00  3.55511505E+00 -1.36256033E-01
 -3.70579847E-01 -1.11839365E-02  1.02933134E-02 -6.98016265E-01  6.21021573E-01
  6.64241880E-03  2.30897114E-02 -1.64790187E-01 -1.79149451E-01  8.14909885E-02
 -7.98806420E-03 -2.32468447E+00 -2.38970123E+00  3.36907056E-03  5.71510758E-02
  5.41195721E-02 -4.30234199E-02 -4.62135574E-01 -2.68327718E-01 -2.69626124E-05
 -1.15439215E-04  6.43583434E-04 -1.00573742E-04 -1.54490928E-01  2.47482329E-04
  1.36336061E-03  8.07168882E-01 -1.63125246E-03 -3.03184983E-05 -1.88711144E-03
 -1.18430914E-03 -5.34100308E-04  2.41303551E-01 -4.77062202E-05 -1.75919409E-04
  4.38539056E-04 -1.04262025E-03  1.71440946E-01  1.04759561E-03  1.69641783E-02
 -6.68025351E+00 -4.92219912E-03 -1.95300998E-03  3.05832290E-03 -3.27167246E-01
  1.14091377E-03 -9.66655208E-01  4.81565467E-01 -7.77180106E+00  7.93651864E-01
 -2.14943891E+00  3.13689390E-01 -4.86104292E-01  7.75666001E+00 -8.01169930E-01
 -2.13827104E+00 -3.16297848E-01 -5.82983532E-03 -2.34716137E-02  2.23037923E-01
  4.15307216E-02 -1.01489713E-01 -6.71099468E-04  6.59413134E-03  1.92426069E-01
  1.03456151E-03  6.19406482E-02  1.19436660E-03  1.27868944E-03 -6.68951364E-02
  1.33840757E-01  5.79896153E-03  2.33456793E-02 -2.21848062E-01 -4.14305810E-02
 -1.01100890E-01  1.41548086E-04 -7.44756716E-03  1.90694499E-01 -3.23846545E-04
 -6.17829962E-02  9.88329552E-04  1.58018716E-03  6.71004239E-02  1.33861697E-01
 -1.38509209E-01  4.57563629E-01  1.30001612E-02  1.42205061E-01 -4.54588913E-02
 -3.26520857E-01  2.37829035E+00 -1.07157879E+00 -1.39798404E-01 -6.01559738E-02
  3.24702890E-01 -2.35861292E+00  1.05708286E+00 -1.35076311E-01  5.87849139E-02
  1.39995337E-01 -4.60558403E-01 -1.48349671E-02  1.41493043E-01  4.38778907E-02
 -2.39839274E-02 -1.02446478E-01  1.29310665E+00  2.67999576E-01  9.19677917E-03
 -2.58099855E-03 -1.79360800E+00  4.74591520E-01  3.64869955E-01 -5.01528129E-01
 -1.52653321E-01  3.40319439E-02 -7.29706434E-02 -2.37059171E-02  6.08750198E-05
 -2.32459516E-03  1.64853593E-01 -2.13116813E-02 -1.18617958E-01  1.21917562E-02
  4.69988445E-01 -1.91454685E-01 -8.44752198E-01  3.82429540E-01 -4.92408801E-01
  4.80515948E-02 -1.75367210E-02 -3.08370972E-02  1.34090252E-02  5.32093255E-02
 -5.15558637E-01 -2.62879999E-01 -3.67492090E-01 -4.51289846E-03  8.53436479E-01
  3.56795185E+00  8.92307929E-01  4.90111921E-01 -4.01666353E-01 -1.05836640E-01
  6.19124765E-01 -3.77229779E-01 -2.67734228E-02 -1.14566847E-01  1.19833285E+00
 -1.31768502E-02  2.24572793E-02 -1.14350984E-02  4.33029710E+00 -6.20936269E-01
 -4.02295236E-01 -1.35663012E+00 -3.67446099E-01  2.48919313E-02  4.53324792E-01
 -6.52617456E-02  1.37885045E-02  5.38126413E-02 -4.76289571E-01 -2.61021517E-01
  4.02821940E-01 -7.26701478E-03  1.57083820E+00 -3.87547718E+00  8.55098082E-01
  5.25734554E-01 -4.40661204E-01  1.54583186E-01  6.20679006E-01  4.79991081E-01
 -3.90473627E-04 -5.10901058E-03  2.29770883E-01 -5.09545896E-02  1.22928221E-01
  2.39123818E-03  1.45146854E+00  8.20760364E-01 -9.29655490E-01  3.77206195E-01
 -4.69836612E-01 -7.83257599E-02 -4.77421878E-02 -6.67628756E-02  1.63377654E-02
  6.72517595E-02 -3.68169181E-01 -1.32642032E-01 -2.43049954E-02  6.80266208E-02
  9.26398689E-02  4.23285011E-02 -6.07488131E-01  2.24817225E-01 -1.95986810E-01
 -3.50306566E-03 -7.46365370E-02  3.28456710E-02  9.10011129E-03  3.78322697E-02
 -2.18959190E-01  1.23759717E-01 -7.56425938E-02 -1.20194213E-01  3.48613208E+00
  9.68921930E-01  9.91316019E-01 -3.18128509E-01 -5.98155625E-02  7.71934684E-02
 -7.27823576E-01  6.97457335E-02 -2.50220112E-01 -1.97656989E+00  6.27566702E-02
 -4.80389910E-01  7.20199645E-02 -1.92664091E-01 -3.85085684E+00  3.42623898E-01
  8.25619532E-01  1.09885084E-01  2.62135461E-03  1.11913946E-02 -1.08404620E-01
 -8.52891990E-02  9.38222538E-02 -1.13101286E-02  1.09641140E-01 -2.69570112E-01
  8.13870518E-02 -2.81874811E-01  5.31537780E-02  6.94674654E-02  3.80786345E-02
 -1.43359042E-01  3.19037264E-03  1.35259813E-02 -1.32858575E-01 -9.89310738E-02
 -1.20078536E-01 -6.95352102E-03  1.13019178E-01  2.99214214E-01  7.43710044E-02
 -3.07990464E-01  4.68260666E-02 -6.62495285E-02  4.74189300E-02  1.59416836E-01
  3.17228489E-02  5.67151912E-01  5.91655066E-01 -1.63987543E-01 -9.34658260E-04
  6.11423982E-02  1.58098794E+00 -1.38315596E+00 -8.24319696E-01 -6.61274762E-02
  1.18344398E-01  1.37525602E+00 -1.37203727E+00  8.79770856E-01 -7.92174635E-02
  7.47911222E-02  3.43073122E-01  5.35054662E-01  1.59781947E-01  3.78633984E-02
  2.56417519E-03  1.09371297E-02 -1.37555079E-01 -2.89696766E-02  8.28283029E-02
  4.34364946E-04  1.92933072E-01  3.96964426E+00 -3.49801810E-02  5.46946607E-02
  1.81441974E-02  2.91044074E-01  7.39973496E-03 -2.35918182E-01  2.11365012E-03
  1.33661510E-02 -3.21569217E-01  1.40908279E-01  3.27960739E-02  4.33609118E-02
 -4.29346273E+00  2.76935619E+00  4.59737039E-01 -6.84238493E-03 -4.49841578E-02
 -1.42187634E-01  1.46312767E-01 -4.58128767E-01 -3.34019146E-03 -8.89668009E-03
 -1.29603997E-01  1.20696324E-02  2.05547533E-01  1.29563592E-02 -3.02388128E+00
 -1.58541392E+00  7.66908292E-02 -2.18519591E-01  2.25010465E-01  2.34936753E-01
 -5.60396835E-02  5.39282729E-01  2.88682413E-03  1.23715855E-02 -1.30026979E-01
  7.65990105E-04  2.09274675E-01  1.20959184E-03 -4.59278939E-01 -5.24760007E+00
  4.34868103E-02  1.43821035E-01  3.84155645E-02  2.26579256E-01 -4.86448678E-02
 -5.90010688E-01  4.68355062E-04 -2.36684342E-03  2.32794723E-01  4.34441040E-02
  1.23743976E-01 -1.16732436E-02  2.76342851E+00 -7.97032620E-01 -2.68631352E-01
  1.11214610E-01 -1.30685537E-01  2.07525024E-01 -7.46552431E-02  4.42943899E-01
 -2.12450137E-03 -1.27684166E-02  2.82074572E-01 -1.33385008E-01  6.08062418E-03
 -4.46856442E-02  4.08888456E+00  2.65949619E+00 -2.67535903E-01 -7.48691966E-02
  1.49986429E-01 -1.26059810E-01 -1.40492706E-01 -4.57202400E-01 -1.79028166E-03
 -7.37328620E-03  4.04155574E-02  1.39635311E-02 -2.32384552E-01 -7.27951610E-03
 -9.11964284E-03  4.43090169E-01  6.61783004E-02 -2.48533086E-02  2.08055335E-02
 -3.16212870E-02  7.34937795E-03  3.16823525E-01 -9.89137563E-04 -4.10119818E-03
  2.34401211E-02 -1.40463991E-02 -7.05600343E-01  1.29705323E-02 -3.63765378E-01
  8.94950883E+00 -1.01807763E-01  3.38671262E-02  8.46860878E-03  7.03802840E-01
  7.98119523E-02  6.45126964E-01 -2.37061030E-01  8.96051423E+00 -1.31626176E+00
  1.64917404E+00 -1.82406232E-01  2.82641742E-01 -8.34200645E+00  1.27099432E+00
  1.51278896E+00  1.64711100E-01 -3.06460001E-03 -1.26363802E-02  1.31970050E-01
  7.61897711E-02 -1.38562680E-01 -1.78723376E-02 -3.54825394E-02  1.81537095E-01
  2.17618311E-02  1.52530522E-01  2.48953382E-02  3.56715258E-03 -4.94947885E-02
  8.67579408E-02  2.45334569E-03  1.00279069E-02 -1.06285123E-01 -5.64768739E-02
 -1.15255184E-01  1.98250325E-02  1.05246294E-02  1.19190373E-01 -3.88040588E-02
 -8.82718671E-02 -3.51671876E-02  1.86339642E-02  4.06403897E-02  5.43169478E-02
 -2.04969833E-01  1.01228783E+00  1.62903289E-01  1.91039411E-02 -1.71301916E-01
 -2.84715234E-01  8.45951489E-01  4.26063133E-02  3.31101557E-01  6.26613314E-02
  2.64285460E-01 -1.15023859E+00  2.48323819E-01  1.49344539E-01 -4.81402022E-02
  1.95276014E-01 -1.11520112E+00 -2.84921686E-01 -1.49226813E-02  1.66804518E-01
 -1.78064876E-02 -7.20311204E-02  7.49396166E-01 -4.00557020E-02  5.04807536E-05
 -8.80196936E-03  4.31873366E-01  2.04776617E-02 -1.86811233E-01 -4.23476730E-01
  5.70259770E-03  1.20521568E-06  2.42842852E-01 -5.44249359E-04  6.42533299E-03
  2.75103736E-02 -3.78925361E-01 -1.69808746E-01 -2.06833758E-01  9.80155820E-04
  2.57370924E+00 -1.45146641E-01  1.81829046E-01  6.77542098E-01  7.72204983E-02
  2.52784153E-02 -1.75779968E-01 -1.12560136E+00 -1.06785722E-02 -5.03373163E-02
  6.49100024E-01 -9.27682280E-02  1.73936470E-01 -3.72670046E-03  3.06820777E+00
 -1.09434773E-01 -5.84687833E-02 -8.09865560E-01  1.01455093E-01  5.17776783E-02
 -2.21211664E-01 -1.18325044E+00  2.03924700E-02  7.65452427E-02 -6.84682398E-01
  2.80283760E-01  5.42088691E-04  1.49732649E-02  7.28500214E-01 -1.91325693E-02
 -1.30608854E-01  4.92059392E-01  7.53313371E-02  9.43726425E-04  5.19053012E-01
  4.37258563E-04 -1.06411003E-02 -5.01858905E-02  6.47386935E-01 -9.12465600E-02
 -1.73362895E-01 -3.80173792E-03  3.08794800E+00  9.42063082E-02 -6.35116843E-02
 -8.08411435E-01  1.03033433E-01 -5.06833099E-02 -2.19795906E-01  1.18410795E+00
  6.43942885E-03  2.75605408E-02 -3.79642879E-01 -1.69974425E-01  2.06888445E-01
  1.30475299E-03  2.60590548E+00  1.70449170E-01  1.83125923E-01  6.74597502E-01
  7.99145709E-02 -2.58075690E-02 -1.74683856E-01  1.12030676E+00  5.16725680E-03
  2.11650806E-02 -1.13356539E-01 -4.74512553E-02 -1.44076020E-03 -1.64682598E-02
  1.88465891E-01 -1.38992578E-03  1.50768408E-01  5.00160485E-01  6.46184797E-02
  6.39834659E-04 -1.43311716E-01  1.10225549E-03  1.14778433E-03  3.77539199E-03
 -1.72851404E-03  4.95798023E-02 -6.00592990E-04  2.26904514E-03  9.61262351E-01
  5.32263607E-03  6.86809993E-02 -3.62857206E-01  1.14382183E-01 -3.05320905E-04
  1.13818785E-02 -6.34146858E-04 -3.33997285E-03 -9.03045628E-01  5.75841907E-03
 -1.40696923E-01  2.66023683E-03 -3.83915402E-03 -9.06453958E-01  6.87988087E-03
  1.39941987E-01  3.88749361E-03 -6.33463690E-03 -2.64714075E-02  2.45573814E-01
  3.70109420E-02  1.08908384E-02  6.20234001E-03 -7.11787006E-02  8.99170780E-02
 -2.45267309E-02 -1.49796899E-01 -2.56347803E-02 -1.11815694E-02  1.04533150E-01
  2.83345955E-02 -6.41388851E-03 -2.67819397E-02  2.48125864E-01  3.65322292E-02
 -1.18983827E-02  6.20906033E-03 -6.94979294E-02 -9.01722209E-02 -2.45849541E-02
 -1.50536182E-01 -2.61927987E-02  1.00172344E-02  1.04614220E-01 -3.02762713E-02
 -6.06652830E-01  3.45661564E+00 -7.25807104E-01  8.75826740E-01  1.69223416E-02
  9.04426205E-02 -2.93281979E+00 -6.28364614E-01 -3.10063113E-01  9.60249050E-03
  9.04691626E-02 -2.93050872E+00 -6.29170613E-01  3.11717648E-01  9.75713643E-03
 -6.04983002E-01  3.44011452E+00 -7.29188698E-01 -8.75254169E-01  1.61087506E-02
  7.07729262E-03  2.99743820E-02 -3.72818754E-01 -8.94309334E-02 -1.24405512E-03
 -3.11417913E-03  4.14543413E-01 -1.53001990E-02  3.31245287E-01  1.94410516E-01
 -1.19238637E+00  1.40914157E-03  6.02787421E-02 -1.18338344E-03 -1.22202634E-03
 -4.57917917E-03  1.23952771E-02 -3.56011920E-03  4.96487133E-02 -3.32558367E-02
 -7.47650023E-02 -8.67543834E-02 -2.69950783E+00 -1.28531185E-01 -1.52229174E+00
  5.92934825E-01 -5.43268251E-02 -1.27153576E-01 -4.22764949E-03 -1.78317886E-02
  2.01963946E-01  7.63512171E-02  1.12865716E-01  1.01079944E-03 -2.16877578E-01
 -8.01572559E-01  3.09798414E+00 -1.61771109E-01 -1.79300215E+00 -6.72349579E-02
 -2.23300291E-01  1.30847497E-02  7.32796276E-03  2.96982833E-02 -2.92584001E-01
  6.05298595E-02 -2.53453743E-05 -1.99761375E-02 -9.93867150E-01  4.18922246E-02
 -1.44779240E+00  4.51541780E-01 -1.50918739E-01  2.99579301E-03 -7.21089346E-02
  1.42694719E-03 -4.09776716E-03 -1.72900816E-02  1.94944443E-01  7.98336203E-02
 -1.11963311E-01  3.93597969E-04 -3.01511210E-01  8.39602057E-01  3.09545771E+00
 -1.59407989E-01 -1.79812857E+00  6.56432366E-02 -2.28296672E-01 -1.45600721E-02
 -1.11974588E-03 -4.16318419E-03  6.13143442E-03 -2.80053737E-03 -4.94907776E-02
 -3.33996925E-02 -1.26715241E-01  7.13350678E-02 -2.70481584E+00 -1.36809219E-01
 -1.52347366E+00 -5.88042801E-01 -6.03075524E-02  1.20139330E-01 -5.56276840E-03
 -2.29006055E-02  1.28175249E-01  2.07042408E-02 -2.46200526E-03  1.99490540E-01
 -2.01101617E-02 -3.27860640E-03 -2.27986748E+00 -7.53536335E-02 -6.04866025E-01
 -2.45387552E-04 -4.43654841E-03  2.30945458E-03 -3.25084987E-03 -1.36558496E-02
  8.17182687E-02 -6.27335334E-03 -6.98686227E-04 -2.47643231E-01 -8.52723125E-01
  2.03353589E-03  7.66156320E-01 -3.01911779E-02 -1.08267504E+00  1.18914126E-04
 -2.52416899E-02  1.27330921E-03  6.37225649E-02  6.12943913E-01  4.41953155E-02
  2.65582537E-01  3.66947561E-01  6.19550764E-02  6.10550136E-01  4.53991693E-02
 -2.69521761E-01  3.67378889E-01  4.85580827E-05 -1.45659522E-04  7.77431591E-03
  2.03475225E-02 -2.67984801E-02 -7.96297422E-03 -4.61684164E-02  6.37920897E-02
  2.68068435E-01  8.57139959E-02  1.13397638E-01  2.80731665E-01  3.72879299E-03
  2.32909474E-02 -1.89682303E-04 -1.08919590E-03  1.58034063E-02  1.99551981E-02
  2.59477524E-02 -7.87634883E-03 -4.38644022E-02 -6.84165070E-02  2.67799330E-01
  8.53250260E-02  1.13528708E-01 -2.79995138E-01  3.13154444E-03 -2.92043226E-02
 -6.39871828E-02  2.61599325E-02 -2.15864454E-01  1.50664539E-01  2.84893695E-01
 -2.21907085E-02 -4.80622586E-01  4.09570080E-01  2.37212720E-01  1.73218185E-02
 -2.28388767E-02 -4.77659846E-01  4.24882192E-01 -2.43320698E-01  2.06481888E-02
 -6.05777095E-02 -1.07185104E-02 -2.18112493E-01 -1.45119465E-01  2.82183125E-01
 -1.34624725E-05 -5.69170528E-05  5.56831480E-04 -1.23340096E-03  5.46997654E-02
  1.13352402E-05  2.92537631E-03  6.10979249E-01  3.13873718E-03  1.51042477E-04
 -5.07821543E-03  9.34286900E-02  1.65522893E-03  7.71745566E-02  4.88329119E-03
  1.87324403E-02 -2.29340397E-01  4.89223434E-02  5.53267988E-02  1.16802043E-02
 -2.57611950E+00 -3.65845512E-01  3.46212943E-02 -6.31259322E-01 -8.41983747E-02
 -3.95488757E-02 -8.13255170E-02  9.88790358E-01 -1.90947814E-03 -3.70133170E-03
 -8.73971811E-02  2.92067381E-01  8.67317469E-03  4.92996146E-03 -3.97461068E+00
 -9.57221614E-01  1.40443588E-01  4.44351176E-01  4.19163842E-03  7.96624032E-02
  5.16187063E-01  6.16995405E-01  9.00470503E-05  3.53796813E-04 -3.20098481E-03
  2.68798490E-04 -2.98856108E-02 -2.73785007E-04  2.92471248E-03  2.84510123E-02
 -9.01649430E-03  4.03360180E-03 -1.35679910E-03  7.80449393E-02 -4.59862132E-04
  2.19795569E-02  1.80346814E-03  3.22952386E-03  9.33140352E-02 -2.91271958E-01
  6.68007672E-03 -5.14291624E-03  3.97645084E+00 -9.48272386E-01 -1.14741312E-01
 -4.49189456E-01 -1.65747091E-02  7.89544554E-02 -5.21421381E-01  6.21466561E-01
 -4.86834271E-03 -1.86813733E-02  2.28315650E-01 -4.97305155E-02  5.55800932E-02
 -1.16692009E-02  2.58483933E+00 -3.67374000E-01 -5.90175085E-02  6.32115278E-01
  7.35643795E-02 -4.43530859E-02  8.09211259E-02  9.92390814E-01 -3.16821846E-05
 -1.32509891E-04  8.14490743E-04 -8.82382576E-04  3.54231913E-01  5.98719452E-04
 -1.01187809E-03  6.34877106E-01 -1.00135039E-02  7.01121821E-04 -2.33325026E-03
 -4.72231952E-03 -3.98799939E-04 -3.44045826E-01 -9.03527436E-06 -3.69371130E-05
  1.55813177E-04 -7.87620791E-05  8.67900174E-02 -1.13512148E-03 -2.00796498E-03
 -3.22605116E-01  4.94909335E-03 -1.72642613E-03 -4.67452229E-03  3.74266855E-02
  8.42544740E-04  6.39807181E-01 -1.34823480E-01  1.06098097E+00  3.11430479E-02
  3.59894864E-01 -1.66390375E-03  1.34964609E-01 -1.06003028E+00 -3.07534676E-02
  3.58014719E-01  5.24601311E-03 -1.90190492E-02 -7.55426490E-02  6.53327247E-01
 -8.37961150E-03  4.03958911E-02 -3.26654303E-03  1.39639630E-01  4.49511526E-01
  7.45583553E-03 -4.11538190E-02  4.46717896E-03  6.66118037E-03 -7.73464330E-02
  4.73080092E-01  1.90418667E-02  7.56230751E-02 -6.53925284E-01  8.12243248E-03
  4.05706138E-02  3.06407809E-03 -1.40223678E-01  4.48983656E-01 -5.36052771E-03
  4.11964920E-02 -3.88169176E-03  4.49129751E-03  7.83327613E-02  4.73403250E-01
  4.76742577E-01 -3.77353030E+00 -1.41587568E-01 -6.06907059E-01 -4.87509348E-02
 -4.59810085E-01  2.91325869E+00  4.03679419E-01  5.50183568E-01  3.18768409E-02
  4.59497258E-01 -2.92741639E+00 -4.00977332E-01  5.47981082E-01 -3.15762231E-02
 -4.79238222E-01  3.78533666E+00  1.35445505E-01 -6.11910349E-01  5.06326037E-02
  6.45422792E-05  4.93412988E-04 -1.22624539E-02  7.44535725E-03 -3.39585526E-01
  3.12628587E-04  2.51277607E-02 -1.72517833E+01 -2.03305171E-04 -7.52112557E-03
  4.57444343E-03  5.70593761E-01 -1.20918489E-02 -2.97461154E-01 -1.47909233E-02
 -6.17099732E-02  9.41185470E-01 -1.83094095E-01  7.67899174E-02  6.12441493E-02
  1.85789593E+01 -1.09363171E+01  2.27080423E-01  6.06475025E-01 -4.70309986E-01
 -1.62124133E-01  1.05746032E+00  8.66279096E-02 -1.36310570E-02 -5.54431866E-02
  6.89143372E-01 -4.89911013E-02  1.17972060E-01  4.91117190E-02  2.04716732E+01
  1.16650273E+01  9.06443648E-01  2.51546685E-01  6.94710946E-02  4.11566419E-01
  1.10854589E+00 -3.00080065E-01 -1.61378594E-04 -6.03943927E-04  3.49900770E-03
  2.20783591E-03 -2.56574091E-01 -7.42625800E-04 -1.07587473E-01  2.67574937E+01
  9.23614646E-03 -6.38980472E-03 -4.32101982E-03  6.97890285E-01  2.48772067E-03
 -2.38062840E-02  1.39577635E-02  5.69218926E-02 -7.08506923E-01  4.80674446E-02
  1.21477526E-01 -4.92240174E-02 -2.04077147E+01  1.17083842E+01 -9.20280096E-01
 -2.46773213E-01 -6.30936907E-02  4.16307704E-01 -1.08316689E+00 -2.94209807E-01
  1.50820931E-02  6.32200630E-02 -9.65151822E-01  1.93088260E-01  8.10903384E-02
 -6.10113445E-02 -1.86239680E+01 -1.09207128E+01 -2.18120177E-01 -6.02736992E-01
  4.77010295E-01 -1.54082704E-01 -1.04412013E+00  1.04822629E-01  3.71368882E-04
  1.54444387E-03 -9.37080138E-03  7.80151561E-03  1.29820454E-01 -2.60123158E-04
  1.14840959E-02 -6.36217421E-02  4.05100736E-03  6.62995821E-03  4.23173597E-04
 -2.16402222E-02  8.01022872E-03 -2.47617717E-01 -1.07601945E-04 -4.66527160E-04
  3.71142832E-03  1.93898177E-03  4.92468016E-02 -4.30911737E-04 -4.38925705E-02
 -1.36012278E+00 -1.06115389E-03  1.72480179E-02 -1.39504734E-03 -1.38384188E-02
  4.42108514E-03  1.43273596E+00  4.93790415E-02  1.78530504E+00 -2.62701943E-01
 -1.61789446E-01 -8.81376483E-02 -4.28946573E-02 -1.70124686E+00  2.59255826E-01
 -1.74959907E-01  8.24216392E-02  5.03856194E-03  2.07402239E-02 -2.05263721E-01
 -3.70693317E-02  7.87593247E-02 -1.88956747E-02 -6.78819097E-02 -1.51244946E-01
  4.21354302E-02 -1.13300909E-01  2.29033703E-02  4.02309649E-02  1.36868165E-02
 -1.24635261E-01 -5.78190091E-03 -2.36503692E-02  2.30152313E-01  4.37924859E-02
  7.99008885E-02  1.82904953E-02  6.53854063E-02 -1.64297917E-01 -4.18988058E-02
  1.08309164E-01 -2.18677699E-02  4.15218947E-02 -2.98518872E-02 -1.32986820E-01
 -4.95409029E-02  1.63213710E+00 -8.68395927E-01  8.27209037E-01 -2.53814616E-01
 -5.80417742E-02  1.05474179E+00 -2.74091938E+00 -1.23660390E+00  9.93009357E-02
  6.74223635E-02 -1.10350268E+00  2.73236192E+00 -1.21896661E+00 -1.01135785E-01
  5.10600694E-02 -1.62846947E+00  8.74480482E-01  8.35020465E-01  2.49833347E-01
 -3.95029520E-04 -2.57464413E-03  5.77441609E-02 -2.96451093E-02 -4.11130341E-02
 -4.40347377E-03 -1.05447493E-01  2.87818239E+01 -5.94177883E-02  2.83827714E-02
 -8.27791361E-03 -7.14842308E-01  5.13510448E-02  1.07294624E-01 -1.65423618E-02
 -6.73273483E-02  7.78040197E-01  1.17369012E-01  2.01950680E-01 -7.46514763E-02
 -2.22085782E+01  1.37265697E+01 -2.09579373E-01  1.68521265E-01  6.23558547E-01
  2.25168997E-01  8.06747298E-01 -4.62938199E-01 -1.15375710E-02 -4.99993785E-02
  8.42495915E-01  2.12528731E-01  1.50000274E-01 -6.05281303E-02 -2.14249183E+01
 -1.17179563E+01 -1.18407023E+00  5.16576447E-01 -3.54478373E-02 -5.30744767E-01
  3.52061271E-01  6.61672983E-02  5.65844366E-04  2.10636627E-03 -1.15323080E-02
 -9.34288490E-03 -1.51746048E-01  6.10205581E-03  4.72572354E-01 -2.18863682E+01
  2.00640834E-03  1.79371790E-02  2.84704022E-02 -8.88040301E-01 -7.15373555E-03
  3.15149223E-01  1.03653459E-02  4.46823599E-02 -7.73050229E-01 -2.09821123E-01
  1.38956845E-01  6.27885161E-02  2.11926338E+01 -1.18941201E+01  1.18959125E+00
 -5.29717870E-01  3.17813311E-02 -5.36838705E-01 -4.48500279E-01  4.30753130E-02
  1.53782592E-02  6.12694029E-02 -6.81034226E-01 -1.55857427E-01  1.86679838E-01
  7.22180105E-02  2.23679932E+01  1.36753970E+01  2.53460914E-01 -1.82024377E-01
 -6.29197569E-01  1.83790736E-01 -8.52839773E-01 -5.36051663E-01 -1.42377152E-03
 -5.91851733E-03  3.59782665E-02 -3.05193781E-02  1.75581230E-01 -2.58450064E-03
 -5.22913792E-02 -2.57695246E+00  2.15904211E-02 -2.39260125E-02  1.28649820E-02
  2.55574130E-02 -2.98919444E-02 -5.11730384E-01  4.84638259E-04  2.09679915E-03
 -1.63838928E-02 -7.63879069E-03  4.16829217E-02  4.54710070E-03  1.92006799E-01
  5.20930334E-01 -9.50334323E-03 -6.88194209E-02  2.51896880E-02  6.89243063E-02
 -1.48990661E-02 -3.96949810E-01 -3.56206857E-01 -2.32443804E-01 -5.42369763E-02
  2.42435145E-01  2.21403178E-02  3.26658934E-01 -1.24083272E-01  6.47331005E-02
  3.05932782E-01 -1.04766772E-02  3.67339685E-03  1.59248649E-02 -2.06009065E-01
 -9.55347405E-02  1.39370796E-01  2.30426338E-02  2.86242728E-01 -4.18526061E-01
 -5.32178921E-02  1.60360420E-01 -3.09332846E-02 -5.16683202E-02  8.29010127E-02
  2.69592700E-01 -7.41489216E-04 -4.41729268E-03  1.06589396E-01  6.81434361E-02
  1.33669744E-01 -1.99555478E-02 -2.67404047E-01 -3.58657935E-01  4.48930623E-02
 -1.44816840E-01  1.80169377E-02 -5.24132117E-02 -1.64094346E-02  3.02162823E-01
 -2.87492776E-01  2.57782964E+00  2.53289491E+00 -9.27326629E-01  3.26325174E-01
  9.40360970E-02  1.23587353E+00  1.69667315E+00  1.04178678E+00 -1.52326950E-01
 -1.31628882E-01 -1.03376936E+00 -1.67549566E+00  9.75339732E-01  1.58492305E-01
  2.80489370E-01 -2.58291531E+00 -2.53749883E+00 -9.52925711E-01 -3.05675793E-01
 -5.17122874E-03 -3.45261726E-02  7.82466085E-01 -4.43048827E-01 -3.14144562E-03
 -6.20681447E-02 -1.33487412E+00 -2.29611643E+00 -9.18917408E-01  3.68792054E-01
 -1.32477450E-01  5.86294765E-02  7.75997476E-01 -1.18581063E-02 -6.92412797E-03
 -3.75054188E-02  6.16793466E-01 -2.82406739E-01  8.56692936E-02 -1.09854520E-02
  2.73145830E+00 -8.62589581E-01  2.89943854E-01 -1.23885653E-01 -9.95998452E-02
  2.71336308E-01 -3.64209503E-01  6.15882007E-01 -8.04530511E-03 -3.65302691E-02
  4.68972962E-01 -6.06449256E-04  6.18500583E-02  1.82724145E-02  1.31568203E-01
  2.30527435E+00  2.28978559E-01 -8.43152625E-02 -3.42737332E-02  9.59498707E-02
 -6.76689682E-01  2.04020438E-01  6.83986843E-03  2.46313610E-02 -9.26603043E-02
 -1.45330239E-01  6.09638889E-03  8.59238533E-02  7.04890506E+00  1.96426575E+00
 -1.53196714E-02  2.29340673E-01  3.91332628E-01  7.65534019E-02 -7.35342746E-02
 -2.30446966E-02 -9.21289005E-03 -4.16593609E-02  5.63021223E-01  2.96863123E-02
 -7.87051217E-02  7.82926000E-03 -3.52454651E+00 -2.75532737E-01  7.99315787E-03
 -1.68186691E-02 -2.84440716E-02  6.95153804E-03 -6.55274966E-01 -2.28837620E-01
 -8.65572088E-03 -4.44082757E-02  6.87392983E-01 -2.56623958E-01 -1.10883359E-01
 -2.33903729E-02 -1.01156521E+00 -1.42053404E+00  2.71097810E-01 -1.20263385E-01
  1.78564680E-02 -3.17323812E-01 -2.86711217E-01 -5.43071993E-01 -1.79681385E-02
 -7.48147690E-02  4.60135650E-01 -4.31876598E-01 -1.01585105E-02 -3.57148462E-02
 -7.13736833E-01  1.76068756E-01  2.58743846E-01 -2.79682552E-01  1.88418815E-01
 -2.11053217E-03 -4.14973519E-01  3.08643450E-02  6.80534045E-03  2.93651561E-02
 -2.29043077E-01 -1.13845102E-01 -1.60586583E-03  5.83769047E-02  2.87558076E+00
 -5.79959255E-02 -7.71237582E-02 -9.91268788E-01  3.56558448E-01 -6.15561007E-03
 -2.31940151E-01  5.36312265E-02 -1.72797510E-01 -2.65431321E+00  9.63419212E-02
 -5.09489676E-01  7.87289575E-02 -2.24897588E-01 -2.71864630E+00  9.45376962E-02
  4.64719291E-01  8.63410320E-02  1.94180577E-02  7.60670280E-02 -6.53269659E-01
 -1.81149444E-01  3.62648433E-02  1.56957280E-02  1.18309942E-01 -3.89680957E-01
 -3.36632670E-02  6.83167110E-02 -8.24354584E-02  1.75926120E-02  4.65878248E-01
 -2.47939413E-01  1.95056788E-02  7.65798177E-02 -6.66127629E-01 -1.91149746E-01
 -5.26444811E-02  1.85567589E-02  1.59010495E-01  4.37973141E-01 -4.07660261E-02
  9.32711605E-02 -8.53747768E-02 -8.58847998E-03  4.71804613E-01  2.04059804E-01
 -5.01352457E-02 -2.85875156E-01 -1.85202920E-01  2.63274171E-01  1.06481611E-01
 -3.05769292E-01  1.59047218E+00 -2.87730209E-02  4.13215879E-01  5.05439892E-02
 -2.90571357E-01  1.73613213E+00  2.96445501E-01 -5.98229822E-01  1.59641372E-02
 -8.63786296E-02  1.59316101E-02  1.97902300E-01 -1.03812618E-01  1.67442429E-01
  1.04944018E-02  4.47273852E-02 -6.80720655E-01 -4.32993511E-01  5.13749078E-04
 -1.29254731E-02  3.18750861E+00  1.62092413E-01 -1.07861586E-01 -4.49713762E-01
  1.62797869E-02  2.59502386E-05  9.18237793E-01 -3.63074468E-04  7.31114244E-03
  3.02384748E-02 -5.48071382E-01 -1.15540834E-02 -1.01873764E-01  2.31286461E-03
 -3.24239737E+00 -5.26560717E-01  2.09303280E-02 -3.99689444E-01 -1.46644512E-02
  3.18699571E-02 -9.30027866E-02  6.23883517E-01 -7.48293297E-03 -3.26736534E-02
  4.74780487E-01 -3.07672484E-02 -6.05364112E-02 -7.99674207E-03 -1.49598101E+00
  1.35452546E+00  6.66578130E-02  5.19952214E-01  3.75171896E-02 -3.13191377E-02
  1.46376887E-01  6.54618774E-01 -1.65977407E-02 -7.65450460E-02  1.16535056E+00
 -1.30765398E-01  1.39796020E-04 -2.21710666E-02  4.11107701E+00 -1.40463788E-01
 -2.48574647E-01 -1.52549357E-01 -1.32061126E-01 -2.53335952E-03  4.85501594E-01
  1.89168976E-03 -7.37276486E-03 -3.22011641E-02  4.66828690E-01 -3.22566365E-02
  6.18868916E-02 -7.76717605E-03 -1.23816676E+00 -1.49575791E+00  8.62732526E-02
  5.14979375E-01  2.83852004E-02  1.89014938E-02  1.45837320E-01 -6.50533989E-01
  7.43584697E-03  3.07431686E-02 -5.53789895E-01 -1.37142732E-02  1.03747931E-01
  2.78332724E-03 -2.97158622E+00  6.91500754E-01  6.46539212E-03 -4.00326776E-01
 -2.66388240E-02 -1.99225459E-02 -9.71447602E-02 -6.30317489E-01  2.39589827E-02
  9.72939585E-02 -5.08788016E-01 -2.54537794E-02  3.53346769E-04 -5.64017372E-03
  3.05331683E-01 -1.17798600E-02  5.92732901E-02  8.37318899E-01  3.73913908E-02
  5.94184276E-04  1.53839270E-01 -1.57876881E-03 -3.54495905E-03 -1.72590797E-02
  1.42334522E-01 -1.21985542E-01  9.00810789E-05 -5.39136235E-02  2.34489251E+00
  1.98244339E-03  4.66864099E-01 -2.53924905E-01 -3.28583453E-02  9.59819935E-05
 -4.01674860E-01 -3.83183304E-03  2.77067464E-01 -2.61195692E+00  4.31861100E-01
 -4.95991734E-01  9.35682458E-02  2.80680441E-01 -2.60407127E+00  4.31523849E-01
  4.98072143E-01  9.44278078E-02 -1.61616589E-02 -6.54566466E-02  5.90247860E-01
  9.28609875E-02  4.15502047E-02  1.40193926E-03  5.72150081E-02  1.71193635E-01
 -4.05757938E-03 -3.30323932E-01 -1.34806843E-02  7.27708225E-04 -9.16889330E-02
  1.34620473E-01 -1.61845216E-02 -6.55544492E-02  5.91554307E-01  9.38240089E-02
 -4.03388700E-02  2.09794563E-03  5.43486511E-02 -1.75068325E-01 -5.21388575E-03
 -3.31879899E-01 -1.42550774E-02 -7.73779367E-04 -9.22667434E-02 -1.32166871E-01
 -2.98840388E-01 -1.53620585E+00  4.50761674E-01 -4.05622035E-02  1.58975013E-02
 -5.47560548E-01  3.69105430E+00 -2.17236935E-01  5.63093271E-01 -4.02032005E-02
 -5.47742875E-01  3.67523217E+00 -2.39779436E-01 -5.48789294E-01 -3.36017591E-02
 -2.96938989E-01 -1.55612491E+00  4.24531974E-01  2.94665811E-02  8.89882718E-03
 -1.13446582E-03 -7.76132887E-03  1.94966699E-01 -1.10128180E-01 -2.98166400E-04
  3.85121869E-01 -1.25799696E-01  2.39510209E-03  5.24330677E+00  1.77692467E-01
  5.45131346E-01 -7.75337758E-03  2.59739336E-01  1.98141350E-04 -2.73919731E-03
 -1.33343731E-02  1.99978290E-01 -8.22685563E-02  3.81730226E-02  1.18086239E-01
  2.79476177E-01 -1.78355850E-01 -1.45194347E+00 -3.45779612E-02  4.86471013E-01
 -1.74815705E+00 -4.70028427E-02 -2.93876929E-02 -7.67240748E-04 -3.28210598E-03
  2.27727246E-02 -2.15687720E-02  6.69465886E-03 -1.08119912E-01 -2.07828928E-01
  2.30855771E-01  1.49288263E-01 -5.75866046E-02  5.67872488E-01  4.25271655E-01
 -2.13178646E-01 -1.07092740E-01  3.83250386E-03  1.62653242E-02 -2.35095819E-01
 -2.38713206E-02 -1.46812678E-04 -3.56652840E-01  1.04244754E+00  6.15069120E-03
 -2.23153951E+00  5.94529210E-02 -1.63803250E+00 -4.25005909E-04 -1.62136044E-01
 -2.01760290E-04 -8.88495847E-04 -3.77592515E-03  2.88132330E-02 -2.34193797E-02
 -6.42116567E-03 -1.07934637E-01 -2.33308500E-01 -2.27531624E-01  1.11700393E-01
 -5.46306785E-02  5.98349231E-01 -4.03855502E-01 -2.11532903E-01  9.71780689E-02
 -2.62132761E-03 -1.28824748E-02  1.95558276E-01 -8.13060052E-02 -3.75017903E-02
  1.19246667E-01  2.39843095E-01  1.65650483E-01 -1.40008494E+00 -3.58347227E-02
  5.11596708E-01  1.72316435E+00 -5.49621236E-02  2.37787959E-02 -6.60244233E-03
 -2.73633807E-02  1.66098744E-01 -9.18895544E-02  1.80992730E-03  1.91209122E-01
 -1.75559957E-01 -2.08322727E-03 -1.29001982E+00 -7.75602823E-02 -1.08086793E+00
 -2.49867266E-04 -1.07616995E-01 -3.69073542E-03  5.56657857E-04  1.37385959E-03
  8.47664130E-03  3.13256709E-02  3.43436657E-04 -1.34218680E-01 -4.88072904E-03
  4.12274938E-03  1.58180956E+00 -4.58171081E-02 -1.13058212E+00 -1.22106752E-03
 -3.35584075E-02  3.23893321E-03  1.14306826E-01 -3.42500492E-01  1.84555255E-01
  1.18653137E-02  3.47463515E-01  1.12570256E-01 -3.51826256E-01  1.84915985E-01
 -1.18305116E-02  3.49167248E-01  4.24828141E-03  1.65769430E-02 -1.42581314E-01
 -4.03899851E-02  9.79647077E-03 -5.94403884E-02  2.99419308E-02 -9.68597068E-02
  7.67435710E-02  3.20141939E-02  4.15898082E-01 -1.28942169E-01  1.15885991E-01
 -5.87557847E-02  4.38720288E-03  1.71218575E-02 -1.47063160E-01 -4.01613166E-02
 -9.31463424E-03 -6.10634189E-02  2.83485096E-02  9.97922850E-02  8.04928222E-02
  3.16073871E-02  4.18440583E-01  1.27590147E-01  1.15665690E-01  6.43612848E-02
 -5.60646172E-02  1.64385938E-01 -2.95774612E-02  1.09383513E-01 -6.64553634E-01
 -7.82601051E-02  6.35096216E-02  1.56230381E-01  1.29337526E-01 -1.16876416E-01
 -8.27275506E-02  9.58710026E-02  1.58129247E-01 -1.36885871E-01 -1.33260886E-01
 -5.16431206E-02  1.33994502E-01 -2.48544698E-02 -1.02578345E-01 -6.49410783E-01
 -8.63152743E-05 -4.37368772E-04  7.78374277E-03 -1.08486401E-03 -9.49576496E-03
  3.21085058E-03 -1.58740793E-02 -5.61327216E+00  3.89591225E-02  3.28059048E-03
  4.55374903E-03  1.34821683E+00  3.67007457E-03 -5.19707008E-02  2.59083907E-04
  1.95160785E-04  4.80705659E-02 -1.77117953E-02 -8.09684693E-03  1.14537074E-01
  4.48407259E+00 -2.70858337E+00  3.54601296E+00  1.13459074E-02  1.32415303E+00
  1.54189941E+00 -1.01325883E-01  1.28213177E-01 -2.31561370E-03 -9.54495615E-03
  1.14215072E-01 -4.47005265E-02 -4.25103833E-03  3.50268926E-02  4.77299313E+00
  2.93633782E+00 -1.96900995E+00  5.89618841E-02  1.98857473E+00 -1.19227981E+00
  7.28707537E-02  1.39894006E-01  1.03304259E-04  4.44499018E-04 -5.82001905E-03
 -9.15707981E-04 -2.58650222E-02 -2.47638878E-03  3.18950205E-02  6.01020067E+00
 -1.81929633E-02  1.06687253E-03 -9.30953884E-03  4.67493769E-01 -3.20381246E-03
 -1.45422186E-02  2.28075024E-03  9.38579451E-03 -1.12616714E-01  4.44788879E-02
 -4.69251574E-03 -3.70068831E-02 -4.78248276E+00  2.92714954E+00  1.96470206E+00
 -6.21433220E-02 -1.97359804E+00 -1.20168842E+00 -8.28986277E-02  1.44919656E-01
 -3.71811350E-04 -7.62209782E-04 -3.83149099E-02  1.43973403E-02 -8.91681633E-03
 -1.12458668E-01 -4.46071429E+00 -2.71043216E+00 -3.55818626E+00 -6.80120558E-03
 -1.30841206E+00  1.57012733E+00  1.00748762E-01  1.27011694E-01 -1.88245118E-04
 -7.75687163E-04  4.58218630E-03 -2.63633883E-03 -5.03951867E-02  1.26628089E-03
 -5.03627647E-03  2.94606726E-01 -7.49410345E-03 -4.08677786E-03 -8.25301940E-03
 -6.44354216E-02 -3.09451820E-03  1.08473678E-01  5.55486431E-05  2.34311526E-04
 -1.60823658E-03  1.43804933E-04  1.21689722E-02 -3.80442611E-04  6.11136008E-03
 -8.79964030E-01  9.43669528E-03 -3.85842634E-03 -5.75515324E-03  1.12709990E-01
  1.03577763E-03 -4.36142291E-02 -4.76411332E-02 -3.52071630E-01 -1.49287864E-02
 -9.91497251E-02  4.02803661E-02  4.63420069E-02  3.37364784E-01  1.53594852E-02
 -9.61512232E-02 -3.58436727E-02  2.80910704E-03  1.10217763E-02 -8.94839644E-02
  4.28911793E-03 -1.10471624E-02 -1.20451173E-01 -6.11089744E-02 -2.76575727E-02
  2.93549982E-01 -4.42510173E-02  2.18472726E-01  1.08806748E-01 -2.65685716E-03
 -1.30489679E-01 -2.49052892E-03 -9.76202958E-03  7.83877437E-02 -7.08223848E-03
 -1.15267655E-02  1.19561657E-01  6.28964137E-02 -2.06958401E-02 -2.93191904E-01
  4.67171531E-02 -2.11915905E-01  1.11349723E-01  9.13594743E-03 -1.26304504E-01
  7.95840231E-02 -3.75868692E-01 -3.20197347E-01  1.44069844E-01  8.00281667E-01
 -7.54411364E-02  5.73060641E-01 -4.74895240E-01 -1.42424163E-01 -1.00245174E+00
  7.45712384E-02 -5.75761183E-01  4.77867989E-01 -1.45264144E-01  1.00151669E+00
 -7.97653650E-02  3.86525470E-01  3.20470405E-01  1.43025770E-01 -8.10506586E-01
 -1.16826731E-05 -7.57556889E-05  1.72880556E-03 -2.25136408E-04 -2.68296603E-02
  1.61994886E-03 -7.57811830E-03 -1.90897939E+00  1.72579002E-02 -1.01632241E-04
 -3.58394789E-04 -1.16070382E+00  1.78898051E-03  5.24161644E-02  1.11288010E-03
  7.19340809E-04  1.62961104E-01  7.17179547E-02 -7.21539641E-03 -9.02468627E-02
 -9.05953795E-01  3.88925124E-01 -1.01942874E+00 -7.38722706E-02  4.17108517E-01
 -3.01617152E-01 -5.15716967E-01  4.58609328E-01 -1.60789293E-02 -6.72469602E-02
  9.41956846E-01 -1.21616617E-01  1.13102589E-02 -8.32882700E-02  7.26632498E-01
  1.60368757E+00 -8.65164885E-01  5.72239422E-01 -3.92041059E-01 -1.94363336E-01
  3.11197202E-01  8.11797475E-01 -1.70333634E-05 -7.17799973E-05  8.77463203E-04
 -6.26589493E-04 -8.42914033E-02 -9.78611294E-04  1.83138201E-02  4.09040213E+00
 -5.57940969E-03 -1.12369458E-03 -3.72238615E-03 -1.06431802E+00 -1.25624547E-03
  1.42102226E-01  1.60699816E-02  6.71948488E-02 -9.40639369E-01  1.21238788E-01
  1.19173953E-02  8.22731590E-02 -7.37397328E-01  1.59422968E+00  8.56354635E-01
 -5.69972041E-01  4.00578118E-01 -1.98992035E-01 -3.13862016E-01  8.11594781E-01
 -1.16544752E-03 -9.79580799E-04 -1.58713895E-01 -7.26507061E-02 -7.38737889E-03
  9.13269351E-02  9.04870552E-01  3.85200085E-01  1.01953204E+00  7.28679870E-02
 -4.06731196E-01 -2.90393224E-01  5.15429000E-01  4.54212329E-01  1.23921673E-05
  5.40706170E-05 -2.75017317E-04 -5.13950007E-04 -3.72882223E-01  7.03995450E-04
 -3.21712811E-03 -1.65436203E-01 -4.10124823E-03 -1.09517097E-03 -3.89672817E-03
  2.15953606E-02 -9.73150318E-04  5.80689698E-01  2.38596915E-05  1.00374106E-04
 -6.93196896E-04  8.85456494E-05  1.04222483E-02 -7.38768892E-05  4.72281371E-03
 -1.45168309E+00  3.25975123E-03 -1.54211410E-03 -1.39117640E-03  2.66028330E-01
 -8.06695518E-04 -2.01495386E-02 -1.89017516E-01 -4.20691152E-01 -3.83849839E-02
 -7.27954961E-02  2.03770457E-01  1.88262308E-01  4.09032734E-01  3.98280514E-02
 -7.09275486E-02 -2.02719848E-01  1.96919354E-02  7.80211747E-02 -6.75711318E-01
  1.03829221E-02 -2.71692217E-02  5.03581149E-02 -1.79479907E-01 -4.72571749E-01
 -1.34005021E-01 -1.02855436E-01 -7.66395570E-02 -9.00065761E-02  5.81093236E-03
 -6.80556361E-01 -1.95686232E-02 -7.75217265E-02  6.71038190E-01 -1.14287133E-02
 -2.81387656E-02 -5.02871322E-02  1.82163451E-01 -4.67057505E-01  1.33832784E-01
  1.02391455E-01  7.96005083E-02 -8.89843537E-02 -3.20970403E-03 -6.78918122E-01
  3.23191824E-01 -1.47949816E+00  6.57254979E-01 -4.35370784E-01  6.88768610E-02
 -3.32261238E-01  3.35332527E+00 -2.51345050E-01  5.05916436E-01  6.90117149E-02
  3.31744792E-01 -3.34329195E+00  2.51851661E-01  5.04712152E-01 -6.79329977E-02
 -3.23255925E-01  1.47578500E+00 -6.50970476E-01 -4.33615798E-01 -7.33921317E-02
 -3.86072430E-03 -1.30021511E-02 -7.43930235E-02  1.11448825E-01  1.24917448E-03
  1.72000642E-01  2.45509938E-01 -8.51689796E-01  1.18351855E+00 -9.46828132E-01
 -7.59656995E-01 -6.07882165E-02  4.04758541E-02 -1.35800239E-02  1.45533830E-02
  5.84035223E-02 -6.71080893E-01  9.03524353E-02 -2.51474805E-01  1.89722480E-02
 -6.89251472E-02  1.56819686E+00 -3.16316751E-01  3.68570946E-01  2.86113645E-01
 -1.22984374E-01  3.92174069E-01  7.18506365E-01 -1.18448795E-02 -4.99444766E-02
  7.25278866E-01  2.02617715E-02  1.52503766E-01 -1.45865875E-02 -1.09439679E+00
 -2.18270502E+00  3.18108526E-01 -1.70300214E-01 -1.01621833E-01  5.33522678E-01
 -4.88038135E-01  1.52074902E-01  1.71470550E-02  7.82270998E-02 -9.18238156E-01
 -6.93394351E-01 -3.37238137E-04  7.48208607E-02  2.56165321E-01  8.53013469E-01
 -6.41781206E-01  9.07440156E-01  8.19271654E-01 -6.06551139E-02 -1.16254273E+00
 -8.31248050E-03 -1.23326850E-02 -5.19891526E-02  7.57731984E-01  2.36410973E-02
 -1.53134899E-01 -4.51379865E-03 -2.64894816E+00  3.08181470E+00  4.63255989E-01
 -1.53943982E-01 -9.75009424E-02 -5.72731984E-01 -4.78381147E-01 -1.60442119E-01
  1.48122501E-02  5.94085754E-02 -6.85636283E-01  9.55797669E-02  2.50881039E-01
  2.71550106E-02 -1.62146768E+00 -2.49956780E+00 -2.61404062E-01  3.59057823E-01
  2.07560328E-01  1.05324296E-01  3.81801020E-01 -7.26667389E-01  2.56297689E-02
  1.06213719E-01 -6.25115875E-01 -3.25671533E-02  6.09618104E-03  9.60115373E-02
 -1.55636981E-04  5.63792518E-02 -1.15180648E+00  3.26800893E-01 -6.22517078E-01
  1.68591736E-04  1.35170226E-01 -4.53622210E-03  2.38434278E-03  1.55038239E-02
 -2.32607255E-01 -1.34342074E-01 -2.35475778E-03  9.20479234E-02 -1.91355052E+00
 -4.88043227E-02 -7.42904720E-01 -6.26829985E-01  2.61941847E-01  2.76842488E-02
  1.22575941E+00 -1.92143176E-04 -3.99813989E-01  2.27598078E+00 -8.37348397E-01
  1.47013767E-01 -7.98426321E-02 -3.96440607E-01  2.26135392E+00 -8.14026994E-01
 -1.63889918E-01 -1.10452816E-01 -3.38526971E-03 -1.27733216E-02  9.20460718E-02
  2.98639292E-03  2.40857633E-02 -1.48035058E-03  1.13469128E-01  2.15431130E-02
  3.45432053E-02 -2.14067744E-01  1.74925078E-01  8.01247695E-03 -7.21178938E-02
  1.11875184E-01 -2.68207754E-03 -9.94854036E-03  6.53205985E-02  2.14008919E-03
 -2.59643208E-02 -5.18663320E-03  1.18476964E-01  8.01423089E-03  4.58301568E-02
 -2.08023592E-01  1.80631131E-01 -1.70605417E-02 -6.95011822E-02 -9.82159324E-02
  2.35132608E-01 -3.95786676E-01  2.95509649E-01 -5.82971188E-01  7.32124588E-02
  2.51745394E-01 -1.32014152E+00  3.18417463E-01  8.00981662E-02  2.36419826E-01
  2.47359120E-01 -1.27073387E+00  4.60649194E-01 -1.68400598E-01  2.45624652E-01
  2.39830677E-01 -4.17196552E-01  4.50556397E-01  6.72172426E-01  5.54826392E-02
 -3.45650966E-05 -2.66502787E-05 -7.57115466E-03  4.11358176E-03 -4.58531084E-02
  5.99665526E-03  1.12610281E-02  2.87803562E+01  4.86580626E-02 -2.66849962E-02
 -2.35029704E-02  2.03867604E+00  1.03847323E-03  4.60297147E-01  4.17558293E-03
  1.62336243E-02 -2.37934497E-01  9.22154351E-02  5.78630648E-03  1.32922135E-01
 -2.60710649E+01  1.57166652E+01  8.74604990E-01 -1.41541861E-01 -1.33151854E+00
  2.69494452E-01 -1.16506072E-01  1.07257334E-01 -8.03421294E-03 -3.39161555E-02
  5.50646172E-01  6.74977336E-02  1.76043482E-02  1.63877065E-01 -2.61821412E+01
 -1.51767038E+01  2.38661824E+00  2.69664717E-01  1.82575744E-02  6.65147848E-01
  1.30141317E-01  1.06644559E-01  4.69963524E-04  2.14604653E-03 -2.44943160E-02
 -2.06269465E-02  1.03062235E-02  1.94678334E-03 -1.06906044E-02 -2.87492575E+01
 -2.18726716E-02  2.85264479E-02  2.62659577E-02  1.92578674E+00 -3.64240556E-02
  2.86950410E-01  7.31136133E-03  3.08562796E-02 -5.05307392E-01 -6.54218249E-02
  8.18580064E-03 -1.64759231E-01  2.60562431E+01 -1.50228108E+01 -2.37880044E+00
 -2.78191390E-01 -1.68760246E-02  6.27458585E-01 -1.58826400E-01  9.91933526E-02
 -3.28248477E-03 -1.26194337E-02  1.95206181E-01 -8.61001559E-02  2.04103427E-02
 -1.30879266E-01  2.60238125E+01  1.55911031E+01 -8.85065888E-01  1.60204142E-01
  1.35321861E+00  2.78884353E-01  1.39772789E-01  6.53297896E-02  7.50621197E-04
  3.10788979E-03 -1.82283562E-02 -4.17889067E-04 -1.95550358E-01  3.45730102E-03
  2.64870774E-03 -1.90378663E+00 -3.42968844E-02  8.50611761E-03 -2.16047361E-02
  1.17250022E-03  4.79280257E-03  1.36108550E-01  6.13852396E-05  4.25783217E-04
 -6.75881782E-03 -3.86384416E-03  7.84247493E-02  3.01075857E-03 -6.45617580E-02
  1.69710717E+00 -2.38395595E-02 -1.85133347E-02  8.39373607E-03 -9.27176765E-01
  3.54764508E-02 -2.97097645E-02  3.96338049E-02 -1.53644744E-01  3.53510589E-01
  2.97028056E-01 -5.12507864E-01 -6.40700102E-02  3.01899908E-01 -4.02744304E-01
  2.82374920E-01  5.05503706E-01  1.11776353E-02  4.49424014E-02 -4.27198483E-01
 -1.55911128E-02  3.43834920E-02 -6.44776623E-02  1.00673855E-01 -4.93276046E-01
  1.96400899E-01  1.00607325E-01  1.01123733E-01  1.53982532E-01  4.28396202E-02
 -2.06107756E-01 -1.13933959E-02 -4.57650644E-02  4.33467761E-01  1.64773348E-02
  3.32235782E-02  6.51959005E-02 -9.54511090E-02 -4.95240657E-01 -1.97605809E-01
 -1.11659138E-01 -9.03395544E-02  1.54604620E-01 -4.92874580E-02 -2.13111817E-01
  6.33987710E-02 -2.35996285E-01  2.60930396E+00 -1.49222684E+00 -3.16698277E-01
 -3.89288477E-02  6.63536301E-01  2.40261390E+00  1.45488130E+00  1.75488775E-01
  5.59182336E-02 -7.44064437E-01 -2.37644617E+00  1.44942345E+00 -1.58341761E-01
 -4.87532373E-02  2.04567637E-01 -2.58867456E+00 -1.45387948E+00  3.19805923E-01
  4.04108176E-04  2.75724087E-03 -1.23946592E-01 -3.75882481E-04 -7.18279945E-04
 -3.26398824E-01  8.62657713E-02  4.02622127E-02 -8.42893962E-01 -3.14107964E-01
  2.37581636E+00  1.26053511E-03  8.21418499E-02  6.78323625E-04  5.52467255E-03
  2.18423561E-02 -2.49885110E-01 -1.95282917E-03 -7.43447048E-02 -6.72974308E-02
 -3.41270848E-01  7.78493347E-01 -8.86268757E-01  1.30043702E-01 -9.96031065E-01
 -4.23653565E-01  7.23898524E-02  2.22996121E-01 -5.81610424E-03 -2.46077047E-02
  3.49425899E-01 -9.87737343E-03  8.94777291E-02  3.58808546E-02 -8.63728271E-01
 -1.37830983E+00  4.91135254E-03 -1.59183396E-01 -2.30029119E-01 -1.23377283E+00
 -2.41756334E-01  5.81612313E-02  9.88374403E-03  4.34386073E-02 -5.23961924E-01
 -2.58975925E-01 -5.94281983E-04 -1.11467124E-01 -5.82164186E-01 -4.28725944E-02
  1.09126691E+00  5.84730121E-01 -2.30126473E+00  1.54218831E-03 -6.50824885E-01
  8.52661438E-04 -5.81032735E-03 -2.45945105E-02  3.49388070E-01 -9.94949039E-03
 -9.02964079E-02  3.57746882E-02 -7.85079844E-01  1.33165508E+00  6.31597873E-03
 -1.59156235E-01 -2.32898343E-01  1.23373670E+00 -2.43927640E-01 -5.98672819E-02
  5.46293782E-03  2.15918416E-02 -2.46455665E-01 -2.08584991E-03  7.36046236E-02
 -6.75501246E-02 -2.61740392E-01 -7.31196778E-01 -8.91502291E-01  1.31683748E-01
 -9.97078678E-01  4.25724125E-01  7.10289130E-02 -2.19145978E-01  8.29691674E-03
  3.44230155E-02 -2.05368071E-01 -3.25852229E-02 -8.07397312E-04 -1.59947376E-01
 -4.75612723E-02 -2.38162607E-03  2.32430581E+00  8.40578003E-02  1.29347647E+00
  8.72080173E-04  2.71920787E-02  1.71076296E-03 -2.80006972E-03 -8.95945663E-03
 -1.00390579E-02 -3.96064683E-02  6.43910117E-05 -2.38394429E-02 -1.19727502E+00
  3.54253205E-03  9.59124438E-01 -2.89474954E-01 -1.17460668E+00  4.37385020E-04
  4.20612437E-01 -4.06189177E-04 -1.68426260E-01  1.31813148E+00 -3.12159687E-01
  2.37353162E-01  4.86138358E-01 -1.69561408E-01  1.32094946E+00 -3.13296200E-01
 -2.37704515E-01  4.85695029E-01  6.37404304E-05  4.44567781E-04 -1.20775146E-02
 -5.01691061E-03  4.62956295E-03 -2.21822603E-02  4.11322786E-02 -4.05679383E-03
  1.00757094E-02 -5.62930753E-02 -3.25718140E-01 -9.59435286E-03 -2.45959548E-03
  3.54513798E-02 -1.89511909E-05  1.10616549E-04 -8.94392175E-03 -4.87220021E-03
 -4.52997634E-03 -2.20288442E-02  4.08226706E-02  9.80455928E-04  9.51548174E-03
 -5.66156353E-02 -3.25930397E-01  9.44093711E-03 -2.49244395E-03 -3.76997195E-02
  9.25548661E-02 -1.96593790E-01  3.71291803E-02 -1.93648200E-01 -4.26906357E-01
  1.19737262E-01 -7.98987395E-01  3.10993148E-01  9.60117562E-02 -6.93091099E-01
  1.20817091E-01 -8.01955957E-01  3.05899016E-01 -9.17478049E-02 -6.92193543E-01
  9.21935301E-02 -1.92546684E-01  2.55136821E-02  1.87337931E-01 -4.27687042E-01
 -6.10853493E-05 -2.87358164E-04  4.77556577E-03  2.35983982E-04  3.78224418E-01
 -5.60456555E-04  2.37901067E-03 -7.43955881E+00 -2.64167930E-03  1.38095020E-03
  2.41967065E-03  5.15704524E-01  7.60595901E-04 -1.05216635E+00 -1.28920667E-02
 -5.75879278E-02  1.04704637E+00  8.69426874E-02  5.05814701E-02  1.79828038E-02
  7.16529705E+00 -3.07074162E+00  6.96002317E-02  5.33472710E-01 -4.26028616E-01
  1.08750995E-01 -1.21604998E+00 -9.48983166E-01 -1.47396661E-02 -6.51069989E-02
  1.02185651E+00 -3.37313888E-01  1.14432217E-01  4.11031514E-02  9.05646566E+00
  6.14421676E+00  5.76197033E-01  9.62185452E-02 -1.78327799E-01  8.80150144E-02
 -9.85228846E-01  1.05613382E+00  3.24075203E-05  1.52863605E-04 -2.23278141E-03
 -3.00184808E-04  4.77426868E-01 -1.23307831E-05  1.73508274E-02  9.78641366E+00
  1.16561058E-03  5.71009634E-04 -2.40264490E-03  3.31843776E-01 -2.46374099E-03
  4.09734338E-01  1.47845166E-02  6.53091125E-02 -1.02449358E+00  3.39588248E-01
  1.13917997E-01 -4.11126378E-02 -9.06542444E+00  6.14868076E+00 -5.72582136E-01
 -9.61056664E-02  1.77609483E-01  9.12198019E-02  9.78087916E-01  1.05578332E+00
  1.28648690E-02  5.74352649E-02 -1.04405576E+00 -8.56352722E-02  5.06218380E-02
 -1.80270587E-02 -7.16352219E+00 -3.07181983E+00 -7.19661000E-02 -5.34663118E-01
  4.23308351E-01  1.08983133E-01  1.22333211E+00 -9.52039411E-01 -7.43856312E-05
 -3.04875781E-04  1.82643900E-03 -2.40934283E-05  3.19970776E-01 -5.10160743E-04
 -7.30244941E-04 -8.83989728E-01 -2.67739615E-03  3.13339084E-04  3.38831827E-03
  1.62248247E-02 -2.81794144E-04 -5.24060308E-01  3.59051325E-05  1.48991942E-04
 -1.01008123E-03  3.97240372E-05  2.77179165E-02  4.50412053E-05  5.15051260E-04
 -1.71436160E+00  7.26883638E-04 -1.90240583E-03 -1.52079506E-03 -3.91499466E-01
  6.43531830E-04  1.86685661E-01 -2.20514762E-01 -2.47321349E-01  3.03753887E-02
 -5.16317859E-02 -1.71235830E-01  2.19648838E-01  2.44721944E-01 -3.08959951E-02
 -5.10055738E-02  1.73005287E-01  9.56198793E-04  4.14443951E-03 -6.78106319E-02
 -1.42340228E-01  1.01154305E-01 -1.34150020E-02  1.98701400E-01 -1.12245036E-01
  5.32394628E-02 -9.55939342E-02  1.90676308E-02  4.36155533E-02  1.70641331E-01
  2.14372452E-01 -9.47514431E-04 -4.10761137E-03  6.74493312E-02  1.41833972E-01
  1.01195526E-01  1.21589623E-02 -1.97550661E-01 -1.11860886E-01 -4.67394141E-02
  9.52212574E-02 -1.89607420E-02  4.03038672E-02 -1.69659999E-01  2.14827712E-01
  1.43023700E-01  1.28016856E+00 -1.35054092E+00  8.45210301E-01 -6.93747266E-02
  3.10070350E-02  1.31368469E+00 -4.32693144E-01  1.82266118E-02  5.55252441E-02
 -3.03039686E-02 -1.31881345E+00  4.37813721E-01  1.66065156E-02 -5.78452974E-02
 -1.42270502E-01 -1.27607893E+00  1.35537935E+00  8.47099677E-01  6.96497972E-02
 -3.97637096E-02 -1.77317465E-01  2.75598204E+00 -1.42507577E-01 -1.00789739E-03
 -3.34978245E-02  3.63051836E+00  8.12660959E-02 -2.86141009E-01 -4.42942191E-02
 -5.08390677E-02  3.27725492E-03  4.96592198E-01  1.89896881E-03 -4.04773201E-03
 -2.12591357E-02  4.32993811E-01  2.81803253E-01 -7.77561931E-02 -1.08422592E-02
 -8.12217386E-01  1.26320335E+00 -1.47370248E-02  2.01597344E-01 -7.79277828E-02
  1.54854143E-01  1.95754853E+00  1.80167450E-01  1.17256809E-02  5.87191720E-02
 -1.03679688E+00  2.46584533E-01 -3.92721227E-02  1.12879783E-02  5.81375025E-01
 -1.25089147E+00 -1.13507922E-01 -9.20154655E-02 -1.48778078E-01 -2.12035064E-01
 -1.11854595E+00  3.48967973E-01  2.06161454E-02  1.03359897E-01 -1.84633738E+00
 -8.54076038E-02 -3.24820753E-04  3.07055555E-02  1.25094796E+00 -9.05648663E-02
  6.45169246E-01 -4.79829097E-01 -3.23186907E-02 -6.33375833E-04 -3.44719030E-01
 -1.84783726E-03  1.17154674E-02  5.86709584E-02 -1.03541486E+00  2.46792898E-01
  3.93638145E-02  1.09503341E-02  7.29942675E-01  1.16194891E+00 -1.16510066E-01
 -8.92945579E-02 -1.44249345E-01  2.11785601E-01 -1.12434747E+00 -3.49372724E-01
 -4.11735542E-03 -2.15451306E-02  4.36862185E-01  2.83317071E-01  7.75691834E-02
 -1.10962341E-02 -6.71274972E-01 -1.18037744E+00 -1.58906421E-02  2.00831310E-01
 -7.30128287E-02 -1.54379141E-01  1.95667036E+00 -1.78071432E-01 -1.00923987E-02
 -4.15163657E-02  2.84068591E-01  2.05507773E-01 -3.34367589E-04 -1.09767541E-02
 -1.90680278E+00 -7.10893994E-03 -1.07538636E-01  6.51826629E-01  8.99582163E-02
  6.67295885E-04 -2.02991567E-01  6.80795448E-05  8.77443543E-03  3.11358423E-02
 -8.80816712E-02 -2.23348821E-02 -6.78725169E-04 -1.88294264E-03 -5.04086161E-01
  1.28189877E-02 -2.17845756E-01  5.64408952E-01 -2.18229429E-02 -1.12207401E-03
  1.21283407E+00 -5.15622170E-03  5.61529263E-01  1.05232239E-01 -3.76450395E-02
 -5.15247623E-01  2.08901922E-02  5.60738531E-01  1.07331384E-01 -3.68475152E-02
  5.16317553E-01  2.14973602E-02  1.09418023E-03  5.94472768E-03 -1.07826196E-01
 -1.06448865E-01  8.15930381E-02 -1.09389334E-02  6.86938969E-01 -3.24689462E-01
  7.92869725E-02 -4.02358080E-01 -4.43184065E-03  5.20358437E-02  3.18676058E-01
  8.49251445E-02  1.03774865E-03  5.71591789E-03 -1.05521538E-01 -1.06416632E-01
 -8.13056442E-02 -1.07702123E-02  6.86106544E-01  3.21830809E-01  7.85532577E-02
 -4.03022449E-01 -4.22239621E-03 -5.11280512E-02  3.18986205E-01 -8.56235762E-02
  1.85359601E-01  1.06559100E+00  1.32428788E+00 -7.22665866E-01  5.05675228E-02
 -1.01141611E-01 -1.11611844E+00  6.34251987E-01  2.73590291E-01 -7.62606430E-02
 -1.00726587E-01 -1.11534621E+00  6.23864585E-01 -2.67533073E-01 -7.71988883E-02
  1.84605451E-01  1.07376160E+00  1.31044806E+00  7.12532759E-01  5.12918751E-02
 -4.99450788E-05 -1.95288177E-04  2.23726044E-03 -5.58504683E-04  3.45244977E-01
 -3.91045873E-04 -3.01261872E-03 -2.08438080E+01 -7.82417874E-03 -1.80524710E-03
 -2.97661747E-04  3.23753590E-01 -2.46820891E-03  1.93415292E-01 -1.08794057E-02
 -4.46729424E-02  4.51582208E-01  5.09803494E-01  8.61747164E-02  7.78979702E-03
  1.52832740E+01 -9.75621518E+00  8.36615828E-02 -8.15889979E-01 -2.42613489E-01
  1.17535217E-01  5.98708412E-01 -3.29886590E-01  7.13402832E-03  2.86369498E-02
 -1.83693179E-01  4.16445470E-01 -4.82960825E-02  1.63067123E-02  1.57979442E+01
  9.89808666E+00  1.69234808E-01  8.68345456E-01 -1.39020088E-01 -3.52755676E-02
 -1.08276760E+00  1.14718514E-01  4.94405269E-05  2.33721516E-04 -3.82170190E-03
  3.28132986E-04 -2.52473978E-02  2.88855298E-04 -1.74940546E-02  2.13758941E+01
  4.63473118E-03  9.35832791E-04 -1.72435460E-04  8.30133631E-03  3.05515347E-03
  6.88468572E-01 -7.17171003E-03 -2.87639909E-02  1.83971525E-01 -4.17925517E-01
 -4.85597578E-02 -1.60077052E-02 -1.57791357E+01  9.92259035E+00 -1.65725761E-01
 -8.73010044E-01  1.35797843E-01 -3.18178644E-02  1.08811532E+00  1.09306768E-01
  1.09233465E-02  4.48719471E-02 -4.53388538E-01 -5.10237663E-01  8.65502266E-02
 -7.73771631E-03 -1.52905807E+01 -9.76074189E+00 -8.44515923E-02  8.20483633E-01
  2.42414842E-01  1.15221568E-01 -6.00889044E-01 -3.29178493E-01  4.36419795E-05
  1.80422762E-04 -1.16240834E-03  4.24937452E-04 -3.20392377E-01 -5.19181700E-04
 -6.05406709E-03  3.27096672E+00 -2.91652835E-03  4.50377392E-04  3.39782989E-03
  1.95425874E-02 -1.22673432E-03  8.99138012E-01 -3.63000283E-05 -1.57146951E-04
  1.24214128E-03  7.27709188E-06  3.41566810E-01 -1.56713200E-04 -8.81316753E-03
 -5.10526833E+00 -1.75722405E-03  3.09256882E-03 -4.95055533E-04 -3.33678302E-01
  3.37463737E-03  1.21459681E+00 -3.01771029E-01 -6.61567857E-01  2.93083729E-01
 -6.71517843E-02 -7.39429449E-02  3.05220239E-01  6.74841442E-01 -2.93749669E-01
 -6.78651480E-02  7.32270105E-02 -6.71195804E-03 -2.78452989E-02  3.36532607E-01
  1.28713096E-01 -1.73588065E-01 -9.44786446E-03 -2.11052541E-01  4.59309169E-01
  4.23597592E-02 -4.05560211E-02  1.56060923E-02  2.91781557E-02 -2.04292608E-01
 -1.20263028E-01  6.77333635E-03  2.81017214E-02 -3.39309311E-01 -1.29296853E-01
 -1.73899134E-01  8.64527077E-03  2.13520411E-01  4.61085269E-01 -3.70716892E-02
  3.90952782E-02 -1.54922088E-02  2.61183817E-02  2.05953709E-01 -1.20700873E-01
 -1.74128224E-01  8.01612856E-02 -7.46397812E-01  7.53492134E-01 -1.66664185E-02
  2.36059032E-01  2.08904868E-02 -3.41192619E-01 -5.62172970E-01  1.86699559E-02
 -2.36947599E-01 -2.74429559E-02  3.40692112E-01 -5.63573514E-01 -1.96139709E-02
  1.77113952E-01 -8.23381989E-02  7.44534049E-01  7.55339315E-01  1.75153068E-02
 -8.33340624E-03 -3.39612917E-02  5.41470314E-01 -8.09843934E-01  3.71942455E-04
  2.56562420E-02  5.05182049E+00 -6.99745433E-04  1.17735611E-01  1.91202337E-01
 -9.76782384E-03 -9.85785509E-04  7.88327640E-01  1.89186217E-03  9.00868778E-04
  5.68598465E-03 -1.97802487E-01 -1.34831117E-03  1.13472306E-01  5.83428723E-03
 -2.72390567E+00 -1.00470500E+00  8.19447559E-02 -5.95737178E-01  6.44576610E-02
 -7.58871507E-02  4.34574255E-01 -8.51743601E-01  7.75530855E-05  1.58040354E-03
  5.32806285E-02  2.96164378E-02  1.45134628E-01 -6.33965530E-03 -4.31833075E-02
 -6.10823769E-01  3.23484003E-02  1.18330419E-01  9.99047088E-02  1.66795044E-01
  1.19020272E-02  6.86345656E-01 -1.37255238E-02 -6.36062464E-02  1.05441192E+00
  4.71912522E-01 -3.58247850E-05 -4.22643089E-02 -3.89879167E+00 -1.81916578E-03
 -4.15986396E-01  2.56746136E-01  8.50070378E-02  9.94355457E-05 -6.52531421E-01
 -6.64982777E-04  6.40659269E-05  1.53386221E-03  5.38164698E-02  2.95079892E-02
 -1.44783825E-01 -6.46105196E-03 -4.11762497E-02  6.12653390E-01  3.62248726E-02
  1.18879635E-01  9.72996021E-02 -1.67779936E-01  1.17060643E-02 -6.85736538E-01
  9.24757615E-04  5.80097601E-03 -1.99854786E-01 -1.03447879E-03 -1.12514202E-01
  5.81572101E-03 -2.72570530E+00  1.00646771E+00  7.93856266E-02 -5.96224240E-01
  6.21792370E-02  7.58276017E-02  4.35333494E-01  8.49617910E-01 -3.86374082E-03
 -1.64404518E-02  1.44243229E-01  2.57376736E-01 -7.43826678E-05  1.06799616E-02
 -2.47851822E+00  1.13351148E-03  9.96198849E-02  8.59814495E-01 -9.17693880E-02
  6.60510465E-04 -3.34672792E-01  1.21850949E-04 -1.79003081E-02 -7.22143595E-02
  4.02565363E-01 -1.04125952E-01 -1.13068196E-04  4.36134349E-03 -2.75939642E-01
 -2.92042504E-04 -4.76453751E-03  1.71512833E-01 -3.76071788E-02  3.90656368E-04
 -1.37756199E+00 -1.27791945E-03 -4.48784703E-01  1.09847000E+00  1.08146245E-01
  7.98867022E-01 -6.63107570E-02 -4.48040031E-01  1.10304145E+00  1.08148802E-01
 -7.99243086E-01 -6.70948779E-02  6.58351901E-05  1.99833941E-03 -8.10588649E-02
 -6.42636902E-02  4.11548983E-02  1.20935738E-02  6.32215873E-01 -1.48612388E-01
 -8.17348420E-02 -3.85943980E-01  1.50864850E-03 -4.99504829E-02  3.33869414E-01
  2.52405786E-01  8.64503071E-05  2.08331100E-03 -8.19772863E-02 -6.46933210E-02
 -4.15455014E-02  1.23475381E-02  6.33152095E-01  1.50682585E-01 -8.25861927E-02
 -3.85979786E-01  1.21204187E-03  4.95843916E-02  3.35255727E-01 -2.52202815E-01
  1.17614064E-01 -1.14332992E+00  4.23291388E-03 -6.04281206E-02 -2.79991596E-02
  4.58883378E-01 -8.58835299E-01  6.32761072E-01 -1.06551244E-01  9.00419366E-02
  4.58502487E-01 -8.59224880E-01  6.32517147E-01  1.06240192E-01  9.08007169E-02
  1.17138142E-01 -1.14462944E+00  5.97865998E-03  6.10423224E-02 -2.70372676E-02
 -2.19816395E-03 -9.56022735E-03  1.39040832E-01  5.31775086E-02 -7.75703217E-03
  9.42611949E-02 -3.56912987E-01 -5.40732812E-02 -1.42267177E+00 -8.84999816E-02
  4.45080583E-01 -8.50931073E-03 -3.19572989E-01 -3.55610665E-02  4.06657088E-05
 -4.46662502E-04  3.82279676E-02  9.05538743E-02 -2.71794074E-02 -6.82419453E-02
  1.96721841E-01  2.73943828E-01  6.65139787E-02  9.39079617E-02 -7.54859996E-01
  7.97497292E-02  2.12851283E-02  7.23849842E-02 -1.30161634E-03 -5.29973125E-03
  4.90246762E-02  7.79285461E-02  1.66563640E-02  8.32982055E-02  1.30595846E-01
 -2.32718660E-02  5.60371309E-01 -7.54769317E-02 -4.42648586E-01  1.35181616E-01
 -1.65139379E-01  5.03302712E-02  1.56281044E-03  6.22639831E-03 -7.25495078E-02
  1.03283896E-01 -5.72924742E-03  1.62019537E-02  4.58461711E-01  9.26861091E-02
 -2.72979602E-02  7.02908228E-02  3.50314993E-01  4.66614356E-03  3.94497484E-01
  2.87971438E-02 -1.32389794E-03 -5.54666696E-03  5.51613518E-02  8.03931643E-02
 -3.11328862E-02  8.38357007E-02  3.61748963E-04  6.99347162E-02  5.65987946E-01
 -8.32864363E-02 -4.56665086E-01 -1.28210866E-01 -1.44579555E-01 -8.03688820E-02
 -1.59591306E-04 -1.43740355E-03  5.81000970E-02  8.26218942E-02  7.38124266E-03
 -6.84215458E-02  1.48240529E-01 -3.31773662E-01  6.55823884E-02  9.96027967E-02
 -7.69766572E-01 -8.82010304E-02  3.15039083E-02 -4.44938504E-02  2.34187444E-03
  9.98498657E-03 -7.43048018E-02  6.27706925E-02 -9.59778430E-04  1.99579527E-01
 -1.19580876E-01 -4.79221841E-03  4.32567615E+00 -3.15979343E-02 -1.53074915E+00
 -1.87421271E-03 -3.69672172E-02  1.11159111E-03  3.10537533E-03  1.31272251E-02
 -8.59922609E-02  4.92417785E-02  2.39167809E-03 -1.59820258E-02  2.94307689E-01
 -3.22327985E-02 -1.07367794E-01 -1.08724708E-01  5.61527727E-02  7.70558689E-04
 -1.52612756E-01  2.54225578E-02 -2.25236586E-02 -3.48648434E-01  7.23041116E-02
 -2.60132283E-02  3.73643818E-03 -2.42736523E-02 -3.76092782E-01  6.24574334E-02
  2.83000443E-02  4.87758582E-03  1.21789287E-03  5.30163055E-03 -6.06979139E-02
 -7.04825895E-03 -1.35008626E-02  3.60425381E-01  1.67115245E-02  3.00823951E-02
 -2.36496531E+00 -1.57069348E-02 -3.64590225E-01 -1.27335609E+00 -2.50930223E-02
  4.28595361E-02  1.09834517E-03  4.82746266E-03 -5.65416349E-02 -1.79047696E-03
  1.60170471E-02  3.59871471E-01  3.10140604E-04 -4.87846103E-02 -2.36232358E+00
 -2.15403368E-02 -3.64918659E-01  1.27135048E+00 -3.92853131E-02 -3.70161966E-02
  6.14398711E-02  1.32285902E-02  1.82273550E-02 -7.57423250E-02 -2.11841255E-01
 -1.33999212E-01  2.84434368E-01  9.96461806E-03  1.66771255E-01  1.94780125E-01
 -1.15466965E-01  2.70878666E-01  2.62694744E-02 -1.59400792E-01  1.94709767E-01
  8.19228665E-02  4.28170567E-03  8.16830099E-03  8.56347123E-02 -2.11625382E-01
  8.07516147E-03  2.92120925E-02 -2.18631131E-01  2.57476780E-02 -1.71797739E-02
  5.56177130E-03  3.83828310E+00 -2.14912538E-02 -2.20610757E-01  9.40201613E-01
  4.97984535E-02 -1.02200862E-02  1.79841160E+00 -6.64695916E-02 -1.12163748E-02
 -4.62055474E-02  4.09808254E-01  9.05632806E-02  4.76021082E-02 -9.55485103E-03
 -1.40754565E+00 -2.06067344E+00  8.47326625E-04 -1.05235393E+00 -9.69118186E-02
  3.84750096E-02  1.30488765E+00 -2.78408396E-02  1.58935244E-02  6.76056687E-02
 -7.66474235E-01  1.36515573E-01 -1.71497519E-01  1.28705533E-02 -2.19290309E+00
  2.21549452E+00  2.45857052E-02  1.09810363E+00 -7.13612689E-02 -5.06775147E-02
 -1.00267563E+00 -7.01097806E-01 -5.55241630E-03 -1.78715177E-02  4.66614201E-02
 -5.06366737E-01 -1.45788285E-02  3.25926217E-02  5.55257399E+00  9.53908493E-02
  1.86772299E-01 -9.08279660E-01  1.24953709E-02 -8.81690865E-04 -2.09775457E+00
  5.88193559E-02  1.57123124E-02  6.65131550E-02 -7.44533132E-01  1.39122789E-01
  1.41519316E-01  1.37545897E-02 -2.30144561E+00 -2.20624085E+00  3.82512194E-02
  1.08277431E+00 -8.13003305E-02  5.19300554E-02 -9.71777449E-01  6.29784151E-01
 -1.16575063E-02 -4.83993529E-02  4.54797451E-01  7.62309384E-02 -8.64616968E-02
 -9.54112348E-03 -1.36118884E+00  2.01653837E+00  2.68607749E-03 -1.03842285E+00
 -1.12788582E-01 -4.50039773E-02  1.31491859E+00  8.47034086E-02 -2.07696817E-02
 -8.63401742E-02  5.89613300E-01 -1.66231651E-01 -3.55834212E-03  2.45523676E-02
  1.20942845E+00 -1.15686211E-02  5.39565065E-01  1.35276724E-01 -1.85850094E-01
 -1.48361187E-03  4.17529322E-01  5.78814178E-03  9.71990128E-03  3.79750254E-02
 -2.38569159E-01 -9.13084911E-02  3.95107971E-03  2.36961260E-02  2.67587334E-01
 -6.63167044E-02 -6.77441979E-02 -2.14891505E-01  6.51325607E-02  8.59005014E-04
  5.90897576E-01  3.82358506E-02 -4.21376122E-02 -2.37684197E-01 -2.01859422E-01
 -3.07148257E-01  3.28159666E-02 -4.04023357E-02 -2.64721116E-01 -2.17428110E-01
  3.07710461E-01  3.31667853E-02 -1.39435274E-02 -5.80933955E-02  6.18206024E-01
  9.56658765E-02  6.10724615E-02  4.51767703E-02 -1.12052214E-01 -3.43632426E-02
 -2.95322150E-01  1.37135682E-01 -4.80130078E-02 -1.57648204E-01  7.74967195E-03
 -1.58040717E-01 -1.41361995E-02 -5.88500883E-02  6.24409260E-01  1.05838414E-01
 -5.66681854E-02  4.45385771E-02 -1.46222642E-01  4.76626508E-04 -2.91243473E-01
  1.28470432E-01 -4.69254306E-02  1.55711221E-01 -1.90548597E-02  1.70730581E-01
 -6.24947338E-01  7.14223356E-01  9.08230486E-01  3.17863563E-01 -1.16630738E-02
  4.60689284E-01 -4.46796925E-01  4.66563965E-01 -4.67251913E-01 -1.77419488E-02
  4.98522589E-01 -4.70154548E-01  4.94346669E-01  4.84345482E-01 -1.72862597E-02
 -5.81587318E-01  6.96013788E-01  8.71031606E-01 -3.06147027E-01 -1.27906359E-02
  2.70898904E-04  9.82925641E-04 -7.57223353E-03  2.06658366E-03  5.06940715E-01
  1.72065560E-03  1.22715091E-01 -6.74236787E-01 -4.08775741E-02  3.18097143E-02
  6.73905055E-03  2.59892592E-01  5.82217994E-02  1.88510854E+00 -7.00573640E-03
 -3.40396971E-02  6.56016579E-01 -1.70420374E-01  5.54697330E-01 -2.09810575E-03
  1.49543735E+00 -9.65457800E-02  2.75942850E-03  9.94039568E-02 -2.42933384E-01
  1.15674534E-01  2.50395538E-01 -8.45821820E-01 -8.16692583E-04 -7.98881851E-03
  2.14063700E-01  6.89902058E-02  4.05692082E-01  1.37495193E-02 -6.70056367E-01
  5.13417815E-01  1.40125739E-01 -1.39622690E-01 -2.01477509E-01 -7.11590091E-02
  3.55655863E-01  9.55252482E-01 -1.74747126E-04 -5.46952435E-04  7.97691772E-04
 -1.74427015E-02  3.95470370E-01  1.44482317E-03  1.95743872E-01 -1.54422925E+00
  1.23250838E-02 -3.00695543E-02  1.11757926E-03 -6.61068557E-02 -6.86516321E-02
 -1.54517011E+00  1.86078197E-03  1.24171568E-02 -2.63925962E-01 -5.82194462E-02
  4.16277985E-01 -1.01782478E-02  5.13520021E-01  3.61342611E-01 -1.28156436E-01
  2.13231135E-01  1.82837384E-01 -6.41754055E-02 -4.22314803E-01  1.00200329E+00
  6.24061607E-03  3.08759426E-02 -6.27240916E-01  1.77365970E-01  5.50514334E-01
 -3.14821848E-04 -1.58445627E+00  3.87939653E-02  1.02601586E-02 -1.69568758E-01
  2.09468238E-01  1.02619000E-01 -1.62854711E-01 -8.45538434E-01 -6.85389869E-04
 -2.84575799E-03  1.93580896E-02 -5.62362166E-03  7.19500481E-02  4.43978031E-03
  4.25947667E-02  6.16572553E-01  9.84806930E-02  3.23902223E-03 -3.49167657E-02
  2.90043233E-02  1.47111238E-02 -8.91983404E-02  3.75475695E-04  1.48221081E-03
 -9.40292493E-03 -2.64364705E-03 -9.61923537E-02  6.47814890E-04  1.07947818E-02
  1.54677998E+00 -3.04026339E-03 -8.95130002E-03  1.45178740E-03 -2.56968828E-02
  2.01869382E-02 -1.03943622E+00 -5.69335559E-05 -4.56162185E-01 -2.21415161E-01
 -3.26336423E-02  1.20036693E-02 -2.75247494E-03  4.33984893E-01  2.06938861E-01
 -1.00905115E-02 -8.63867174E-03 -4.01868067E-03 -1.60786469E-02  1.48070471E-01
  1.55534097E-01 -7.02394083E-02  1.48381097E-03 -5.01540624E-01  5.13356559E-01
 -1.62890386E-02 -1.10408922E-01  5.04455554E-03 -4.94401944E-03 -3.87367349E-01
 -1.82782461E-01  3.08650775E-03  1.21955778E-02 -1.06735488E-01 -1.48570326E-01
 -7.41954386E-02  1.50654854E-02  4.91447863E-01  5.14701130E-01 -9.23685056E-02
  1.20066566E-01 -2.17245700E-02  5.35783850E-02  3.86413529E-01 -1.70641358E-01
  5.81177755E-01 -2.75429361E-01 -5.51107922E-01 -1.18339195E-01 -1.32230890E-02
  5.60981289E-01 -4.05566209E-01  3.60057763E-01 -3.14001834E-01  8.50924073E-03
 -5.31008913E-01  3.83073058E-01 -3.29481453E-01 -2.83694550E-01 -6.11083284E-03
 -6.21518067E-01  3.21687654E-01  6.11879704E-01 -1.38692283E-01  7.31715788E-03
 -1.63183524E-03 -1.05703309E-02  2.93483448E-01  1.69671601E-01  1.12312450E-03
 -7.90652011E-04  1.04548092E+00  3.29227211E-04  1.97506953E+00  2.65535699E-01
  1.47356743E+00 -2.79312703E-03 -4.68046758E-01  6.52194449E-03 -9.52852750E-03
 -4.31122576E-02  6.06934871E-01  5.45744814E-01 -1.29933929E-02 -7.54749727E-02
 -4.05703834E-01 -3.32417247E-01 -1.83620551E+00 -3.93064413E-01 -4.96812644E-01
 -1.18832910E+00  8.19549127E-01  2.07770223E-02  2.17198664E-03  8.58278816E-03
 -4.94874896E-02  5.22510672E-01  4.84521996E-02  7.44983343E-02 -1.64888863E+00
  2.04113668E+00  1.84716093E+00  4.66224546E-01 -4.00498931E-01  1.13824715E+00
 -1.63403465E+00 -1.47059530E-01 -1.12787098E-03 -6.50406081E-03  1.07844785E-01
  3.37457083E-01  4.18922563E-04 -3.99371299E-02  6.99255026E+00 -9.30438846E-03
 -2.13429969E+00 -2.46281509E-01  1.26593339E+00  5.30414353E-04  5.95077139E-01
 -4.17702990E-03  2.14375676E-03  8.48565314E-03 -4.89449304E-02  5.20312115E-01
 -4.68049374E-02  7.44919149E-02 -1.63182073E+00 -2.04789845E+00  1.84892435E+00
  4.65055244E-01 -4.03651183E-01 -1.13666859E+00 -1.63361134E+00  1.50830703E-01
 -9.48502996E-03 -4.29063483E-02  6.03727862E-01  5.45012788E-01  1.58434359E-02
 -7.55793450E-02 -4.01401677E-01  3.41154338E-01 -1.83543293E+00 -3.89892789E-01
 -5.00804047E-01  1.18620425E+00  8.14710937E-01 -2.45787755E-02  9.20927313E-04
  5.38778817E-03 -7.10384823E-02  2.72620019E-01 -5.11101231E-04 -5.75171345E-02
 -5.54431661E-02  6.62384562E-03 -5.21609338E-03 -6.10477435E-02  6.77542563E-01
  2.11912401E-04 -5.09574697E-03  2.00820713E-03  2.30275581E-02  9.63808386E-02
 -6.58734645E-01  2.42849450E-01  5.92938203E-05 -7.60255599E-03  2.22902196E+00
  9.84894982E-04 -5.79203535E-02 -9.26332156E-01  3.46238890E-01  6.94755749E-04
 -1.01589469E+00 -3.78460713E-04 -3.73123473E-01 -2.49614729E+00  3.50626147E-01
 -1.98753958E-01  1.90807243E-02 -3.73315795E-01 -2.49449468E+00  3.50253355E-01
  1.99283591E-01  1.99378350E-02 -2.26578503E-03 -7.87565351E-03  5.15528511E-02
  4.72207567E-02 -5.94377480E-02 -8.34097915E-02 -4.53385734E-02  2.66053864E-01
  4.57864557E-01 -2.49782092E-02 -1.29542271E-02  2.15073521E-01 -1.86308739E-01
  1.64489557E-01 -2.21868846E-03 -7.68343179E-03  4.94340639E-02  4.61061761E-02
  5.87148361E-02 -8.34656954E-02 -4.30687183E-02 -2.62867184E-01  4.58291164E-01
 -2.43821513E-02 -1.25914670E-02 -2.15458376E-01 -1.83773273E-01 -1.65900648E-01
 -4.57680261E-02  1.87028211E-01  4.86682164E-01 -8.65472204E-02 -4.37391511E-01
 -3.05397039E-01  1.61506770E+00  4.72850159E-01  5.79128424E-01  4.07788138E-01
 -3.08069379E-01  1.61886460E+00  4.68147267E-01 -5.79659784E-01  4.07350260E-01
 -4.78881188E-02  1.85282268E-01  4.84976433E-01  8.50993053E-02 -4.37750321E-01
  1.27741090E-03  3.44082364E-03  2.51270641E-02  7.34851487E-02  4.14376296E-03
 -9.35450967E-03  5.72247422E-01  2.81229373E-01 -2.46315740E+00  1.21400149E-01
 -2.34372081E+00 -7.14165903E-02 -2.07061847E-01  2.48652617E-04 -6.20126014E-03
 -2.88419466E-02  4.38565247E-01  3.37802147E-01 -5.25337505E-03  1.69551656E-01
 -5.90275038E-01 -2.12909693E-02  2.96631672E+00 -2.19994387E-01  1.15912964E+00
  1.67462815E+00  3.91734565E-01 -6.44755823E-02  8.78761658E-05 -2.94394670E-04
  6.62682396E-02  2.76107289E-01  4.51374494E-02 -1.78272626E-01 -1.50445483E+00
  1.02505608E+00 -3.04803651E+00  2.73999672E-01  1.14075428E+00 -1.79766226E+00
 -1.21498462E+00 -1.08069416E-01  2.94118472E-03  1.14878790E-02 -1.75199240E-01
  1.91227504E-01  7.45412759E-03 -1.31394305E-02  4.25270850E+00 -3.04076076E-01
  2.48516224E+00 -5.61918981E-02 -2.68854148E+00  6.94109828E-02  2.18413616E-02
 -3.97798251E-03  3.38787485E-04  7.79676531E-04  4.70294579E-02  2.71848669E-01
 -3.78622532E-02 -1.76618409E-01 -9.58602762E-01 -1.33568154E+00 -3.04783226E+00
  2.68054029E-01  1.02264406E+00  1.87050713E+00 -1.19786638E+00  1.13729698E-01
 -6.25590599E-03 -2.89942719E-02  4.40728028E-01  3.32700647E-01  6.91319700E-03
  1.68716306E-01 -6.38325047E-02  3.27716900E-01  2.97244458E+00 -2.15730179E-01
  1.03891335E+00 -1.74947294E+00  3.90187019E-01  3.48277536E-02  4.62636420E-03
  2.04202706E-02 -1.59987128E-01  1.58458643E-01 -2.51771890E-03  4.08137814E-02
 -1.01145447E-01 -4.40777260E-03 -1.02254136E+00 -9.11343666E-02 -6.93014187E-01
 -1.19460189E-02 -5.00102193E-02  3.70596926E-03  1.27519020E-02  5.39375247E-02
 -3.86106222E-01  1.67602868E-01  3.49886247E-03  5.58141828E-02  1.03602661E+00
  8.56684395E-02  1.02442743E+00 -6.19619047E-01 -7.01336182E-01  6.18716288E-04
 -6.21183609E-01  4.50645029E-02 -2.49463478E-01 -1.13054080E+00  2.16322894E-01
  5.62172498E-03  3.89449657E-01 -2.77927192E-01 -1.28226999E+00  1.99222129E-01
  2.74689114E-02  4.04720319E-01  2.67902376E-04  2.10122908E-03 -4.28506847E-02
  2.15760356E-02 -4.90522611E-02  4.33560067E-02 -2.68306151E-02  1.83640995E-01
 -1.54214331E-01 -1.70488560E-02  1.12507742E-01 -4.65812927E-02 -1.19269475E-01
  1.33251697E-01  2.72037067E-04  2.13268172E-03 -4.38536810E-02  2.34851235E-02
  5.01456947E-02  3.91417936E-02 -3.84154492E-02 -1.94717772E-01 -1.28018729E-01
 -2.12887744E-02  1.21714401E-01  3.19617454E-02 -1.27150586E-01 -1.31280746E-01
 -1.28920945E-02  1.06333559E-01  2.32973352E-01 -2.95285548E-02  6.99697933E-01
 -1.55335479E-01  8.05443184E-01  4.63972209E-01  4.18302067E-01 -7.92651479E-01
 -1.65052518E-01  8.32556290E-01  3.93957122E-01 -3.91730150E-01 -7.96260854E-01
 -2.03526726E-02  1.11936638E-01  1.97026156E-01 -8.24132301E-04  7.01055534E-01
  7.10448755E-05  2.54714304E-04 -2.08259744E-03  2.20288831E-03 -1.62366784E-01
 -2.88887754E-04  1.01480552E-02 -9.54100045E+00 -7.71700940E-02  3.98336630E-03
 -6.47548027E-02  2.44155544E+00 -8.64957448E-03  1.58440251E-02 -1.97755394E-03
 -7.00361814E-03  1.00101742E-01 -5.75884452E-02 -3.26792047E-02 -7.45687938E-03
  8.99201903E+00 -5.40071248E+00  2.07688470E-01  1.19325937E-01 -1.99455670E+00
  1.33660013E+00  8.74006816E-02  4.89275808E-01  6.00598303E-03  2.60349611E-02
 -4.53882663E-01 -4.76763303E-02 -1.55515541E-01  2.06272004E-02  9.38588370E+00
  5.40783809E+00 -1.37181737E-01 -1.22878512E-01 -1.99840776E+00 -1.31961357E+00
  1.67841043E-01 -1.59829006E-01  8.08400471E-05  2.93535851E-04 -3.96809474E-03
  6.70546992E-03 -2.64409057E-01 -4.51359937E-04  1.29936363E-01  1.03378044E+01
  7.09747406E-02 -8.29852823E-04 -7.73204273E-02 -2.39875964E+00  4.94951073E-03
  2.85000134E-01 -6.05292780E-03 -2.62888375E-02  4.61267579E-01  6.37600687E-02
 -1.58429388E-01 -3.03924086E-02 -9.45299450E+00  5.33722696E+00 -3.08860204E-02
  1.36612493E-01  2.05652991E+00 -1.21549289E+00 -2.37445430E-01 -1.54840148E-01
  1.61175042E-03  5.31073875E-03 -7.42011979E-02  7.79834642E-02 -3.22669545E-02
  1.65426059E-02 -9.00973224E+00 -5.38783639E+00 -3.85450847E-02 -1.30729478E-01
  2.05369671E+00  1.23823822E+00 -6.88671273E-02  4.92144654E-01  1.04103444E-04
  4.64239351E-04 -3.82598001E-03  4.42922662E-03  8.01071235E-02  1.51249643E-03
 -1.12955417E-03  2.19104209E-01 -1.94078342E-02 -3.47288448E-03 -2.22079380E-02
  4.04549809E-01 -1.36045483E-03 -1.39008909E-01  3.78328605E-04  1.60768386E-03
 -1.16418507E-02  5.22280617E-03 -1.18981237E-01  1.48635676E-03  3.50661940E-02
 -3.05091250E+00  2.88515413E-02 -1.98771993E-02 -2.09393327E-02  2.34282172E-02
 -2.23754790E-02 -1.47571478E+00 -5.01302262E-01 -2.61800255E+00 -2.74526174E-01
 -5.70652911E-01  2.77984900E-01  4.83937103E-01  2.53800404E+00  2.87868317E-01
 -5.69852449E-01 -2.55136901E-01 -5.61458367E-04 -2.07238343E-03  1.08785400E-02
  3.87013627E-02 -1.94768370E-02 -7.23901486E-02 -2.05988807E-01  2.00757418E-01
  4.51291707E-01 -6.56368378E-02  1.65090577E-01  2.52917839E-01 -1.42171910E-01
 -3.23617674E-02  5.66297955E-04  2.14488934E-03 -1.27164355E-02 -3.71697232E-02
 -1.65344213E-02  7.60811414E-02  2.02595359E-01  1.89358514E-01 -4.68692520E-01
  6.52046622E-02 -1.60486454E-01  2.59939764E-01  1.34802200E-01 -3.91518358E-02
 -1.39122447E-01  1.33051718E-01 -5.74107523E-01  5.05893448E-01  5.46877491E-02
 -1.90523406E-01  4.04531097E-01 -1.16981047E+00 -4.43428815E-01 -8.46205093E-02
  1.79348318E-01 -3.48664791E-01  1.19255523E+00 -4.69398894E-01  3.98686654E-02
  1.38683694E-01 -1.28358453E-01  5.83694582E-01  5.05345904E-01 -1.61522865E-02
  2.38676994E-02  1.06720011E-01 -1.69745981E+00 -4.46226897E-01 -2.13563820E-05
 -2.45630069E-03  9.35165265E-01 -5.67319504E-03  1.10532206E-01 -2.08645491E-01
  1.61582060E-01  1.96825545E-04  1.19086960E+00 -2.27702462E-04 -1.89671043E-02
 -8.27444065E-02  1.36331387E+00  1.80014388E-01  1.43688125E-01 -1.64844492E-02
 -1.47265045E+00 -7.14150806E-01 -2.09579712E-01  6.84353308E-02 -9.29794085E-02
 -9.29111754E-02 -1.13716177E+00 -1.24807826E+00 -1.69008685E-03 -1.12334972E-02
  4.55781718E-01 -4.25873532E-01 -7.54734550E-02  2.09132452E-02  9.45856883E-01
  2.42956222E+00  1.72901279E-01  8.85638910E-01 -1.22059838E-01  9.14234059E-02
 -1.20717461E+00  5.33802524E-01  2.35181499E-02  1.10055644E-01 -2.15681295E+00
  1.05546911E-01 -3.16713729E-04  1.75652581E-02  1.78849451E+00  6.67643853E-03
  8.05786335E-02 -1.67299120E+00  2.51715621E-01  4.49324327E-03 -4.44449765E-01
  1.45853685E-03 -1.71254021E-03 -1.13208568E-02  4.56858432E-01 -4.24978156E-01
  7.51990915E-02  2.04473803E-02  9.26172112E-01 -2.41977337E+00  1.67797883E-01
  8.86964344E-01 -1.24487214E-01 -8.88848872E-02 -1.20831939E+00 -5.32045122E-01
 -1.89479998E-02 -8.26504496E-02  1.36083659E+00  1.80592708E-01 -1.43291854E-01
 -1.68885617E-02 -1.48880855E+00  7.07056971E-01 -2.11177930E-01  6.62762579E-02
 -9.25767810E-02  9.28522659E-02 -1.13530267E+00  1.24810886E+00  3.14961994E-02
  1.32624136E-01 -9.03252653E-01 -3.84506557E-02  9.57661585E-05 -1.94442720E-03
 -8.93172646E-01  5.28179130E-05  1.08492656E-01 -3.55868356E-01  4.19702366E-02
 -6.25811641E-04 -3.82187706E-01 -1.25448230E-03  1.49060380E-02  5.82266734E-02
 -3.13404432E-01  1.18691171E-01 -3.48577365E-04 -6.53776304E-03  5.07476551E-01
 -8.00987329E-03 -1.23290346E-01  3.47591207E-01  1.60093786E-01 -2.96933965E-03
  6.17851616E-01 -5.32226746E-03  2.29976077E-01 -5.60881603E-01 -4.79075002E-03
 -5.17017514E-01 -3.08794895E-02  2.33205638E-01 -5.43782669E-01 -3.56663927E-03
  5.14090318E-01 -2.95658308E-02  1.15214844E-02  4.91214958E-02 -5.55265336E-01
 -3.82377276E-02 -1.00479058E-01  8.31134489E-06  4.46140881E-02  1.70498763E-01
 -8.02002497E-03 -4.61326511E-02 -1.29464074E-02 -5.35971225E-03 -5.90343438E-02
  2.92441111E-01  1.15432272E-02  4.92159859E-02 -5.56378702E-01 -3.79213524E-02
  1.00804859E-01 -6.43683712E-05  4.38409189E-02 -1.71050216E-01 -7.85501498E-03
 -4.64100577E-02 -1.27877337E-02  4.84791895E-03 -5.98102028E-02 -2.92031189E-01
 -4.82104165E-02  5.78642896E-01 -6.14208372E-01  6.72906429E-01 -4.20947451E-02
  2.93103279E-01  6.28454699E-01  3.05036074E-01  4.83089192E-02  4.37377590E-02
  2.93100390E-01  6.27825522E-01  3.08141821E-01 -4.94434407E-02  4.32699520E-02
 -4.92877468E-02  5.76539231E-01 -6.11430159E-01 -6.71611771E-01 -4.24902838E-02
 -1.08784899E-05 -3.73013378E-05  2.92253901E-04 -3.84970023E-04 -1.23634466E-01
 -2.08225215E-04 -3.26451147E-03  6.55785838E+00  1.07885274E-03 -4.26903426E-05
  1.33055194E-03 -8.50926476E-01 -3.33741921E-03  2.02374528E+00 -2.07341780E-02
 -9.15197651E-02  1.61189206E+00  8.81674589E-04  3.07155064E-01  6.92449211E-03
 -2.45047047E+00  3.06427946E+00 -1.35473328E-01  8.19040210E-01  6.58896337E-01
 -5.62928999E-01 -1.71576420E-02  2.87330094E-01  1.24622226E-02  5.60769190E-02
 -1.01129911E+00 -1.00644269E-01 -3.78016134E-01  3.58563809E-02 -2.66858566E+00
 -1.41594202E+00  6.18967213E-01 -5.93390463E-01  8.00430204E-01  7.20487873E-01
 -8.24125411E-01 -2.29877126E-01 -3.18457359E-05 -1.45640493E-04  2.68347650E-03
 -2.04040078E-03  3.03679684E-02  5.72555727E-05 -4.26487132E-03 -4.87503508E+00
 -1.16683528E-03  1.29713519E-03  2.72192202E-03  1.62681182E+00 -2.92851009E-04
  1.51613294E+00 -1.24607904E-02 -5.60780668E-02  1.01172319E+00  1.00392774E-01
 -3.77710223E-01 -3.57596898E-02  2.65776616E+00 -1.41802213E+00 -6.16505024E-01
  5.94823381E-01 -8.01330600E-01  7.18096518E-01  8.30259515E-01 -2.23221687E-01
  2.08086634E-02  9.18536520E-02 -1.61787578E+00 -1.33694883E-03  3.07727336E-01
 -6.88690261E-03  2.45157496E+00  3.06962936E+00  1.35189383E-01 -8.21587371E-01
 -6.60680339E-01 -5.60740570E-01  1.35956772E-02  2.86204414E-01 -3.53127888E-05
 -1.49148900E-04  1.03001819E-03  1.55041952E-04  2.47332887E-01 -2.08672161E-04
 -3.64828304E-04 -1.16972239E+00  9.66438180E-04  1.07712394E-03  1.27884935E-03
 -2.33386879E-01  9.65067334E-04 -7.75719911E-01 -7.12412480E-07 -3.43771021E-07
 -2.63875026E-05 -1.19131577E-04 -8.62772070E-02 -3.22129173E-05 -6.93375967E-03
 -1.57914897E+00 -2.28483200E-03 -3.07309711E-04  1.04898901E-05 -6.29371694E-01
  2.72863005E-03 -6.77590917E-01 -3.72896406E-01 -1.27904166E+00  1.64832529E-02
 -1.68115075E-01 -1.81250589E-01  3.73814026E-01  1.28852092E+00 -1.88549626E-02
 -1.68791907E-01  1.80061879E-01 -1.85821656E-03 -7.13644606E-03  1.86600805E-02
  1.55710635E-01 -8.61085889E-04  3.36178136E-02 -6.67000096E-01  4.31838498E-01
 -2.33328113E-01 -1.21177633E-01 -8.29939380E-02 -1.13033380E-01 -5.15623468E-01
 -1.98890611E-01  1.84829672E-03  7.08735893E-03 -1.80105393E-02 -1.55771994E-01
 -1.35874751E-03 -3.36916420E-02  6.66912967E-01  4.33827549E-01  2.33364326E-01
  1.21084724E-01  8.31157548E-02 -1.12591113E-01  5.16426971E-01 -1.97136456E-01
 -7.57072031E-02  2.08051098E+00  6.60660215E-01  1.90954049E-01 -6.24633426E-02
 -5.01677295E-01  2.61293583E-01  2.35358360E-01  5.17288514E-01  6.97229426E-02
  5.01229855E-01 -2.57834530E-01 -2.38131420E-01  5.18390278E-01 -6.88389401E-02
  7.60007079E-02 -2.09120057E+00 -6.60654012E-01  1.92345805E-01  6.23601803E-02
  8.26613881E-03  4.24447929E-02 -7.40823538E-01 -7.14016456E-01  1.70570854E-03
 -5.69269061E-03  1.23821675E+00  1.87439171E-01 -4.61140013E-02  7.34245898E-01
  3.85629735E-03  8.07541609E-03 -1.01228912E+00  2.45034338E-02  5.77924813E-03
  2.87739948E-02 -7.74259862E-01 -9.21877161E-02 -1.63506270E-02 -1.25393230E-03
 -2.35451501E+00 -4.39218081E+00  1.76240074E-04 -1.27713734E+00 -2.35559346E-02
  3.13729641E-02 -1.33715979E+00 -1.44004161E+00 -2.25323107E-03 -1.46793278E-02
  5.23958183E-01 -2.18565350E-02 -2.19972538E-02  3.13142546E-03 -3.07605930E+00
  3.52421224E+00 -9.70363039E-02  1.06513781E+00 -4.39110348E-02 -9.94599629E-02
  1.46191076E+00 -2.04768769E+00 -1.44317335E-02 -6.50987850E-02  1.03340854E+00
 -9.45488823E-01  4.09809926E-03  4.13583468E-02  5.53920244E-01 -1.91073929E-01
  3.12900484E-01 -2.46391806E-01 -5.97287685E-02 -2.54168345E-02  3.32887821E-01
 -8.47357104E-03 -2.07889590E-03 -1.39274377E-02  5.12030487E-01 -2.09645314E-02
  2.35513905E-02  4.72568271E-03 -2.73708242E+00 -3.68187171E+00 -7.30599602E-02
  1.06726518E+00 -2.47252535E-02  7.78684890E-02  1.48686807E+00  2.04404460E+00
  6.03667443E-03  3.00034157E-02 -7.96947441E-01 -9.28518927E-02  2.17653097E-02
 -8.70911944E-04 -2.05886655E+00  4.62114418E+00 -5.33304353E-04 -1.28510670E+00
 -1.01221306E-02 -1.68733363E-02 -1.31748879E+00  1.43281331E+00 -1.23012333E-02
 -5.11430510E-02  3.35102924E-01  4.00659841E-01 -9.06909049E-04  3.32882076E-04
 -1.94301675E+00  1.44555357E-03  1.98821534E-02  3.97435407E-01  1.47368812E-03
  4.77958170E-03 -4.64393825E-01 -4.07773051E-03  1.83975526E-02  7.92364743E-02
 -5.70887474E-01  2.40211488E-01  1.02845876E-03  1.26456075E-02 -2.49647588E+00
  6.39529736E-02 -1.99010577E-01 -3.43320305E-01 -1.65541000E-02  1.34418975E-02
  1.28897889E+00  2.29504728E-02  2.82425573E-02  1.44837469E+00 -4.60245839E-01
 -3.87572076E-02 -3.98888622E-02  9.09526342E-03  1.34824823E+00 -4.65613322E-01
  5.82704585E-02 -4.44610681E-02  4.75539574E-03  1.88103140E-02 -2.06703604E-01
 -3.40946778E-02 -2.64408237E-02  6.23596696E-04  2.08582798E-01  6.61804646E-02
 -2.87998231E-03 -1.26755267E-01 -2.05641965E-03 -8.14589620E-04  1.40129986E-01
  1.74748396E-01  4.95223019E-03  1.96348275E-02 -2.15769087E-01 -3.52125422E-02
  2.83866289E-02  1.82925079E-03  2.09311464E-01 -6.95566803E-02 -1.17127901E-02
 -1.29820831E-01 -5.15071147E-03  3.95895662E-03  1.39030800E-01 -1.77497277E-01
  8.76976729E-02 -3.65398020E+00 -9.93615307E-01  1.56303661E-01  9.01551566E-03
 -9.82489225E-02  2.66139883E+00 -9.42010044E-01 -2.15277683E-01 -4.56502027E-02
 -9.14755487E-02  2.63977369E+00 -9.74916789E-01  2.43281137E-01 -4.37812863E-02
  8.99759878E-02 -3.70031892E+00 -1.01904147E+00 -1.59905141E-01  8.61646968E-03
  4.09883068E-05  2.35332272E-04 -3.72220399E-03 -6.94528234E-03 -6.16421319E-02
 -4.28543357E-05  1.04687719E-02 -1.47243260E+01 -6.55680414E-03  9.51405006E-03
 -2.17652121E-03 -7.06994944E-01 -1.16922220E-02 -2.37649191E+00  1.54561835E-02
  7.28660308E-02 -1.37275191E+00 -4.27480673E-02 -3.11899940E-01  7.66454025E-03
  1.09481413E+01 -8.77565544E+00 -1.67701816E-01 -6.11006819E-01  5.26656579E-01
 -5.54618905E-01  3.07418712E-01  4.56446087E-01  7.82559115E-04  2.10405841E-03
  3.54007530E-02  9.73416425E-03  2.36590153E-02  6.88821378E-02  1.26915109E+01
  6.13821919E+00  9.84504766E-01  3.72534597E-01  7.41526032E-01  8.17521588E-01
  1.23675395E+00  1.51324794E-01 -1.80305515E-04 -8.18710657E-04  1.36335550E-02
 -1.08756310E-02 -3.78994535E-01  4.43901106E-04  1.59676118E-02  1.50775408E+01
  5.70037060E-03  6.59249441E-05 -2.07169084E-03  2.05028050E+00  3.50679300E-03
  1.40671610E-01 -8.14677557E-04 -2.32921774E-03 -2.66996759E-02 -8.40568180E-03
  2.37862037E-02 -6.88497750E-02 -1.27601870E+01  6.06759809E+00 -9.85429702E-01
 -3.51326661E-01 -7.42586069E-01  8.23236395E-01 -1.20314524E+00  1.99933305E-01
 -1.53103856E-02 -7.21509882E-02  1.35383932E+00  3.98004092E-02 -3.11418254E-01
 -7.92307425E-03 -1.09950247E+01 -8.67344507E+00  1.69143184E-01  5.81462516E-01
 -5.26930699E-01 -5.57695667E-01 -3.30474409E-01  4.83785390E-01 -1.15752404E-04
 -4.76208902E-04  2.91360340E-03  4.86112305E-03  1.74780867E-01 -6.11074670E-05
 -2.05099299E-02 -7.16399322E-01  9.05451995E-04  3.79689907E-03 -1.05802158E-03
 -3.19759448E-01 -5.45599551E-03  2.08418485E-01  1.90780473E-04  8.26723782E-04
 -6.11322394E-03  2.41573341E-03 -7.01516754E-02  1.16465900E-04 -2.74592111E-02
 -4.94651498E+00 -3.27862663E-03 -5.86805587E-03 -2.35752755E-03 -1.13995724E+00
  1.19599369E-02 -2.03873650E+00 -7.50527333E-01 -4.21612957E+00 -2.64801869E-01
 -8.43703942E-01 -1.88273576E-01  7.49927418E-01  4.24544526E+00  2.53823945E-01
 -8.42923717E-01  1.87084590E-01  1.01826155E-02  4.27972440E-02 -4.85358614E-01
 -2.20168855E-02 -1.25532979E-01  3.85066598E-02 -1.27247518E-01  3.64631800E-01
 -2.93527507E-01 -1.66557747E-01 -1.03822537E-01 -1.27605403E-01 -2.09503567E-01
  1.59898259E-01 -1.00606577E-02 -4.23013404E-02  4.79705000E-01  2.14368502E-02
 -1.24363520E-01 -3.83031193E-02  1.31280423E-01  3.61614757E-01  2.92125081E-01
  1.63790585E-01  1.04202131E-01 -1.25898597E-01  2.11978608E-01  1.55649790E-01
 -8.81646214E-02 -2.06677395E+00 -1.19251244E+00  3.28701253E-01 -8.12863894E-02
  3.24841628E-01 -3.25733605E-01 -1.46237047E+00 -1.11811574E+00  8.47715251E-02
 -3.28362851E-01  3.81446477E-01  1.44064440E+00 -1.11395862E+00 -8.71908879E-02
  8.91711016E-02  1.98887264E+00  1.17190617E+00  3.25419263E-01  8.10326830E-02
  7.47326459E-05  3.33229808E-04 -7.68345392E-03  8.05138615E-04  5.90652170E-01
 -8.09975032E-05  1.94676519E-03  8.89706148E+00 -1.46117096E-03 -8.86153384E-03
 -1.55694637E-03  5.37407614E-02 -3.64072278E-03  1.06936931E+00  2.14515176E-03
  1.01618511E-02 -2.86359685E-01 -1.02091820E-01  3.39722115E-02  6.26637355E-04
 -7.43012047E+00  5.51236895E+00  3.11726586E-02 -4.98060533E-01 -2.69530540E-02
  4.86957381E-02 -2.23007272E+00 -4.22849733E-01 -2.09498074E-02 -9.52423841E-02
  1.74662330E+00 -1.73852573E-01  2.28745271E-01 -9.95151527E-03 -9.40205043E+00
 -2.20992779E+00 -1.21525072E-01  7.62664018E-01 -4.71239960E-02 -7.74672509E-02
  2.73132398E-01 -6.22987634E-01  1.08104731E-04  4.96502506E-04 -8.94263766E-03
  3.61808894E-03 -2.84411540E-01 -8.93545392E-05  4.72913116E-04 -8.13587107E+00
  1.22813506E-03 -3.05553977E-03 -1.90619138E-03 -2.04256304E-01 -1.51269975E-03
 -1.85216075E+00  2.08761527E-02  9.49338834E-02 -1.74118970E+00  1.71848031E-01
  2.28956644E-01  9.86187777E-03  9.42259288E+00 -2.19911145E+00  1.15964962E-01
 -7.63066733E-01  4.82711986E-02 -7.47658685E-02 -2.93395070E-01 -6.41888989E-01
 -2.15235979E-03 -1.02350410E-02  2.90682726E-01  1.07739881E-01  3.51322512E-02
 -3.82648506E-04  7.43270652E+00  5.47442438E+00 -2.48587582E-02  5.09042929E-01
  2.64988641E-02  4.42368236E-02  2.22576992E+00 -4.29620861E-01 -1.08744983E-04
 -4.75628827E-04  3.81299280E-03 -2.41272025E-03  4.26232229E-01 -2.62301501E-04
  1.19568483E-02 -2.16919531E+00 -1.28292636E-03  3.95595046E-03  5.59461791E-04
  3.15947581E-02  4.53201039E-03 -7.41263160E-01  8.50212019E-07 -9.46406626E-06
  2.69099201E-04  3.06314234E-05  1.02685123E-01  4.10595582E-05  8.94393646E-03
  1.84299770E+00  1.37052919E-03  1.00473043E-03 -3.65310365E-04  1.62040551E-01
 -3.43522826E-03  2.31221735E-02  2.69571693E-01  2.68838169E-01 -1.10731874E-02
  1.53301198E-02 -1.88751582E-03 -2.69555009E-01 -2.80188128E-01  1.41853996E-02
  1.65324650E-02  3.14057308E-03  2.41068364E-03  1.13054910E-02 -2.14144350E-01
  1.87699846E-01 -1.32924654E-01 -3.65082929E-03 -9.02803289E-01  9.35714135E-01
  2.86073730E-02 -1.58600384E-01  1.02443669E-02  1.15777574E-02 -8.25792523E-01
  3.37211804E-02 -2.61964496E-03 -1.21985238E-02  2.24526208E-01 -1.86709302E-01
 -1.34998139E-01  3.45928229E-03  8.98789539E-01  9.39536566E-01 -2.75398185E-02
  1.59890730E-01 -9.53914713E-03  1.20671027E-02  8.25954813E-01  4.05152688E-02
 -6.14677796E-01  1.30717675E+00 -9.73234532E-02  7.61858319E-01  1.06427378E-02
 -1.41241433E-01  2.73639215E+00  5.80688330E-02  6.75337676E-01 -8.44182229E-03
  1.42492605E-01 -2.74287042E+00 -4.97484646E-02  6.71079175E-01  8.13019167E-03
  6.16751253E-01 -1.29141388E+00  1.01904690E-01  7.62763722E-01 -9.51679282E-03
 -1.85215097E-02 -8.59829190E-02  1.87329797E+00  1.61249740E-01  1.21272655E-01
  9.50746785E-05 -5.57034798E-01 -3.15878097E+00  4.03391750E-02  1.47853607E+00
  3.46315755E-02 -5.05523721E-02  1.25611077E+00  7.25516658E-01 -6.00330252E-03
 -2.47813676E-02  2.47260186E-01 -4.38095390E-01  2.12726249E-01 -3.64773588E-03
  3.72814256E+00 -2.02310468E+00 -7.59984708E-02 -5.99996985E-01  1.62514399E-02
 -7.19331191E-02  5.60255327E-01  2.66563594E-01  7.91650233E-03  3.37990900E-02
 -6.32443560E-01  1.34127414E-01  1.13217641E-02  1.18242202E-02  1.15574855E+00
  1.59757231E+00  1.69661257E-01 -1.95705593E-01  3.20220131E-02  1.09526083E-01
  6.39636372E-01 -8.26160474E-01 -1.02761718E-02 -4.65928225E-02  8.74760308E-01
 -2.10476124E-01 -1.12490211E-01  5.47649016E-03  5.62606137E-01  2.94397342E+00
 -3.21684277E-02  4.61297566E-01  6.40509925E-02  2.09277838E-01 -6.81080190E-01
 -2.65490780E-01  1.33551944E-02  5.97914554E-02 -1.13738255E+00  2.49464645E-01
  4.53655608E-02 -5.14159370E-03 -3.07318687E+00  2.14825915E+00 -5.14952292E-02
 -4.26969636E-01 -8.81275165E-02  4.53085006E-02  3.27819848E-01  4.90204109E-01
 -4.51263149E-03 -1.66327427E-02  1.10071885E-01 -2.94551144E-01 -9.05651983E-02
 -4.46249508E-03 -1.48449447E+00  1.61925922E-02 -4.17061568E-02 -4.95209550E-01
 -5.88096015E-02 -2.32209390E-02  1.50187405E+00 -6.58121412E-01  3.55127123E-02
  1.52698129E-01 -1.16736045E+00  2.89105374E-01 -1.46340789E-01  4.81229663E-04
 -8.83445108E-01  1.33135933E+00  2.02399915E-02 -1.06701651E+00  5.37328252E-03
 -3.97615733E-02 -8.49879718E-01  8.99902644E-02 -8.33112853E-03 -3.47684508E-02
  2.29503408E-01 -1.55952081E-01  6.03391219E-03  2.76863091E-03 -1.34290776E-01
 -7.79050307E-01 -4.59972427E-02  2.28206919E-02  9.45271479E-03 -1.42126035E-01
  1.03279850E-01 -3.39963169E-01 -6.47925245E-02 -5.41859227E-01 -9.76378388E-02
 -1.20603711E-01 -2.52198597E-02  1.04840948E-01  1.01486514E+00 -3.19443118E-02
 -2.17366728E-01 -1.24255267E-02  1.30159296E-02  5.71522674E-02 -6.60503535E-01
 -5.78176695E-02 -1.99325828E-01  4.33258983E-03  4.45949092E-02  4.73212220E-01
 -3.65236795E-02  2.27892296E-02 -1.44309766E-02 -1.51730801E-02 -5.95332200E-02
  4.62729081E-01  2.66302365E-02  1.14258847E-01 -1.34337915E+00 -5.40693478E-02
  2.93914915E-01 -3.85386838E-03 -1.92407332E-01 -7.88395707E-01  2.97245408E-02
 -1.73554123E-01  9.14944335E-03 -1.20975538E-02 -4.19363254E-01 -5.57632792E-01
 -4.28055465E-01  1.01494112E+00 -2.08203023E-01  5.20996824E-01 -1.76140524E-02
 -6.89461807E-02 -2.13123588E-01 -4.79564272E-01 -3.18654421E-01  2.23967291E-02
 -1.44586420E-02 -1.26603686E+00  2.67853916E-01  1.81712596E-01  8.29985199E-03
 -3.28124412E-01  4.33154250E-01  3.59975103E-01  9.93218239E-03 -6.49644289E-04
 -4.94059277E-03 -2.29513237E-02  5.00990837E-01  4.29508746E-02 -4.40592435E-01
 -1.35299381E-04 -1.42890792E-01  1.19958575E+01  1.64103896E-02  3.96659409E-01
  9.11831756E-03  2.04881205E-01  3.39676262E-01 -2.67886816E+00  1.31508067E-03
  9.39743397E-03 -2.05357107E-01  1.67668048E-01 -1.84691251E-01 -2.33052562E-03
 -9.58996179E+00  3.58833456E+00  5.34493553E-02  4.35431042E-02 -1.54278738E-01
  1.80197532E-01  1.99244460E+00  8.36800710E-01  1.26612726E-02  5.95239847E-02
 -1.15218643E+00  2.62222228E-01 -1.07616106E-01 -3.07921024E-02 -8.34852478E+00
 -7.10986058E+00 -4.03004302E-01 -5.03807585E-01 -2.40714316E-01 -2.88172539E-01
 -4.51466744E-01  4.32516777E-01 -2.74361402E-03 -1.24380915E-02  2.33273029E-01
 -5.59138399E-02  4.14914519E-01  1.41820856E-03  1.46809947E-01 -1.11775680E+01
 -1.06185031E-02  1.21943393E-01  1.84858415E-02 -7.99188797E-01 -1.83146874E-01
  9.66349974E-01 -6.94458431E-03 -3.43790815E-02  6.77145372E-01 -1.59939470E-01
 -9.82570254E-02  3.27215013E-02  7.83607349E+00 -6.96901849E+00  4.33446477E-01
  3.38031990E-01  2.26124079E-01 -3.08603054E-01  7.09110853E-01  7.84498572E-01
 -4.16712356E-03 -2.06508558E-02  3.03769453E-01 -3.64123470E-01 -2.66443404E-01
 -9.43210261E-06  1.01885813E+01  4.13530076E+00 -8.75465507E-02 -3.36970218E-01
  1.43487009E-01  1.95611105E-01 -1.43759258E+00  5.93837486E-01  9.54843257E-03
  4.10518417E-02 -3.13737936E-01  7.74830865E-02  5.53186480E-01 -2.03275681E-04
 -2.35698266E-01 -5.00083277E+00  3.00322176E-03 -2.86363492E-01  1.79325744E-03
  1.42275651E-01 -2.27651677E-01 -3.55689077E-01 -2.23080413E-03 -9.31480476E-03
  6.15905476E-02 -4.18477628E-02 -2.08182949E-02  7.48368103E-04 -3.48989016E-02
  2.95149204E+00 -1.15369924E-02  7.31398141E-03  3.95927703E-03  5.37401955E-01
  2.86243327E-02  1.27457072E+00  3.28311872E-01  2.98532891E+00  1.05445601E-01
  6.45665076E-01  2.01806503E-02 -3.17063797E-01 -2.85906492E+00 -1.39319376E-01
  6.19750716E-01 -2.99309090E-02  3.06552845E-02  1.29296910E-01 -1.54180189E+00
 -3.72387828E-03 -2.45002903E-01 -1.49392371E-02 -4.78962855E-01  7.74317559E-01
  1.23169700E-01 -3.87897301E-01  4.29705442E-02  4.97026500E-02 -7.51146767E-01
  3.14071268E-01 -2.00275427E-02 -8.33391729E-02  1.00433485E+00 -2.58374422E-02
 -1.12321856E-01  1.48748864E-02  4.38884240E-01  4.35229201E-01 -1.22350354E-01
  3.47229066E-01 -4.38441693E-02  5.01983911E-02  6.21805279E-01  4.05418168E-02
  7.41926028E-02 -8.55730754E-01  1.07781799E+00 -9.07463030E-01  3.14525821E-02
  8.55500207E-02 -2.11393153E+00  1.36862112E+00  2.02934790E-01 -2.32085898E-02
 -1.06740449E-01  1.71578318E+00 -1.42425324E+00  3.38357366E-01  3.25570331E-02
 -2.77117875E-01  1.24673252E+00 -1.03760458E+00 -1.04511713E+00 -3.72222647E-02
 -6.89265681E-06 -2.72255130E-05 -6.94838103E-05 -4.31226626E-04  7.20824875E-01
  1.75940979E-04  1.63964440E-03  1.57658842E+01  6.38508165E-03 -6.59555620E-04
  9.94267445E-04  5.49127551E-02 -2.16686211E-03  3.11058107E-01  7.12051282E-03
  3.45103670E-02 -7.20680141E-01 -3.77291326E-01  7.85501203E-02 -5.59068240E-04
 -1.50770553E+01  4.21687200E+00  1.84720798E-02 -3.19488006E-01 -4.35619445E-02
  6.45062045E-02 -1.01384927E+00 -2.33133078E+00  9.72121569E-03  4.79230106E-02
 -8.20226825E-01 -4.44820875E-01 -4.90630466E-01 -1.53199723E-02 -1.25818737E+01
 -7.93435276E+00 -1.87555692E-01  8.01411513E-02 -8.21344807E-02 -1.19115525E-01
  2.66273603E+00 -2.38354236E+00  5.57672753E-06  2.17329061E-05 -3.45892614E-04
 -2.80404935E-04 -7.72608600E-01  3.09339240E-06 -8.19615516E-03 -1.44170795E+01
 -1.13306859E-03 -1.93111189E-04  8.48796942E-04 -3.75052745E-01  5.19898049E-03
  5.15584724E+00 -9.74558000E-03 -4.80372999E-02  8.22363436E-01  4.44451858E-01
 -4.90829925E-01  1.53358000E-02  1.25816829E+01 -7.93602225E+00  1.85934806E-01
 -7.96376331E-02  8.18543973E-02 -1.19597852E-01 -2.66223561E+00 -2.38350274E+00
 -7.09543279E-03 -3.44055280E-02  7.18839618E-01  3.77594703E-01  7.86318760E-02
  3.93423129E-04  1.50788549E+01  4.20994412E+00 -2.36031533E-02  3.19400851E-01
  4.16438976E-02  6.57067294E-02  1.00939874E+00 -2.33269267E+00 -2.22558773E-05
 -9.59675709E-05  7.45221483E-04  2.21996844E-04  5.48318855E-02 -1.40649689E-05
  7.38320410E-04 -1.19253937E+00 -1.05638154E-03  8.49335389E-04  4.92273854E-04
  8.44763283E-02 -1.35174788E-03 -3.28377582E-01  9.12213484E-06  4.12108612E-05
 -3.07471092E-04  2.32265106E-04 -1.34802524E-01 -6.90346006E-05 -1.27621643E-03
 -3.20826212E-03  3.56308711E-04  1.30612375E-04  6.59285524E-04  1.95119817E-01
  1.20872596E-03  1.77946089E+00 -1.82520879E-02  2.31482242E+00  1.33987410E-01
  2.59928354E-01 -7.92129280E-02  1.84066609E-02 -2.31397369E+00 -1.33671478E-01
  2.59610791E-01  7.96666514E-02  7.09260337E-04  2.53541890E-03 -4.38857664E-02
  3.01173303E-02 -1.91426993E-02 -7.49692998E-03 -1.86836815E-01  1.53781002E-01
  6.84921751E-02  1.92842471E-02  2.35797317E-02  2.65961741E-02 -1.43148993E-01
  7.32486299E-03 -7.04759715E-04 -2.52181738E-03  4.38846301E-02 -3.01161801E-02
 -1.91195839E-02  7.35757745E-03  1.84700716E-01  1.52542157E-01 -6.72999366E-02
 -1.96652131E-02 -2.34476735E-02  2.61357701E-02  1.42553707E-01  8.30744360E-03
  3.73725421E-01 -2.18263280E+00 -2.75659050E-02 -7.12845633E-01  1.52001055E-02
  7.05105524E-02 -1.53943284E+00  6.54259179E-02 -3.77969530E-01 -1.12617993E-02
 -7.09150631E-02  1.54221839E+00 -6.59477242E-02 -3.78284818E-01  1.15375840E-02
 -3.73213340E-01  2.17894493E+00  2.62662061E-02 -7.12644541E-01 -1.60468542E-02
 -2.81335043E-05 -1.42663159E-04  2.73061269E-03  2.04384226E-04 -1.11798876E-02
  2.02843756E-04 -1.94338400E-02 -8.36220262E-01  3.93157693E-04  8.90409765E-04
 -1.62757273E-04 -2.33754974E+00 -1.04535122E-02  3.60280970E-03  2.07693802E-04
  9.64342027E-04 -2.00163582E-02 -1.62610618E-03 -1.70637728E-03 -1.21498858E-01
  7.17136065E-01 -2.55474128E-01 -1.08603275E+00 -1.01691824E-02  4.39972170E-01
 -8.24729003E-01 -2.90024267E-02  9.57379374E-02 -1.75977331E-04 -9.42151736E-04
  2.29143063E-02 -3.38370398E-03  2.28071540E-04  2.69695549E-02  7.10787920E-01
  2.87437075E-01  2.19935624E-01  1.39795290E-02  3.23334845E-01  4.77005140E-01
  1.99283784E-02  8.13941600E-02  3.86622205E-06  9.70728837E-06  1.46769035E-04
 -9.25646213E-05  7.24620000E-05  5.01822952E-05  1.21242509E-02  8.44225998E-01
  2.52373726E-04  1.48812912E-04  6.34108884E-04  6.34362265E-01 -1.15369512E-02
 -2.05802675E-02  2.26628516E-04  1.14031329E-03 -2.62152128E-02  1.24208661E-03
  1.70016935E-03 -2.68488862E-02 -7.20030063E-01  2.88731713E-01 -2.19870437E-01
 -1.54772104E-02 -3.23336987E-01  4.76963307E-01 -2.96778070E-02  8.54551232E-02
 -2.00654331E-04 -9.44947457E-04  2.01161902E-02  2.83558120E-03 -1.04644725E-03
  1.21477919E-01 -6.92384343E-01 -2.72173228E-01  1.08628881E+00  9.76786977E-03
 -4.40594447E-01 -8.24290947E-01  1.96324093E-02  8.51312724E-02 -2.84404181E-05
 -1.20933743E-04  7.21564094E-04  8.24242134E-04 -6.51360246E-03  8.52289596E-05
  2.14884451E-03  8.74825343E-02 -2.96460722E-04 -3.86246644E-03 -2.31443029E-03
  3.67327451E+00 -3.80566306E-03 -2.82349808E-03 -5.47273392E-05 -2.41060855E-04
  1.84972903E-03 -1.38183785E-03  5.45276124E-04  9.25477731E-06  1.42394996E-03
 -3.33687630E-01 -4.30389430E-04  7.83333119E-04  1.05771059E-04 -1.58730670E-01
  7.97864202E-04 -1.37837233E-01 -4.85981768E-02 -3.15413545E-01 -2.60431594E-03
 -5.33230824E-02 -4.50205506E-02  4.94383103E-02  3.16401499E-01  1.92271338E-03
 -5.31291332E-02  4.46275924E-02 -3.82406066E-04 -1.57882974E-03  1.92646940E-02
  1.40992993E-03  1.78632142E-03 -2.31604309E-01 -6.42223982E-03 -5.50274373E-04
  2.63354076E+00  4.30414699E-03  8.81217791E-01  9.40644155E-01  2.37140172E-03
 -4.70880880E-03  4.01039100E-04  1.64840271E-03 -1.98356023E-02 -1.43113908E-03
  2.40111670E-03  2.31644847E-01  3.36260770E-03 -5.40662983E-03 -2.63390674E+00
 -5.92883595E-03 -8.82348077E-01  9.39727774E-01 -4.92296500E-03 -4.66278573E-03
 -2.15383009E-02  2.02098495E-02 -3.60007493E-02  4.15368652E-02 -2.20724253E-01
  1.54839559E-02  1.03650133E-02 -5.30894897E-02 -3.49540185E-02  1.22784798E-01
 -1.62011878E-02 -1.88821068E-02  5.53234984E-02 -3.56923836E-02 -1.22644369E-01
  1.88221603E-02 -1.18247382E-02  3.64469762E-02  3.85343791E-02  2.20335513E-01
  9.69614717E-03  4.38386451E-02 -6.39810407E-01  1.32648179E-01  6.19085146E-04
 -1.85178220E-04  6.32515868E+00  8.30386813E-03 -2.78044252E-02  1.24265415E-01
 -3.66805394E-02 -7.41872550E-03  4.32403781E+00  1.76179137E-03 -5.76821613E-03
 -2.23656844E-02  3.08801601E-01 -3.91520930E-01  2.58568148E-01  6.22607450E-03
 -3.18964933E+00 -2.57028263E+00  8.07133043E-02 -7.80195754E-02  4.25146147E-02
  2.13807359E-02  2.13612573E+00 -1.67889676E+00 -4.28289170E-03 -1.58317837E-02
  2.13978109E-01  4.50895196E-01  2.62285947E-01 -7.71699455E-03  2.27661490E+00
 -4.60040832E-01 -9.39206730E-02  1.35381308E-01  5.87058197E-02 -4.15074757E-02
  1.95551505E+00  8.52714192E-01 -4.29784264E-04  6.13685957E-04 -1.22699496E-01
  1.21789316E-02 -5.09955122E-04 -1.27349405E-02 -4.14521542E+00 -8.49013753E-03
  1.51479710E-02 -5.81029230E-02 -1.28474852E-01  1.75250467E-03  4.35312025E+00
 -3.31096389E-03 -4.25752833E-03 -1.57199331E-02  2.12226668E-01  4.51446968E-01
 -2.62376834E-01 -8.04912749E-03  2.29579154E+00  4.60231891E-01 -9.57477979E-02
  1.35047714E-01  5.68036833E-02  4.37932048E-02  1.95454153E+00 -8.58809584E-01
 -5.74774953E-03 -2.22710333E-02  3.07172590E-01 -3.90988606E-01 -2.57962801E-01
  6.76418715E-03 -3.17541955E+00  2.58010071E+00  8.84624083E-02 -7.83656610E-02
  4.06403043E-02 -2.73079942E-02  2.14216412E+00  1.67358948E+00  1.35635368E-02
  5.74859536E-02 -3.71686475E-01 -3.71374419E-01  1.46102359E-04 -7.72019159E-05
 -3.46372545E-01 -1.44072834E-03 -2.39717080E-02 -2.10662526E-02 -7.24640598E-03
  9.92770230E-03  8.65348679E-01  1.39994111E-03  1.89318091E-02  8.28310151E-02
 -6.29571541E-01  4.82233777E-01 -1.61984547E-04 -5.94761255E-03 -2.59095824E-01
  1.82806162E-05  9.64516870E-02 -2.57710617E-01 -3.75713620E-02 -3.01873454E-04
 -2.83972524E-01 -9.25899166E-04 -7.43838190E-02 -5.17180960E-01  1.80868874E-01
 -5.05308548E-02  4.65152863E-02 -7.40803747E-02 -5.13886534E-01  1.81224235E-01
  4.93843602E-02  4.69740781E-02 -3.72510850E-03 -1.40383827E-02  1.22175467E-01
  7.76738913E-03  7.40175964E-02 -9.38958641E-04  5.56416380E-01 -4.08669953E-01
  1.04510928E-02 -9.64646297E-03  5.56825673E-03  3.79897122E-03  2.58304247E-01
  1.57687262E-01 -3.74181472E-03 -1.41088659E-02  1.23097621E-01  7.72821620E-03
 -7.44023104E-02  2.59795217E-04  5.56322693E-01  4.10749366E-01 -3.28904161E-03
 -9.25713530E-03  1.32652750E-03  1.17687008E-03  2.59696522E-01 -1.56572930E-01
  3.88073592E-01 -3.68565586E-01  1.25095992E-01 -4.16428290E-01  9.39891629E-03
  2.27133010E-01  6.21066433E-01 -3.12603600E-01 -3.23158238E-01 -2.17243772E-02
  2.28769600E-01  6.14262334E-01 -3.10645596E-01  3.24711828E-01 -2.24625797E-02
  3.88758564E-01 -3.72719396E-01  1.25779700E-01  4.17809216E-01  1.07973669E-02
 -1.05899638E-05 -4.88944002E-05  4.82214626E-04 -3.61319452E-04  3.71550714E-01
  3.11434701E-04 -3.14140929E-03 -3.78788528E+00  1.46063529E-04 -7.66528982E-05
 -5.11039015E-04 -5.84790017E-02 -3.41702444E-03  2.02272317E-01 -9.76282649E-03
 -4.51322228E-02  9.44449494E-01  1.69422826E-01 -3.06626190E-02 -5.29739390E-03
  3.04209715E+00 -6.92541397E+00 -5.64440819E-02  1.86081402E-01  3.82864825E-03
 -4.12082898E-02  8.25485548E-01 -3.13218543E+00  2.18716798E-03  5.92474016E-03
 -1.53153558E-01  2.48419987E-01  3.00171050E-01  1.23725766E-02  1.38611863E+00
  8.97090414E+00  1.33248790E-01 -1.25875353E-01  1.09418708E-02  5.68389241E-02
 -1.73793028E+00 -3.03843824E+00 -4.24101188E-06 -2.94010922E-05  8.24924916E-04
 -6.83237647E-04 -4.30567562E-01  3.19626258E-05  4.47660390E-04  1.63447851E+00
 -3.44059621E-04  2.02748270E-04  4.00430612E-04  2.04371073E-01 -2.09912060E-03
 -2.96338615E+00 -2.18113631E-03 -5.92179526E-03  1.53719164E-01 -2.48797749E-01
  3.00264759E-01 -1.21688599E-02 -1.38601641E+00  8.96786866E+00 -1.28760983E-01
  1.26167224E-01 -1.21926003E-02  5.71658166E-02  1.73795971E+00 -3.03795914E+00
  9.78712321E-03  4.52238905E-02 -9.45687919E-01 -1.69228492E-01 -3.02257386E-02
  5.57535359E-03 -3.04236116E+00 -6.92230119E+00  5.34553555E-02 -1.86668118E-01
 -5.37562414E-03 -3.96918595E-02 -8.31737478E-01 -3.13145430E+00 -2.67586368E-05
 -1.12098622E-04  7.99969641E-04  1.68602491E-04  1.13752500E-01 -6.04783671E-05
  2.19643470E-03  9.17883258E-01  6.50824560E-04  2.96935521E-04 -1.46234859E-03
  4.88310139E-02 -4.39805248E-03  1.55080267E+00 -6.02413707E-06 -2.38938613E-05
  1.67843465E-04 -6.89069780E-05  8.66254281E-02 -2.79815144E-05 -9.27167474E-04
 -2.98823749E-01 -8.63229343E-04 -2.71742281E-05 -4.41399280E-04 -1.37144118E-01
  3.62163311E-05 -1.50976220E+00 -5.62958551E-02 -2.22159533E+00 -1.39281404E-01
 -4.89408009E-01  1.07063769E-01  5.66951957E-02  2.22273559E+00  1.38537850E-01
 -4.89049609E-01 -1.07956885E-01  1.25616852E-02  5.20242265E-02 -5.83858844E-01
 -1.17954785E-01 -1.53340124E-01 -2.07205690E-03  7.12192337E-01  1.44729429E-01
  3.12336737E-02 -2.45829700E-01  9.98476662E-03  1.11654017E-02  2.07605903E-01
  3.20083740E-01 -1.25510514E-02 -5.19836185E-02  5.83559807E-01  1.18235290E-01
 -1.52970431E-01  2.37768610E-03 -7.16070820E-01  1.41784390E-01 -3.25996738E-02
  2.45847059E-01 -1.04680647E-02  1.20935840E-02 -2.09473172E-01  3.21145513E-01
  5.57364632E-01 -2.39074423E-01 -9.16428952E-01  1.08827063E-01 -1.40469774E-02
 -7.19175658E-01  2.04375396E+00 -8.60701231E-01  4.42859848E-01 -4.88926973E-03
  7.19025900E-01 -2.04166910E+00  8.59894039E-01  4.42516021E-01  4.54249599E-03
 -5.57041502E-01  2.34823204E-01  9.14713249E-01  1.08591374E-01  1.42954941E-02
 -1.03010753E-02 -4.43742845E-02  1.74403671E-01 -4.51456686E-01 -5.46485123E-04
 -1.74053663E-04  5.11613680E+00 -9.19854188E-03 -5.95491399E-03 -6.69298415E-01
 -3.63677674E-03 -1.35301672E-03  2.75400375E+00  1.18194160E-04  2.03567263E-03
  3.31760503E-03  3.75256344E-02 -4.11559351E-02  1.52426953E-02  4.57575709E-04
 -2.79997975E+00 -1.02965972E+00  4.02361771E-03  3.66081911E-02  2.51637280E-03
  4.35847786E-03  1.23930962E+00 -1.15997489E+00  2.89048177E-04  1.69511205E-03
  1.98084859E-02  1.29076674E-01  9.00615366E-02 -7.99503443E-04  1.53751617E-01
  4.22262262E-01 -4.65269759E-03  1.59750586E-01  3.67347638E-03 -7.98372296E-03
  1.36902833E-02  8.79407330E-02  7.30038945E-04  3.11896702E-03 -6.58651635E-02
 -2.23561812E-02  4.51599304E-04 -3.38070455E-04  3.20799232E-01  8.99827918E-03
  1.38100953E-03 -1.24467960E-01 -1.93173136E-02  8.31816800E-05  3.99716279E-01
 -6.36892907E-07  2.85629649E-04  1.68036049E-03  2.00387963E-02  1.28678758E-01
 -9.02334088E-02 -8.69994351E-04  1.38858658E-01 -4.24032205E-01 -5.38342417E-03
  1.59364025E-01  3.98528372E-03  8.12719336E-03  1.32904688E-02 -8.26094457E-02
  2.03968021E-03  3.31912680E-03  3.78024661E-02 -4.14095841E-02 -1.48873545E-02
  5.11070423E-04 -2.81446632E+00  1.03156336E+00  7.01560964E-03  3.71427690E-02
  2.63458985E-03 -5.97572782E-03  1.23874876E+00  1.16509947E+00 -5.65693525E-03
 -2.19761163E-02  2.05908783E-01 -3.19768928E-01 -4.03115417E-04  1.88137830E-04
  4.63073821E+00  4.05674287E-03 -2.34728052E-03  5.18157457E-01 -1.95726804E-03
 -1.86558197E-03 -4.27815967E+00 -4.50257739E-03  3.05090593E-03  1.25213881E-02
 -9.04747526E-02  5.47255966E-02  2.23390963E-06 -3.06338592E-04  2.01348388E-01
 -1.25536702E-03  3.45828806E-02 -5.16740431E-02  3.80941137E-03 -6.96728075E-05
  1.52924721E-02  2.74959926E-04  6.43687385E-03 -2.79565565E-01  3.86327071E-02
 -1.02625016E-01  1.59677969E-02  6.56059760E-03 -2.79444538E-01  3.85669970E-02
  1.02708495E-01  1.60932979E-02  4.71410007E-03  2.25098933E-02 -2.12797946E-01
  1.82867900E-01 -1.62193076E-01  1.09714421E-05 -3.14038522E+00  1.57948949E+00
 -8.66493118E-04 -3.20349946E-02  5.82252410E-04 -4.62280455E-04 -1.01873792E+00
 -1.08970364E+00  4.72311835E-03  2.25463423E-02 -2.13309163E-01  1.82560403E-01
  1.62542642E-01 -2.31147944E-04 -3.13862902E+00 -1.58407138E+00  1.11466615E-03
 -3.23183818E-02 -4.26559955E-04 -4.60139442E-04 -1.02101221E+00  1.08686948E+00
  2.07073539E-01 -1.62334319E-02  4.47303888E-01 -3.90800463E-01  1.48380289E-03
  7.75580126E-02  1.30987261E-01  6.32256117E-02  1.82833974E-02 -7.00924135E-03
  7.66256511E-02  1.33184269E-01  6.26224603E-02 -1.91821600E-02 -7.20471476E-03
  2.08024273E-01 -1.77892103E-02  4.45044173E-01  3.90826815E-01  1.31149032E-03
 -2.09239978E-05 -8.45463649E-05  1.28408023E-03 -2.44825492E-04 -1.16400283E-01
  1.77062820E-04 -4.85729563E-03 -2.44913834E+00 -1.31590078E-04  5.84531835E-05
 -4.27359457E-04  6.36874012E-03 -3.93901173E-03  5.27422690E+00 -5.29916957E-03
 -2.82449457E-02  5.16565018E-01 -3.82314231E-01  4.95860580E-01  9.62050764E-04
  4.44670811E-01  5.72897260E+00  1.36442348E-02 -8.13581725E-02  3.89457466E-03
  6.75862830E-03 -2.24340990E+00  1.14801208E+00 -1.16011997E-03 -8.30600243E-03
  2.90127741E-01 -2.96860671E-01 -1.81762135E-01 -4.25357300E-03 -1.89837726E+00
 -3.76039546E+00 -4.32198409E-02  3.89190261E-02  1.83322792E-03 -1.36418435E-02
  1.08349102E+00  1.27210721E+00  8.57817396E-06  4.35769912E-05 -8.66220156E-04
  1.71439678E-04  1.27911676E-01  4.22139634E-06 -5.32439929E-03 -1.46761134E+00
  5.05762871E-04  2.09766390E-04 -5.20702862E-04 -6.35308822E-02  2.50249648E-03
  1.38782045E+00  1.14769013E-03  8.24880989E-03 -2.88908043E-01  2.96580735E-01
 -1.81584289E-01  3.98805467E-03  1.90155702E+00 -3.74907398E+00  4.00101263E-02
 -3.94232930E-02 -6.33060302E-04 -1.31175260E-02 -1.08148670E+00  1.26758256E+00
  5.31461410E-03  2.83215319E-02 -5.18031615E-01  3.82828842E-01  4.95945017E-01
 -6.87875618E-04 -4.34781259E-01  5.71767906E+00 -9.95735267E-03  8.12799547E-02
 -2.87932084E-03  3.69084778E-03  2.23920352E+00  1.13938939E+00  1.19922940E-05
  4.36249356E-05 -2.71741403E-04 -2.68318941E-04  1.95884874E-01 -1.13902685E-04
 -7.92710768E-04  4.30435844E+00 -4.10960217E-04 -1.30932304E-04 -1.74979632E-03
 -6.61682601E-03 -4.27126785E-03  4.15553162E+00  1.75184450E-06  9.85319132E-06
 -1.02180919E-04  1.16163285E-04 -4.83591889E-02  1.74495930E-05 -8.11019615E-04
  4.74030362E-02  3.11188650E-04  1.06883290E-04  6.26595550E-05  3.88461376E-02
  2.65428073E-04  6.07122772E-01  2.51508912E-02  7.84941186E-01  6.91134112E-02
  1.75411744E-01 -4.60537667E-02 -2.51813966E-02 -7.83662309E-01 -6.89681760E-02
  1.74944058E-01  4.63492121E-02  1.59100240E-02  6.80833910E-02 -7.76598301E-01
 -1.57537520E-01 -2.67442151E-01  2.38173405E-04  1.75008505E+00  8.55389089E-02
 -4.09554827E-03 -3.15076196E-01 -1.40818428E-03 -1.50415812E-03  5.61538478E-01
  6.60129932E-01 -1.59093813E-02 -6.80908055E-02  7.76887613E-01  1.57717245E-01
 -2.67219033E-01  6.18687740E-05 -1.75042637E+00  8.30313140E-02  3.57175421E-03
  3.15254853E-01  3.92290671E-04 -1.23200994E-03 -5.62994986E-01  6.58825675E-01
 -3.29131216E-01  1.29866115E+00 -1.77313364E-01  5.18337325E-01  2.40682662E-03
  2.17116333E-01  8.23760040E-02  2.36306377E-01  4.91313515E-02  3.85517498E-03
 -2.16703789E-01 -8.40014673E-02 -2.35701370E-01  4.91766505E-02 -3.89975711E-03
  3.28058428E-01 -1.29844339E+00  1.76036803E-01  5.17358889E-01 -8.77822919E-04
 -1.82258846E-02 -8.14825804E-02  1.43229416E+00  6.15443182E-02 -4.57728228E-04
  1.48909430E-03 -1.04135775E+01 -1.34565053E-02 -1.63313284E-02 -2.62916344E-01
 -2.90558584E-02  2.30877250E-03 -5.41145730E+00 -1.58433098E-03  1.22121232E-02
  5.85308741E-02 -1.13857320E+00 -1.10771851E-02  6.21752933E-02  6.09362378E-03
  6.30744683E+00  1.07229739E+01  6.62622325E-02  3.97520543E-01  2.57278983E-02
  1.13744852E-02 -2.42960832E+00  5.42518802E+00 -1.43119537E-02 -6.48653474E-02
  1.17382430E+00  5.25493945E-02 -3.98236176E-02 -6.95917912E-03  6.64080848E+00
 -1.09854180E+01 -6.87434588E-02 -3.91151676E-01  4.70806267E-02 -2.26398815E-02
  2.77044027E+00  5.51882948E+00  1.54139519E-02  7.22846234E-02 -1.38517898E+00
  1.93220995E-01  4.46204886E-04 -2.63905771E-02 -1.08617455E+01  1.80938338E-02
 -3.34848196E-02  2.34927248E-01 -1.11316287E-01  4.31206755E-04  6.39816313E+00
 -5.72696229E-03 -1.43105486E-02 -6.48694335E-02  1.17436554E+00  5.18079043E-02
  3.99803297E-02 -6.82895123E-03  6.61476754E+00  1.09964065E+01 -6.61855220E-02
 -3.90469852E-01  4.49478482E-02  2.37029369E-02  2.76986637E+00 -5.51874144E+00
  1.22020597E-02  5.84752624E-02 -1.13710366E+00 -1.16233602E-02 -6.27560852E-02
  6.27541054E-03  6.27621395E+00 -1.07417491E+01  5.91750291E-02  3.97331672E-01
  2.39148947E-02 -8.38980702E-03 -2.43738301E+00 -5.42078348E+00 -9.47910899E-03
 -4.15568158E-02  2.92019918E-01  3.23853261E-01  9.99774961E-05 -3.37984496E-04
 -1.51010521E-01 -5.22394167E-04 -1.42960928E-02 -4.48268194E-02 -6.74189759E-03
 -5.21391681E-04 -2.72144702E-02 -1.37397168E-03  1.34944273E-02  6.17873102E-02
 -5.32407668E-01  5.09544633E-01 -6.05151635E-05 -1.82403288E-02 -6.68353048E-01
 -7.77957095E-04  5.81398746E-02 -9.01759078E-02 -9.21260238E-02 -1.85507669E-05
 -4.58112113E-01 -4.85899880E-04 -2.03427646E-02 -1.60229056E-01  2.93575077E-01
  2.19041559E-01  3.33806372E-02 -2.00776997E-02 -1.58139067E-01  2.93888911E-01
 -2.19650562E-01  3.34577442E-02  1.62677431E-03  5.18316223E-03 -3.47236936E-02
 -3.75514980E-02 -4.60221934E-03 -5.97230939E-05 -2.18807364E-02 -1.57691550E-02
  7.82507300E-04  3.19720617E-02  2.39589369E-03 -1.31037769E-04 -8.23521257E-02
 -4.18967784E-02  1.64662412E-03  5.26090867E-03 -3.55961492E-02 -3.77108936E-02
  4.87898994E-03 -1.20462695E-04 -2.08559319E-02  1.51172021E-02  1.38699018E-03
  3.16440588E-02  2.46360915E-03 -5.36149792E-05 -8.25341915E-02  4.13893859E-02
 -7.67818338E-01  2.26246146E+00  5.23797979E-01  5.01406333E-01  2.46749021E-03
  7.61654984E-01 -2.10783357E+00  5.06470623E-01 -5.25767858E-01 -2.70033562E-03
  7.61746136E-01 -2.10611403E+00  5.07927257E-01  5.24521538E-01 -2.62424286E-03
 -7.67785352E-01  2.26339277E+00  5.24319040E-01 -5.01418380E-01  1.85384572E-03
 -1.25412246E+00  1.31574656E+00 -5.47413794E-01  4.70783280E-02  9.85712023E-07
 -4.29284761E-05 -3.26143350E-01  5.02752915E-03 -6.18629412E-03 -3.42490646E-02
  8.93817107E-04 -4.62661393E-05 -3.61707146E-02 -5.23030215E-05 -1.43049988E+00
  1.49991971E+00 -5.51913569E-01  3.12180551E-02  1.60200702E-02 -1.08109729E-03
 -3.42491002E-02  3.85697524E-01  2.47344125E-03  1.32716679E-01 -2.00896722E-03
  1.86232933E-03 -3.58162982E-02 -7.17176121E-02 -1.52024212E+00  1.59396921E+00
 -5.87720873E-01 -4.47485946E-02  2.24249150E-02  1.35969028E-03 -2.06310633E-01
 -1.57993877E-01 -2.94970153E-02  7.61846941E-02 -1.26312995E-02 -1.43581627E-02
 -6.41618385E-03 -5.99534311E-02 -1.27264670E+00  1.33581879E+00 -5.62300378E-01
 -8.56897647E-02  3.87831221E-05  3.24941213E-03 -1.11988330E+00 -4.54649716E-03
  8.30972879E-02  1.06290885E-01  4.56613863E-04  4.62149365E-05 -2.92664595E-01
  1.33814394E-04 -1.52022519E+00  1.59395313E+00 -5.87791257E-01 -4.47718806E-02
 -2.24009100E-02  1.36616195E-03 -1.97907568E-01  1.53747029E-01 -2.92957030E-02
  7.61842268E-02 -1.27591940E-02  1.43533662E-02 -6.04975468E-03  5.98282069E-02
 -1.43047927E+00  1.49990062E+00 -5.51986295E-01  3.11596814E-02 -1.60180178E-02
 -1.11790012E-03 -2.63105031E-02 -3.81142309E-01  1.96020968E-03  1.32669307E-01
 -1.99682832E-03 -2.21547620E-03 -3.57521921E-02  7.14824207E-02 -3.15930974E-02
  2.90567044E-02  1.32227299E-02  3.81264829E-03  4.23676585E-05 -2.58718572E-05
  4.45079573E-02 -6.31533678E-04  2.21850446E-03  1.10526544E-02  8.25420258E-05
  1.11652110E-04  3.98735262E-02 -1.17619194E-04 -2.19158590E-02  2.00810453E-02
  1.79683558E-04 -2.19927373E-02  6.52517273E-06  8.70834898E-03 -9.78749198E-01
  1.00901793E-03 -1.41330133E-01  1.35581726E-01 -4.22260955E-02 -2.31633187E-04
  2.14087974E-01 -6.61128471E-05 -1.71191703E-02  1.00486983E+00 -1.32215803E-01
  1.46296395E-01 -2.17669048E-02 -1.71763227E-02  1.00424783E+00 -1.32363882E-01
 -1.45939567E-01 -2.18483378E-02 -3.22592826E-02  2.65903500E-02  3.86760287E-02
  2.01162724E-03  9.40699755E-03 -6.36025522E-06 -1.28265804E-02 -4.38213951E-02
 -2.86590953E-04  1.58399994E-02 -7.93711356E-05 -2.85261688E-04 -9.22708197E-03
 -1.88608337E-02 -3.22803135E-02  2.66067817E-02  3.87434447E-02  2.02543852E-03
 -9.40297941E-03  5.19164875E-06 -1.27815454E-02  4.38004102E-02 -4.00026628E-04
  1.58006762E-02 -1.44223394E-04  3.08760320E-04 -9.20866598E-03  1.89631684E-02
 -2.30537438E-02  6.00762850E-01  6.83596704E-02  1.13028030E-02 -2.47942201E-03
 -2.44837419E-02  2.85463446E-01 -3.77874541E-03  4.30471377E-02 -3.41659162E-03
 -2.44596378E-02  2.85387251E-01 -4.57135389E-03 -4.25896991E-02 -3.40906675E-03
 -2.30697056E-02  6.00492408E-01  6.75803414E-02 -1.16651448E-02 -2.41772555E-03
  1.11621942E-04 -1.20948320E-04  1.03171603E-04 -2.28667517E-06 -8.99877499E-02
 -3.14179809E-05 -5.83866488E-05 -8.23811095E-01 -8.00758266E-05 -4.11690990E-06
 -1.34143971E-04 -1.60714554E-04 -2.58502910E-04 -4.72652363E-01 -1.77182750E+00
  1.90641090E+00 -1.27371341E+00  1.96360282E-02 -7.96957313E-02  2.99023199E-04
 -1.66701011E-01 -7.53946301E-01  7.38262519E-04 -1.07309479E-01 -8.18855540E-05
  8.41820647E-04  1.93252020E-01  1.42214755E-01 -1.83112377E+00  1.97013439E+00
 -1.30520451E+00 -1.53117938E-02 -8.00346205E-02 -4.84498059E-04 -4.59356254E-01
 -1.10978948E+00 -2.93919963E-03 -1.03891286E-01 -1.46820898E-04 -1.43297981E-03
  1.80143223E-01 -1.60086398E-01 -1.69921872E-04  1.82892450E-04 -1.36091919E-04
 -1.79885297E-05 -8.81667304E-02 -6.74661792E-07 -3.66464590E-04 -1.61357849E+00
 -1.28779557E-04 -6.49088691E-05 -1.35525568E-05 -9.69734774E-03  2.31501199E-04
  4.79555765E-01  1.83108221E+00 -1.97009019E+00  1.30513118E+00  1.52798792E-02
 -8.00254582E-02  4.66952433E-04  4.59368972E-01 -1.11021966E+00  2.90645033E-03
  1.03934923E-01  1.46357830E-04 -1.44942633E-03 -1.80333622E-01 -1.59868653E-01
  1.77197251E+00 -1.90656771E+00  1.27376008E+00 -1.95988095E-02 -7.96662387E-02
 -3.70685417E-04  1.66320935E-01 -7.54052248E-01 -1.54468071E-03  1.07311083E-01
  1.68457231E-04  8.02608042E-04 -1.93032129E-01  1.42279586E-01 -1.56099801E-05
  1.39885606E-05  2.50877571E-05  2.88044510E-05 -1.78231351E-02  6.25667180E-06
  3.18704745E-05 -3.17940345E-02 -7.51402509E-05  2.82072394E-05  2.49912232E-05
  2.61836102E-04  7.52270810E-05 -3.61024696E-02  1.34375304E-05 -1.28811759E-05
 -7.69838054E-06 -7.56108849E-06 -2.36368654E-02 -4.99161215E-06  1.23544076E-04
  2.04212346E-01  1.35855374E-04  1.06458887E-05  5.57923470E-05  1.90058524E-02
 -1.06293318E-05  2.85366904E-02  3.11185495E-03  1.93605564E-01  2.67433203E-02
  5.09113465E-02 -1.55992403E-03 -3.13452768E-03 -1.93726026E-01 -2.66883564E-02
  5.09177544E-02  1.58522180E-03 -6.59738822E-03  5.45796545E-03  1.46045554E-02
  6.32206156E-03 -2.96740586E-03  1.90655898E-05 -5.21743811E-02  1.63441636E-02
  7.33947797E-05  1.76337279E-02 -7.01747756E-06  8.67793743E-05 -1.97040068E-02
  4.00097939E-03  6.60404250E-03 -5.46426338E-03 -1.45959298E-02 -6.31603052E-03
 -2.96452557E-03 -2.67610457E-05  5.21017675E-02  1.62634200E-02 -4.52737550E-06
 -1.76416048E-02  4.50209765E-05  9.77549388E-05  1.97179396E-02  4.02252926E-03
  5.67375596E-02 -7.98581550E-01 -9.27160758E-02 -1.96539909E-01  1.16245017E-03
  6.14259347E-02 -8.33992343E-01  1.40049870E-01 -1.80421278E-01  5.24725454E-04
 -6.14637979E-02  8.33979801E-01 -1.40063290E-01 -1.80381427E-01 -6.29486610E-04
 -5.68006552E-02  7.98804163E-01  9.25826228E-02 -1.96665123E-01 -1.45298756E-03
  1.92570835E+00 -2.07787354E+00  1.50106770E+00  8.23739108E-03 -2.50534155E-05
 -2.10894407E-04  3.79673887E-01 -2.11645838E-03  5.21653686E-03  1.03947446E-01
  1.38968678E-03 -1.95668201E-05  1.22954431E-01 -4.26497069E-05  1.18017770E+00
 -1.27306189E+00  8.78592322E-01  7.98944962E-02 -5.47110451E-03 -6.01604158E-04
  8.99877388E-01  8.64871790E-02 -1.41679888E-02  5.91469174E-02 -4.61242995E-03
  7.54194438E-04  3.62147704E-01  9.03768562E-02 -1.01679034E+00  1.09719617E+00
 -7.74084873E-01  8.31473047E-02  1.16990786E-02  1.75858285E-04  8.80849580E-01
  7.46941339E-02  4.67283883E-03 -5.08280029E-02 -9.44943768E-03 -1.11498832E-02
 -3.85169447E-01  1.21456795E-01 -2.12380987E+00  2.29154499E+00 -1.60084516E+00
  1.97469893E-02  1.34887252E-05  5.63425361E-04  7.52722705E-01  1.90477218E-03
  1.39990250E-02 -1.28330697E-01 -1.26594634E-02  6.99283321E-05 -9.71321544E-02
 -5.11295430E-05 -1.01768084E+00  1.09815580E+00 -7.74641256E-01  8.31760165E-02
 -1.16930769E-02  1.46515996E-04  8.77185913E-01 -7.29491821E-02  4.54856683E-03
 -5.07529692E-02 -9.42090919E-03  1.12998034E-02 -3.85442055E-01 -1.21115145E-01
  1.18065396E+00 -1.27357484E+00  8.78797808E-01  7.99385558E-02  5.42437958E-03
 -6.55340268E-04  8.96187999E-01 -8.85686632E-02 -1.46191462E-02  5.90612323E-02
 -4.76443695E-03 -8.96031901E-04  3.62380627E-01 -9.05046631E-02  6.17943850E-02
 -5.94748178E-02 -1.34445712E-02 -2.18864465E-02 -2.82678503E-05  1.86624008E-04
  8.10213350E-02  1.29936476E-04 -1.21068835E-03 -4.63571072E-02 -1.44390909E-04
  1.92852775E-05 -1.65404778E-01 -6.48602218E-05 -5.84346161E-02  5.58847334E-02
  5.07794767E-03 -4.18269531E-02  1.62773125E-05  5.55982914E-03  2.73107055E-01
 -1.87363641E-04  1.60117546E-06  6.15718114E-02 -6.75994689E-03 -1.01331660E-04
  1.47698227E-01 -7.74843555E-05  2.78048987E-02 -1.42876082E-01  2.03784653E-02
 -1.56162289E-01  2.32538975E-02  2.78073810E-02 -1.42846073E-01  2.05229099E-02
  1.56113700E-01  2.34087859E-02  1.94484521E-02 -1.59220111E-02 -4.62206019E-02
 -1.21288543E-02 -1.65310623E-02 -6.84657104E-06  2.43127155E-04  8.24928975E-02
  2.07590504E-04 -3.58363284E-02 -6.96726058E-05  1.24421251E-04  8.35318677E-03
 -3.97348165E-03  1.94611312E-02 -1.59338780E-02 -4.62082137E-02 -1.21487620E-02
  1.65170235E-02 -3.85441105E-05  1.61800979E-04 -8.26394711E-02  1.98634736E-04
 -3.58731655E-02 -7.97095999E-05 -1.13265940E-04  8.30969986E-03  3.97326109E-03
 -3.22543047E-02  5.94207762E-01  1.19972430E-01  6.66685926E-02  1.40939183E-04
  2.77396348E-02 -4.81591125E-01  8.77743304E-02 -6.20645638E-02 -1.13550824E-02
  2.77068681E-02 -4.81567973E-01  8.81242888E-02  6.18488419E-02 -1.13529167E-02
 -3.22371347E-02  5.94292406E-01  1.20271086E-01 -6.65670208E-02 -1.42800908E-04
 -8.04056113E-05  8.74980244E-05 -1.00453106E-04 -1.79007848E-06 -5.37700640E-02
 -2.56120735E-05  3.18207959E-04  4.51075998E-01  1.24078307E-04  2.27827142E-05
  2.55058915E-05 -1.17155883E-03  2.03021642E-05 -3.44807494E-01 -1.86553421E+00
  2.02876428E+00 -1.43047846E+00 -7.74992851E-02 -6.34338206E-02  3.69032498E-04
 -1.06819274E+00  8.20408330E-01  3.99687088E-03 -4.25464361E-02  2.61608961E-03
 -2.40112452E-04 -2.82892915E-01  1.17529829E-01  1.80464168E+00 -1.96239990E+00
  1.36955139E+00 -7.80460600E-02  5.83340165E-02 -4.78167558E-04 -1.07683700E+00
 -8.90663061E-01 -3.92219404E-03  3.19232336E-02  4.23143934E-03  2.27152000E-03
  2.95548126E-01  1.12619455E-01  1.28125860E-03 -1.39304296E-03  9.59609460E-04
  1.64416678E-05  5.23126808E-02 -2.59601080E-07 -3.40058126E-04 -5.11939701E-01
  1.68349433E-05 -5.06233988E-05 -1.11365642E-04  1.15046538E-03 -1.67723973E-04
 -3.06760739E-01 -1.80536263E+00  1.96318217E+00 -1.37000494E+00  7.80267688E-02
  5.83912724E-02  4.51392366E-04  1.07621243E+00 -8.91199626E-01  3.44898057E-03
 -3.18228361E-02 -4.08315904E-03  2.31358787E-03 -2.95268472E-01  1.13048049E-01
  1.86523622E+00 -2.02843778E+00  1.43007649E+00  7.74222341E-02 -6.34582530E-02
 -4.35709079E-04  1.06800212E+00  8.20491263E-01 -4.08029106E-03  4.24229571E-02
 -2.69834507E-03 -4.44993955E-04  2.83146365E-01  1.17522571E-01  1.51009393E-05
 -1.49974290E-05  3.36087422E-06  3.11405656E-05 -1.13415701E-02  1.36761308E-05
 -7.33170474E-05 -2.10751146E-01 -3.66835271E-05  1.12139620E-05  8.96574965E-05
  4.25840060E-04  1.23235551E-04 -6.26848305E-02  3.48195527E-05 -3.41669193E-05
  1.20839100E-05  2.40918822E-05  1.06799093E-02  5.60307260E-06  1.64062118E-04
  2.78986424E-01  1.59707219E-04  3.35824472E-05  3.16683633E-05  8.00690084E-03
 -1.04720580E-04  3.52541351E-02  1.41542206E-02  1.70916374E-01 -2.86565427E-03
  1.19026732E-01 -1.06999995E-02 -1.41623025E-02 -1.71064207E-01  2.96685711E-03
  1.18960356E-01  1.07551297E-02 -8.11878448E-03  7.23630643E-03  4.01206175E-03
  3.65687447E-03  8.26916444E-03 -1.04074061E-05 -3.95814479E-02 -4.99608015E-02
  3.02854758E-04  2.47376800E-02  6.43566830E-05  5.74019825E-05 -1.83647346E-02
 -1.13734281E-02  8.10347011E-03 -7.22343606E-03 -3.97890944E-03 -3.64717229E-03
  8.27946595E-03  9.02066167E-06  3.95880744E-02 -4.99795873E-02 -1.94209638E-04
 -2.47074743E-02 -5.35720631E-05 -1.21474382E-05  1.83742224E-02 -1.14715212E-02
 -1.43705520E-02 -6.56678301E-02  9.09700125E-03 -4.78496433E-03  1.78537038E-04
  1.61719015E-02  8.97563712E-03  3.58881229E-02 -3.85143015E-03  4.13205576E-03
 -1.61911849E-02 -8.69316056E-03 -3.60581490E-02 -3.77716167E-03 -4.13267630E-03
  1.43832966E-02  6.54918401E-02 -9.03912295E-03 -4.71754531E-03 -1.70612088E-04
 -2.28689552E+00  2.49107872E+00 -1.82855502E+00 -3.21053948E-02  1.26707271E-05
 -2.44647256E-04 -3.68446656E-01  9.68188446E-04  1.86896949E-03 -2.77487219E-02
 -8.49743081E-05  5.04741943E-05  1.10682063E-01 -3.49922852E-04  8.36548908E-01
 -9.10672961E-01  6.40630128E-01 -2.12133738E-02  6.78852373E-02 -2.43124409E-04
 -2.46144233E-01  2.79257553E-01 -6.80827468E-03  3.92529354E-02 -2.11321018E-03
  7.87328737E-04 -3.19678833E-01 -1.89938167E-01  1.06076327E+00 -1.15480104E+00
  8.24110594E-01  2.91492749E-03  6.85108740E-02 -2.69431568E-04  1.63856717E-01
  3.72597673E-02 -3.57941695E-03  2.13960403E-02 -5.66597978E-03 -1.13716224E-02
 -2.09733827E-01  2.07438281E-01 -2.16043314E+00  2.35304445E+00 -1.68725346E+00
  2.31769840E-02 -1.28336592E-06  1.46676398E-03 -1.59792921E-01 -3.21450385E-04
  1.24604732E-02  3.31209394E-02 -1.99449645E-02 -1.94107897E-05  1.46337960E-01
 -1.14829095E-04  1.05974650E+00 -1.15369375E+00  8.23227061E-01  2.92932498E-03
 -6.85094611E-02 -2.79858971E-04  1.64867746E-01 -3.82064648E-02 -3.76490533E-03
  2.13028939E-02 -5.54408154E-03  1.13276981E-02 -2.10088736E-01 -2.07157137E-01
  8.37493455E-01 -9.11702224E-01  6.41360180E-01 -2.12005401E-02 -6.79223627E-02
 -2.83410652E-04 -2.44760003E-01 -2.78113599E-01 -6.89537934E-03  3.92176739E-02
 -1.67204703E-03 -5.15939481E-04 -3.19447537E-01  1.90243762E-01 -1.72755452E-02
  1.79428354E-02 -3.34789261E-02 -2.88379996E-03  1.39517244E-05  9.84079914E-05
  2.24890349E-02 -4.58673340E-04 -1.04918389E-03 -8.59119577E-02 -3.12355204E-04
  1.38549172E-04  2.10346682E-01 -4.43533709E-05  1.43111168E-04  8.54376281E-04
 -5.18302143E-02 -1.07340548E-02  8.46444629E-07  5.26523692E-03 -3.52480011E-01
  1.60570608E-04 -4.20339951E-02 -3.88193262E-02 -3.64099490E-02 -1.18253953E-04
  1.61106990E-01 -8.26489719E-05 -4.72332380E-03  2.62076981E-01 -2.62506383E-02
  1.11061697E-02  1.40399641E-02 -4.71489213E-03  2.62097634E-01 -2.62789175E-02
 -1.10149697E-02  1.40993411E-02 -1.52531082E-02  1.31139366E-02  2.42939774E-02
  3.47821682E-03  6.35474556E-03  8.18393739E-06  3.51653621E-02 -6.96410579E-02
  1.17549935E-04  4.48248945E-02 -1.47807076E-05  1.30443464E-04  7.34687351E-03
  1.17285068E-02 -1.52656516E-02  1.31255853E-02  2.42992029E-02  3.49270158E-03
 -6.35079295E-03  2.55061450E-05  3.52930763E-02  6.98166558E-02 -1.02972218E-04
  4.48215453E-02 -4.38460141E-05 -5.47232947E-05  7.42969393E-03 -1.16873985E-02
 -2.14967310E-03  7.23707251E-02 -1.76595305E-01  9.95726291E-02  2.23495320E-04
  1.14351623E-03  4.01601932E-02  1.57297190E-01  9.65173729E-02 -8.74766581E-03
  1.09579294E-03  3.99374967E-02  1.57246607E-01 -9.65667398E-02 -8.74791165E-03
 -2.15387123E-03  7.20548595E-02 -1.76689353E-01 -9.94892921E-02  2.04393802E-04
  1.65938443E+00 -1.82158461E+00  1.34515613E+00  4.88640921E-02 -7.67684702E-05
  1.18821633E-04 -1.36244461E+00 -2.49048567E-03 -2.36324031E-03 -3.40892752E-01
 -1.68601511E-03  5.40037924E-04 -9.11679221E-01  3.92866994E-04 -1.53802542E+00
  1.68775176E+00 -1.24560844E+00 -3.25639151E-02 -8.31373879E-02  2.65478476E-04
  9.62962682E-01  1.80673002E+00  1.45861164E-03  3.10909000E-01 -1.21528470E-03
  1.65909560E-03 -3.31707698E-01  8.24288529E-01  1.41533100E+00 -1.55317502E+00
  1.13064873E+00 -3.53422371E-02  6.51902855E-02 -8.28003611E-04  1.03320157E+00
 -2.05774554E+00 -6.16076312E-03 -3.24868094E-01 -9.70140310E-04 -7.36033056E-03
  3.76357708E-01  7.85118446E-01 -1.55970507E+00  1.71184864E+00 -1.27490842E+00
  4.71125759E-02  3.05004137E-05 -1.38044336E-03 -1.98632923E+00  3.09839179E-03
  4.35247240E-04  3.59833712E-01 -2.03553474E-02  1.61334417E-04  8.64056318E-01
 -5.28472202E-04  1.41456183E+00 -1.55233020E+00  1.12997488E+00 -3.53002348E-02
 -6.52010246E-02 -7.73858199E-04  1.02937042E+00  2.05896807E+00 -5.95702615E-03
 -3.24805402E-01 -1.46919927E-03  7.71166658E-03  3.75524325E-01 -7.85136234E-01
 -1.53732570E+00  1.68698091E+00 -1.24485887E+00 -3.24145933E-02  8.31377375E-02
  3.34899818E-04  9.58046181E-01 -1.80861402E+00  3.56208500E-04  3.10877633E-01
 -1.41685351E-03 -1.41509053E-03 -3.32088068E-01 -8.23821023E-01 -8.61166412E-03
  6.77420066E-03  4.77576810E-02  1.49812234E-02  2.16167272E-05 -9.39723824E-06
 -5.55901645E-02  3.53231861E-04 -4.84440275E-04  1.23707602E-01 -4.73875774E-04
 -1.82767716E-04 -1.16595419E-01  1.32180758E-04 -3.46288805E-02  3.57955160E-02
 -4.69308765E-02  1.67960378E-02 -3.42408127E-06  1.70554050E-03 -5.02511478E-01
  4.30151252E-05 -4.31630176E-02 -4.85756424E-02 -4.53459651E-02 -9.56040046E-05
  6.10613451E-02 -1.83578790E-05 -3.87034829E-03  3.43309864E-01 -7.07346596E-03
  1.23604973E-01  5.74184208E-03 -3.83204528E-03  3.43272229E-01 -7.07862334E-03
 -1.23563562E-01  5.76761915E-03  1.51069074E-02 -1.37379244E-02 -4.21618288E-03
 -3.49921235E-03  7.08525263E-03 -1.85747042E-05 -2.97786104E-02 -9.23213325E-03
 -9.91405902E-05 -2.36362602E-02  9.88265245E-05 -1.37021313E-04 -9.61460005E-03
 -3.15998134E-02  1.51189944E-02 -1.37500066E-02 -4.20058581E-03 -3.49724356E-03
 -7.07478292E-03 -2.53550487E-05 -2.99604933E-02  8.96266805E-03  1.76856935E-04
 -2.36348504E-02  1.36219961E-04  6.54731022E-05 -9.77682050E-03  3.15973968E-02
 -3.55543969E-02  4.55166299E-01  1.05506162E-01  2.83455210E-02 -6.78779712E-04
  5.42098688E-02 -7.00915523E-01  1.27841529E-01 -6.43041874E-02 -2.68498336E-03
  5.41755753E-02 -7.00745398E-01  1.28130624E-01  6.40030576E-02 -2.52889076E-03
 -3.55250450E-02  4.55042910E-01  1.05632261E-01 -2.82532378E-02 -8.66718683E-04
 -4.95188416E-02  5.72807576E-02 -8.16654655E-02 -4.91160366E-03  2.15023308E-06
  2.34707409E-04 -1.25426398E-02 -4.80684784E-04 -2.39557146E-04  9.98654592E-03
 -1.21759157E-03 -3.98807030E-05 -2.11227010E-02  8.61641462E-06  6.50844017E-03
 -8.12359933E-03  2.56264883E-02  1.48942519E-02  9.86523763E-03  9.50112194E-04
 -8.01551174E-02  5.40267880E-02  8.72632788E-03 -5.85674577E-02  3.55720610E-03
 -6.16411865E-04 -1.31129804E-02  5.31284257E-02  1.81471353E-02 -2.23678818E-02
  1.10913466E-01  4.34560066E-02 -2.09296474E-03 -4.21453331E-04  3.49900733E-02
 -6.83217266E-02 -8.19201004E-03  1.48251672E-01  8.67448561E-03  9.48719737E-04
  6.96988448E-02  1.69014427E-01  7.58797993E-02 -8.58242409E-02 -1.02816222E-01
  1.85649493E-02 -2.53310826E-06  3.73227627E-04  1.70322353E-01  2.42276581E-04
  5.58904158E-03 -1.87345438E-01 -5.06846413E-03 -3.14877341E-07  5.93312037E-01
 -3.79163169E-04  1.81474919E-02 -2.23676221E-02  1.10885394E-01  4.34454849E-02
  2.06956594E-03 -4.28425205E-04  3.44060012E-02  6.84794573E-02 -8.10876632E-03
  1.48231467E-01  8.61788101E-03 -9.72036023E-04  6.95874655E-02 -1.69025608E-01
  6.55403942E-03 -8.17664226E-03  2.57258176E-02  1.48905817E-02 -9.86961037E-03
  9.34020587E-04 -8.09299875E-02 -5.42506098E-02  8.79131721E-03 -5.85181591E-02
  3.44534130E-03  6.68654472E-04 -1.31391568E-02 -5.30382517E-02 -7.64259709E-02
  8.20827673E-02 -2.29835453E-02  5.15176223E-03  1.00118413E-06 -3.11650927E-05
 -1.15733332E-02  6.62365482E-05 -7.52543453E-04  6.47453426E-04 -8.32514615E-05
 -1.64079107E-05  1.25816617E-02  8.06091190E-06 -3.62992940E+00  3.89833234E+00
 -1.08775064E+00  9.88508744E-02 -2.30242368E-05 -7.69598567E-03 -1.19653419E-01
  8.93799950E-05 -7.85703859E-03 -1.07317060E-01  1.08688016E-02  2.28434623E-05
  5.38775127E-02 -2.21785347E-05  4.29344059E-02 -9.15099565E-02 -4.46235896E-02
  4.81824173E-02 -3.32036706E-03  4.29365386E-02 -9.16993923E-02 -4.46092673E-02
 -4.81068916E-02 -3.32623641E-03  4.96231880E-03 -5.00609154E-03  1.30785453E-03
  1.60988278E-03  8.28329406E-04 -5.72914577E-06  1.70604713E-03  1.80447637E-03
  1.65819917E-04  3.37444095E-04  1.08057758E-04  6.30337233E-05 -4.02309901E-03
  6.50001395E-03  4.97753774E-03 -5.02076633E-03  1.29380522E-03  1.60566949E-03
 -8.27315436E-04 -3.77037249E-06  1.74696106E-03 -1.76966227E-03  1.85394741E-04
  3.38913326E-04  1.17424512E-04 -7.02193165E-05 -3.99417469E-03 -6.51357528E-03
 -3.44007349E-03 -9.01350022E-02  1.85525841E-02 -3.50733264E-03 -9.24876902E-05
  3.62357423E-02  2.13781314E-01  5.17733706E-02 -9.64445601E-03  1.80916096E-03
  3.61945519E-02  2.13942677E-01  5.19484379E-02  9.45495859E-03  1.76028751E-03
 -3.41984773E-03 -9.01341058E-02  1.86775578E-02  3.58213880E-03 -1.10798094E-04
  7.56442791E-02 -8.53931663E-02  3.41150814E-03 -7.47775437E-03  2.99489339E-05
 -3.82660367E-06  1.40774406E-01 -7.07857982E-04  7.94951156E-04 -5.52703516E-02
  4.38417527E-04 -4.10363524E-05  5.69613588E-01  4.36194654E-04  4.63563755E-02
 -5.52523147E-02  1.45768425E-01 -3.07549813E-02  1.06341224E-02 -9.66900226E-05
 -1.73623001E-01 -2.84462311E-01 -2.00228860E-03  6.30497464E-02 -2.29814101E-04
 -7.70672292E-05  1.16973131E-01 -2.02078257E-01 -1.39129050E-02  1.62054025E-02
 -2.51474638E-02 -3.89454352E-03  8.75219057E-03  3.06071682E-05 -5.23001744E-02
  2.65063332E-01  2.51792940E-03 -2.08525565E-02 -6.79521646E-04  9.75930266E-05
 -5.13295213E-02 -1.01936024E-01 -1.55853077E-02  1.79276051E-02 -2.16338856E-02
  1.92897940E-03  5.72788712E-06  3.29666920E-04  2.83794976E-01  4.69980176E-04
 -2.07995370E-03 -1.58617614E-02  6.02995724E-04  7.52906668E-06 -9.02965874E-02
  7.20598158E-05 -1.39655888E-02  1.62689437E-02 -2.53537660E-02 -3.81201264E-03
 -8.75898894E-03  1.98497016E-05 -5.30942395E-02 -2.64591798E-01  2.32387032E-03
 -2.08723594E-02 -6.16827620E-04 -8.92830718E-05 -5.13970865E-02  1.02146899E-01
  4.63578759E-02 -5.52496660E-02  1.45548245E-01 -3.07249519E-02 -1.05013360E-02
 -1.05914382E-04 -1.75136349E-01  2.84972302E-01 -1.85860783E-03  6.29790983E-02
 -3.06208787E-05 -1.35703527E-08  1.17838082E-01  2.02133292E-01 -3.67138496E+00
  3.97335725E+00 -1.30009516E+00  6.08004917E-03  3.41898259E-05  3.85242652E-05
 -1.54510179E-01  9.15523340E-05  6.40442372E-05 -1.39697303E-01  1.77219986E-04
 -9.36745147E-05 -1.84850863E-02  2.40759987E-05  7.57924100E-02 -8.21309101E-02
  2.92500824E-02 -8.43718155E-03  9.20910678E-07  3.89297855E-04  9.94400063E-02
 -1.13035042E-04  8.39441243E-03  2.66450852E-04  4.62912460E-03  2.46826121E-06
  4.72107970E-03  3.09000136E-06  1.38148530E-03 -6.94973680E-02  2.88455967E-03
 -3.06565477E-02  2.37390932E-03  1.38401140E-03 -6.94298446E-02  2.91170553E-03
  3.06131907E-02  2.38801066E-03 -1.17586598E-01  1.19042320E-01 -1.10240718E-01
  1.14811174E-02  1.01537547E-02  4.26300915E-07  8.75359335E-02  1.28608808E-01
 -2.16179207E-05 -7.94228059E-02 -1.04450173E-04 -3.19269540E-05 -6.63923542E-02
  1.62036664E-01 -1.17663368E-01  1.19119292E-01 -1.10267949E-01  1.14923937E-02
 -1.01885881E-02  1.59714919E-05  8.76668088E-02 -1.28317365E-01  6.39156983E-05
 -7.94235970E-02  5.11108949E-05 -2.10111310E-04 -6.60427187E-02 -1.62095905E-01
  1.94015486E-02  1.30025801E-01 -7.07761406E-02  2.06491317E-02 -6.24940345E-06
 -1.34985991E-02  2.63827999E-02 -3.30012946E-02  3.78793953E-03 -8.50348129E-04
 -1.35035385E-02  2.60595821E-02 -3.28792977E-02 -3.75848327E-03 -8.42253132E-04
  1.94823508E-02  1.29320061E-01 -7.04339452E-02 -2.02965993E-02 -1.56959964E-04
  8.87950868E-02 -1.08158908E-01  2.55266233E-01 -3.20583446E-02  4.23046321E-05
 -2.50528226E-05 -1.92218494E+00 -1.63858310E-03 -5.80986209E-04 -2.89719361E-02
 -1.36293933E-04  3.01478507E-04  1.19549161E-02  4.58370226E-05  2.36882683E-02
 -2.82300850E-02  5.81385568E-02 -2.37338712E-02  3.65668885E-03 -1.00671797E-04
  2.61435924E-01  7.20522916E-01  7.62768484E-04  5.01719108E-02 -2.50012671E-05
  2.14658766E-04 -1.39638894E-01  5.33801024E-02  2.66029218E-02 -3.20443803E-02
  4.56171942E-02 -1.57091231E-02  6.70494538E-03  2.73197521E-04 -1.95785232E-01
 -1.97284819E-01 -5.73254567E-03 -3.98301819E-02 -1.66294328E-03 -1.81344509E-03
  5.85919868E-02  1.42451462E-02  1.01025043E-02 -1.17187043E-02  1.79498186E-02
 -1.39090763E-02  3.08273437E-06  7.75163144E-04 -2.45017176E-01  1.56188951E-03
  1.54536584E-02  4.63059134E-02  1.72832560E-03 -6.26948649E-06  2.57695461E-03
 -2.69474139E-05  2.66228828E-02 -3.20680550E-02  4.56329920E-02 -1.57065368E-02
 -6.70458573E-03  2.79780560E-04 -1.98067427E-01  1.99241255E-01 -5.49446934E-03
 -3.98709397E-02 -1.77437593E-03  1.79122627E-03  5.86947520E-02 -1.42771068E-02
  2.36817292E-02 -2.82207282E-02  5.80806044E-02 -2.37589476E-02 -3.65728584E-03
 -1.28124518E-04  2.58770997E-01 -7.22730910E-01 -7.31851001E-05  5.02346731E-02
 -6.99781987E-06 -6.64593720E-05 -1.39624510E-01 -5.33122807E-02  2.11411267E-01
 -2.39217322E-01  6.66679394E-02 -3.94072042E-03  1.95247359E-05 -2.79830238E-05
 -1.16015537E+00 -5.68308633E-04  2.06354924E-04 -2.39569958E-01  5.33101468E-05
 -3.02893883E-04 -2.64907672E-01 -3.11826829E-04 -1.39319797E-02  1.60234707E-02
 -1.33752669E-02  3.68343997E-03  1.94546594E-06  1.12169008E-03 -2.10708259E-01
 -1.63868027E-04 -2.56473732E-02  1.15760122E-02 -6.31480114E-03 -4.26288270E-05
  3.82388068E-02 -3.25562112E-05 -2.94714126E-03  1.76002979E-01 -2.33619514E-02
  3.53601292E-02 -5.16059610E-03 -2.93374490E-03  1.76258094E-01 -2.34094095E-02
 -3.53948892E-02 -5.20822495E-03 -2.55320067E+00  2.71940269E+00 -1.20650649E+00
 -7.89136157E-03 -2.01028092E-02  6.12347363E-06 -1.48416652E-01 -2.88369373E-01
  7.56573433E-05  3.61824325E-02 -4.61556279E-06 -7.74400519E-07  3.89251795E-02
  7.71125533E-03 -2.55333509E+00  2.71954638E+00 -1.20658654E+00 -7.89556353E-03
  2.01150138E-02 -2.02755407E-05 -1.48805848E-01  2.88098543E-01 -2.95205098E-04
  3.61774508E-02 -1.16270800E-05  1.37624254E-04  3.88598466E-02 -7.64602662E-03
 -2.75291596E-02  4.15079943E-01  2.06624405E-02  8.46212864E-05 -6.09488139E-04
 -1.64476766E-02  8.27242353E-02 -2.33004781E-03  3.43583638E-02  2.39606894E-04
 -1.64295254E-02  8.23981620E-02 -2.21472223E-03 -3.43851791E-02  2.64403866E-04
 -2.75974555E-02  4.15882301E-01  2.08150075E-02 -2.29256434E-04 -7.85609273E-04
 -2.96215943E-05  3.43997625E-05 -2.08803052E-05 -4.25113866E-06 -2.25451622E-02
  2.19315969E-06  2.66242785E-04  1.44002699E+00  5.40022789E-04 -4.37182254E-05
 -5.02919584E-05  3.82772859E-04  2.58660996E-05  6.63776291E-03  1.78277412E-02
 -2.16143581E-02  4.82911709E-02 -9.18235764E-03 -3.78558707E-03  1.29015330E-04
 -1.31609737E+00  6.06666118E-01 -1.14317434E-04  2.40267442E-02  1.09136076E-04
  1.87595726E-04 -1.96335138E-02 -1.43575056E-02 -1.39067052E-03  1.64508018E-03
 -1.20617322E-03 -6.40935812E-03 -3.45313358E-03 -1.47229153E-04 -1.30453139E+00
 -6.52488694E-01  9.63885256E-04 -1.76049323E-02  6.79696369E-04  3.69871880E-04
  5.09871933E-03 -2.44482726E-02 -9.95037304E-06  1.16302065E-05 -7.59356291E-06
 -1.25407870E-05  2.97643982E-03 -6.84270914E-06 -3.18285097E-04 -1.54149666E+00
 -2.61460640E-05 -1.82865480E-05  1.63718817E-05 -1.01143489E-03 -5.83368661E-05
  3.09026989E-02  1.37856149E-03 -1.63205986E-03  1.26459860E-03  6.36766024E-03
 -3.44587524E-03  1.53718793E-04  1.30402356E+00 -6.53312101E-01 -1.48603778E-03
  1.76054579E-02 -5.37015821E-04  3.06183822E-04 -5.13534676E-03 -2.43580781E-02
 -1.78372187E-02  2.16232892E-02 -4.81699446E-02  9.15072216E-03 -3.76333489E-03
 -1.34990921E-04  1.31624867E+00  6.06543613E-01  2.38222705E-04 -2.39423747E-02
 -1.20693831E-04  2.03834833E-04  1.94604373E-02 -1.42693846E-02 -6.34505489E-05
  7.31004685E-05 -4.58510646E-05  3.86512019E-06 -6.85384758E-03  1.09050327E-05
  5.70324031E-04 -1.07704732E+00  3.13335549E-04 -7.20192340E-06 -2.89521213E-04
  2.24725037E-04 -5.09616625E-04  4.55972314E-01  1.47827010E-05 -1.70558926E-05
  1.44860002E-05 -7.26847804E-06 -4.19403810E-03  4.29156980E-06  3.70306896E-05
  2.20566598E-01  1.23099075E-05  2.10556792E-05  2.67953083E-05  8.08992353E-03
  4.75937021E-05  6.33732127E-03  7.24289024E-03  1.05895577E-01 -3.99556551E-03
  2.65017234E-02 -6.79214719E-03 -7.20571154E-03 -1.05925001E-01  4.02421945E-03
  2.64997268E-02  6.82977323E-03 -2.57176659E+00  2.74875345E+00 -1.32459874E+00
 -1.23279751E-02 -3.39696450E-02  1.02110529E-05 -1.00665510E-01 -2.54867460E-01
  1.86465031E-04 -3.22193794E-02  4.33931392E-05 -9.76428051E-06  7.55640064E-04
  2.48855824E-03  2.57162688E+00 -2.74860556E+00  1.32456738E+00  1.23638059E-02
 -3.39374672E-02  1.01721632E-05  1.00951516E-01 -2.54847749E-01  2.30002802E-04
  3.22186470E-02  1.10541800E-05  2.38150741E-05 -7.40744389E-04  2.42360185E-03
  1.06069151E-02 -7.84037919E-02  3.11902136E-02 -6.48130401E-02  2.32612650E-04
 -9.83986033E-03  5.77990479E-02  8.79614056E-02  6.72021419E-02  6.89839727E-04
  9.83515253E-03 -5.74513816E-02 -8.79758559E-02  6.71877007E-02 -6.34891393E-04
 -1.05184833E-02  7.79580364E-02 -3.12913192E-02 -6.46243837E-02 -2.74954236E-04
Total SCF Density                          R   N=       14535
  1.86459030E-01  4.47683718E-01  1.08286748E+00 -5.53819460E-02 -2.11372525E-01
  7.91448832E-01 -6.02792934E-03 -2.03177733E-02  5.33498737E-02  4.53230761E-01
  3.99178563E-07  2.06744437E-06 -1.15687839E-05 -8.23673071E-06  5.85283477E-01
  1.52983252E-05  5.49316968E-05 -2.19129495E-04  5.99387257E-05  4.89457910E-07
  5.74091741E-01  4.02511481E-03  1.32642757E-02 -2.56900439E-02  4.14068158E-02
  9.43674216E-05  8.48411364E-04  4.13471679E-01  7.39463791E-05  2.67816554E-04
 -7.35648218E-04 -1.03759712E-04 -2.14648834E-01 -4.59449615E-04 -2.30901447E-03
  3.33713546E+00 -1.09225841E-04 -3.90503711E-04  1.18124496E-03  5.28528354E-04
 -6.20511295E-05 -4.72028900E-04  8.70939071E-04  5.17305621E-04  1.32863446E-03
  9.09290459E-03  3.16759951E-02 -9.16422481E-02  2.58793249E-02 -4.16262683E-08
 -2.87648742E-05  6.06282578E-02 -4.74494634E-05 -1.68362213E-04  3.17150945E-02
 -3.19850077E-06 -8.74879576E-06 -2.19558029E-06  2.30758295E-05  2.12812348E-05
  9.18212786E-03  1.86310336E-05  1.53178563E-04 -8.65405392E-04  1.21878497E-05
  7.11661954E-03 -3.73738083E-06 -1.39104096E-05  4.67377255E-05  4.57375052E-05
  6.43978432E-05 -2.13077415E-05  7.17737432E-05  3.00283187E-05  9.19329518E-07
  7.14423500E-06  7.30718839E-06  1.95837456E-02  1.35881504E-03  6.46067613E-03
 -2.04651646E-02 -1.91817045E-01  8.71746938E-05  2.41069693E-04  1.04244063E-01
  1.26838553E-04 -4.05925011E-04  9.11067421E-03  7.47254917E-06 -2.33120669E-05
  1.76649001E-01 -8.49250890E-06 -3.09230673E-05  9.08668676E-05 -4.89989630E-05
  1.07812287E-01  9.24010058E-06  3.20020098E-05 -3.02133651E-01 -3.93217042E-05
 -3.05816441E-05 -9.07870327E-07 -4.61982886E-05  1.22083974E-05  7.14721901E-02
  1.61158515E-03  5.65207017E-03 -1.34441179E-02 -1.19089932E-02  2.44168496E-02
  1.10565963E-05  7.36853912E-03 -1.56610420E-02 -1.04113183E-04  6.88172565E-03
  1.00223978E-06  4.75253768E-06  1.62744596E-02  1.30342407E-02  1.86612967E-01
  5.68928862E-03  1.94283069E-02 -4.37020098E-02 -4.05578403E-02  8.47623170E-02
  4.77699886E-05  2.16850398E-02 -5.49570754E-02 -3.89806693E-04  2.27417226E-02
  1.54442081E-07  1.39628317E-05  5.37333998E-02  4.27647863E-02  4.48487411E-01
  1.08622956E+00 -1.50587791E-02 -4.86174193E-02  8.91032493E-02  1.10850583E-01
 -2.77747618E-01 -2.27205814E-04 -4.14233020E-02  1.45589249E-01  1.31945517E-03
 -6.04409577E-02  4.58697020E-06 -3.11168450E-05 -1.45083127E-01 -1.17051434E-01
 -5.95631846E-02 -2.25877489E-01  8.40795675E-01  1.58003532E-02  5.50387156E-02
 -1.80348882E-01 -6.06915289E-02  1.98203655E-01 -2.01503239E-04  8.61341805E-02
  7.35081047E-02  6.47783956E-06  5.34853742E-03 -2.37165614E-05  1.11297806E-04
  1.09575994E-01 -2.36845238E-02  5.98737170E-04  2.32623159E-03 -2.08707300E-02
  5.72629212E-01 -2.42494914E-02 -8.38863530E-02  2.71750177E-01  1.79921289E-01
 -3.04764859E-01  2.87768899E-04  8.24592030E-02  1.35819399E-01  3.03349886E-04
  1.30814324E-03 -6.51799099E-08 -9.96021179E-06  1.30036248E-02 -6.36594346E-02
  3.55685440E-03  1.21660734E-02 -5.10842735E-02  2.13686689E-02  5.70265990E-01
  2.77284384E-05  9.68405216E-05 -3.20204913E-04 -1.93078903E-04  3.11486445E-04
  2.58147983E-01 -8.77187294E-06  6.50243707E-04  6.03749174E-03  1.85356792E-04
  1.55414799E-02 -6.55263432E-02  2.47781200E-04  1.30286535E-04 -6.10112699E-06
 -2.46438284E-05  4.45283978E-05 -2.04893211E-04 -1.32558047E-04  4.37131838E-01
 -1.15347474E-02 -4.57505102E-02  1.69987650E-01  1.75971912E-01  6.12833358E-02
 -1.60834079E-03  2.15337093E-02 -2.23643247E+00  5.91767980E-04 -1.92450166E-02
 -8.40221954E-05  1.34033740E-04 -1.23720088E-01  1.59857444E-01 -1.12858583E-02
 -4.29142514E-02  1.74715303E-01 -1.10879647E-01  6.19752616E-03 -1.84546438E-04
  1.73830366E+00  4.02639806E-03  1.21065095E-02 -3.25813436E-02  2.35278792E-02
 -5.26705329E-02 -8.16363431E-04 -1.44320115E-01  1.91882965E+00  3.19046304E-04
 -1.94630547E-02 -1.87173455E-05 -1.94572316E-04 -8.72861710E-02 -1.45286498E-01
 -2.63748004E-02 -8.67408702E-02  2.27381162E-01 -3.03929353E-02 -9.56067874E-02
  4.90880576E-04 -1.30147949E+00  1.36014695E+00  1.44851380E-04  5.13095246E-04
 -1.46925836E-03 -6.47013945E-04  2.32739151E-04  7.80802263E-02 -1.12835610E-03
 -1.42201494E-03  7.07861338E-04  4.21637434E-04  3.32259337E-03 -9.38912199E-03
  7.03694791E-04  1.62879735E-04  1.75623591E-04  6.57940273E-04 -2.28396427E-03
 -2.97321999E-04 -2.08168276E-04  8.46123754E-02 -2.39678489E-05 -1.47656260E-03
  1.91850598E-02  5.70201118E-03  1.90755879E-02 -4.96127941E-02 -2.43663434E-02
  7.69620195E-03  2.19300702E-04 -7.82867284E-03  6.22267521E-02 -2.98017625E-04
  9.41429616E-03 -6.01672294E-05  1.22553688E-05  2.01729224E-02  2.90707129E-03
  8.46862861E-03  2.98186416E-02 -9.09853176E-02 -2.24351334E-03  1.92313338E-05
 -3.93092978E-04 -7.78532962E-02  3.23400287E-02  1.86952200E-04  2.34207448E-02
  1.93891005E-07  3.46142173E-06  1.76225597E-05 -5.69463897E-05 -1.11773366E-04
 -4.79528274E-02 -1.54130144E-04  2.43177327E-04  2.24424581E-03  1.07590667E-04
 -1.59790093E-04 -8.79329299E-03  1.73006428E-04 -1.31891609E-05  2.08168372E-05
  7.89254849E-05 -2.87904404E-04 -2.73836543E-05  2.23579821E-04  2.81568303E-02
  1.82893452E-04  4.40076388E-06  1.08741094E-03 -7.41334356E-05  1.30162659E-02
  2.21255506E-05  7.67737609E-05 -2.16194071E-04 -7.49225109E-05 -3.06503378E-05
  6.61726766E-02  1.78922214E-04  6.33104807E-04 -3.33283939E-04  4.45925724E-05
  6.92025127E-04  1.40375015E-03  1.50491119E-04 -6.69569466E-05  1.60318468E-05
  6.40626508E-05 -2.57113494E-04  1.30516195E-04  1.07180631E-04  2.39519633E-02
 -7.60597591E-04  2.72382249E-04  8.17864848E-03  1.11597669E-04 -6.60276733E-03
  7.92654313E-03  8.64752010E-03  2.88701232E-02 -8.15396999E-02 -6.53126894E-02
 -2.08543794E-02 -8.93586269E-05  7.17225704E-02  1.68423030E-01  5.10503634E-05
  1.30376610E-02  4.85519077E-05  5.02172080E-05  5.71016107E-02 -2.84722659E-02
  7.86435919E-04  1.53736226E-03 -2.50051663E-04  1.15599313E-01  6.98363429E-03
  2.42919474E-04 -1.41757244E-01  4.14879874E-02  5.72190584E-05 -1.70764006E-03
  9.36723020E-05  6.12569439E-05  6.10692367E-02  1.38196690E-02  4.50490878E-02
 -1.27612810E-01  1.88266134E-02  7.03471549E-02 -5.82265604E-05 -7.61659833E-02
 -2.41586146E-02 -1.48550810E-04  1.74830504E-03 -1.73457991E-06 -6.97361375E-05
 -5.27581926E-02  1.55092588E-02 -3.92671087E-03 -1.11971482E-02  2.36026030E-02
 -1.46747796E-02 -1.30597928E-01  1.83693607E-04 -1.88655083E-03  7.98017118E-02
  2.15689577E-05  4.04086019E-03 -1.11631313E-04 -4.48179595E-05 -1.80543329E-02
  7.69285375E-02 -4.93436958E-04 -1.71137348E-03  6.84914338E-03  2.00983896E-03
 -2.84360076E-03 -2.21147411E-05 -1.25549943E-02 -9.96771449E-03 -5.82558451E-05
 -1.07609595E-03 -1.94486278E-05 -1.62990273E-06 -5.19791931E-03  5.33967662E-03
  1.62534822E-03  5.75850968E-03 -1.42892942E-02 -2.90746279E-02 -4.39868693E-05
 -1.68204064E-05  4.14806798E-03  1.23925156E-02  9.01002775E-05  7.74291368E-03
  2.23877126E-05 -1.07280300E-05 -1.67208217E-02  4.42459436E-03  1.86499677E-01
 -1.65925382E-03 -6.07484412E-03  2.60244905E-02  7.72905295E-03 -1.01604466E-02
 -4.90512254E-05 -3.94989149E-02 -3.92906061E-02 -2.00570631E-04 -3.09319134E-03
 -6.15457812E-05 -4.43027108E-06 -1.63829462E-02  1.80256365E-02  5.75462564E-03
  1.97510617E-02 -4.54930560E-02 -1.00522289E-01 -1.36861287E-04 -7.15651483E-05
  1.80716945E-02  3.51144929E-02  2.80234143E-04  2.61729121E-02  5.56913385E-05
 -2.95417796E-05 -5.50553451E-02  1.41331305E-02  4.48088743E-01  1.08478913E+00
  5.75722540E-03  2.27878589E-02 -1.01239027E-01 -3.92142759E-02  4.59034409E-02
 -7.50418544E-04  9.37770358E-02  1.55248854E-01  5.09544659E-04  7.28603825E-03
  1.86705230E-04  4.66065866E-06  4.98215194E-02 -4.87132148E-02 -1.43561795E-02
 -4.58450669E-02  7.63907041E-02  3.18155549E-01  2.49670873E-03  6.58963015E-04
 -9.24796672E-02 -6.45622105E-02 -2.39634521E-04 -7.19082848E-02  2.37000644E-04
 -3.62364315E-05  1.53087331E-01 -4.04220381E-02 -5.80108721E-02 -2.19987546E-01
  8.14501631E-01 -5.36417439E-03 -1.94234323E-02  8.50014929E-02  2.20147188E-02
 -3.38656051E-02  1.62995163E-04 -1.85121788E-02 -1.09676456E-01 -3.06446182E-04
  2.81572130E-02  7.98857758E-05 -1.01294232E-04 -3.00880392E-02  5.81912023E-02
  2.86494165E-02  9.91334271E-02 -3.16625898E-01 -4.05707228E-01  1.58826383E-03
  3.72104271E-04  2.34558335E-02 -1.18447909E-01  1.00147762E-03  8.11223240E-03
  1.71232581E-04 -2.53966881E-05 -4.92326262E-02 -8.47258319E-03 -7.94788250E-04
 -3.00817478E-03  2.20264705E-02  5.52155628E-01  1.95387070E-03  7.28085506E-03
 -3.03539282E-02 -1.36177826E-02  1.87499284E-02  1.61126375E-05 -3.72762120E-02
  3.34610841E-02 -4.49579971E-05 -4.35024661E-03  9.27907177E-05 -1.88695022E-04
 -7.39504128E-03 -6.31307446E-03 -6.26713471E-05 -1.87457641E-04  1.78484234E-03
 -2.06083933E-04  2.65960527E-02  8.06062211E-04 -6.30601288E-02  1.52300790E-01
 -1.82546474E-06  1.69432607E-03 -6.75938331E-05 -3.03028284E-05 -1.12916820E-03
  1.02087229E-01  3.32457090E-03  1.14280004E-02 -4.78932039E-02 -1.78379226E-02
  5.44459083E-01  5.06940418E-06  2.03117918E-05 -6.99738817E-05 -8.61947606E-05
 -8.03826590E-05 -7.16050553E-02 -7.19894349E-04  1.16123938E-03  1.50201880E-02
  1.47728880E-04  1.17273682E-02 -6.54435746E-02  1.25958106E-04  8.23920182E-06
  2.75767315E-06  9.75934936E-07  3.12359698E-05  5.85658643E-04  5.42847948E-04
  3.40482894E-01  1.00623313E-03  1.38582278E-03  4.54535135E-02 -3.88313808E-04
  7.15214808E-02 -1.66487211E-02  2.77368348E-04  2.00774933E-06  3.54885664E-05
  9.55870954E-05  7.34318564E-04 -3.54870769E-04 -2.00557780E-04  5.01579291E-01
 -3.18713799E-03 -1.67663117E-02  8.98025561E-02  8.65774038E-02  5.53884527E-02
  2.51138988E-03  8.06071680E-02 -1.96766717E+00  3.47989667E-04 -3.81827694E-03
 -5.77127170E-04  5.22238732E-05 -3.91015085E-02  1.26929750E-01 -2.69514237E-03
 -1.54540175E-02  1.12155421E-01  7.38123614E-03  2.84024878E-02 -3.70884885E-03
  1.49917184E+00 -1.13751705E+00 -2.23421905E-03 -4.38704054E-02 -1.41361219E-03
  1.10512853E-04 -1.01518022E-01 -1.22806014E-02  1.03854741E-02  3.66480918E-02
 -1.24352621E-01 -7.90061312E-02 -3.28859441E-02 -4.54420534E-03  1.42653974E+00
 -1.51286561E-02 -4.77537264E-02  1.18403479E-01  3.47359117E-03 -4.63481811E-02
 -2.92618061E-03  1.26820005E-01 -1.36918695E+00  3.28478316E-05  2.86999534E-03
  3.99504404E-04  4.93174563E-04  5.97996643E-02  5.09229103E-02  4.84288749E-03
  5.24995489E-03  5.67868526E-02  1.19637926E-01  1.55635362E-01  2.36677735E-03
  1.01902271E+00 -9.97648720E-01  3.02399664E-03 -7.08206559E-02  1.37720656E-03
 -7.29626201E-04  1.40743968E-02 -9.94922898E-02 -3.04641226E-02 -1.03110878E-01
  3.05633403E-01  6.04346395E-03 -1.13972018E-01  2.52973164E-03  8.69327515E-01
  9.28918053E-01 -3.33113166E-04 -1.20093034E-03  3.51512869E-03  1.81260459E-03
  2.18540570E-05 -1.77133219E-02  3.73273851E-03  2.66788387E-03  2.88910399E-03
 -7.89503798E-04  7.81909178E-04 -1.02243550E-02 -1.38380776E-03 -1.19984812E-04
 -3.81858633E-04 -1.41329131E-03  4.68545154E-03  7.71318732E-04  8.32346374E-04
  4.48750296E-02  3.27016084E-04  1.95400295E-03  2.41098249E-03 -7.95765640E-04
  1.11202167E-02 -3.24492683E-03  1.99744305E-04 -3.79616265E-04 -2.37583377E-04
 -8.44246075E-04  1.93552707E-03 -1.60490888E-03 -1.33055398E-04  8.08843664E-02
  3.00912614E-03 -5.36105603E-03  2.34920855E-02 -5.61358459E-05  5.36437341E-04
 -2.16543645E-03 -1.19050006E-02  1.80766087E-02 -8.17412097E-04 -8.26514480E-03
 -3.74173461E-02 -2.78662580E-04  3.36874868E-03  5.38144224E-05 -3.77939244E-05
  1.54558219E-02  1.20244966E-02  6.84379664E-03  2.28544727E-02 -6.06415841E-02
 -5.84474955E-03  3.95341687E-03  7.75063890E-04  2.30337048E-03 -1.54187341E-02
  9.18317199E-04  1.38003109E-02  4.06200824E-04 -9.96456141E-05 -1.17596097E-02
 -6.34700791E-04  7.58175559E-03  2.65756477E-02 -7.91909158E-02 -2.53836394E-03
  1.08784481E-03  1.12125533E-03  1.48954059E-02 -1.67566300E-02 -1.89256055E-03
  1.83123499E-02 -6.95324812E-05 -2.52157170E-04  7.87944433E-04  5.27179379E-04
  1.25639916E-05 -4.40827698E-02  8.48285598E-04  9.27492092E-04  5.81261075E-04
 -5.11052151E-05 -1.38510327E-03  8.51456896E-03 -2.19511314E-04 -8.65424915E-06
 -7.26537695E-05 -2.47197141E-04  6.64056206E-04 -9.29175417E-05  1.92555669E-04
 -5.13674112E-02 -5.78814367E-05  2.67975944E-04 -1.11985019E-02 -2.28882238E-04
 -3.53424434E-05 -4.73658438E-03  1.18034146E-04 -1.92079449E-04 -4.61989941E-05
 -2.04845564E-04  9.23329247E-04  2.25546188E-04 -1.81608136E-04 -2.15404723E-02
 -2.43164556E-04 -1.09226034E-04 -9.84632537E-04 -1.61779703E-04  8.08856261E-03
 -6.11631934E-05 -2.22193614E-04  6.26570691E-04  3.85359458E-04  5.90941627E-05
 -1.86535749E-02  1.10299995E-03  8.64612512E-04  1.43974230E-03 -1.37319483E-04
  1.07397350E-04  4.19848401E-04 -2.06699581E-04 -3.35445348E-05 -8.33940762E-05
 -2.97103564E-04  9.14959270E-04  2.72416289E-04  1.47808047E-04 -4.20399520E-03
 -4.46203140E-04  4.08835587E-04 -3.55165557E-03 -1.84951884E-04  3.40276100E-03
 -2.50663988E-03  1.50117902E-04 -1.45292148E-04 -5.98268339E-05 -2.36840102E-04
  7.20009588E-04 -2.67065627E-04 -4.29517839E-05  2.00383565E-02  3.00582196E-04
 -1.93405577E-03  9.16465552E-03 -5.04827213E-04  3.16698849E-03  5.43278152E-03
 -2.04946729E-03 -7.45293501E-03  1.84125271E-02  2.40236171E-02 -2.21690271E-02
  4.33211830E-04 -2.11443504E-02  6.66680240E-02  2.62699732E-04 -1.61719058E-02
 -1.23872679E-04 -4.51432195E-05 -2.63845745E-02 -2.22801691E-02 -1.65550012E-02
 -5.43997388E-02  1.50529151E-01  4.81451248E-02 -2.17597197E-03 -5.52621861E-04
  1.38108628E-02  8.44304537E-02 -9.99352704E-04 -1.03325714E-02 -3.32143003E-04
  8.72801312E-05 -4.97887618E-04  8.28857826E-03  2.35030235E-04 -4.63548297E-04
  6.24366808E-03 -1.07158999E-01  7.39031276E-03 -6.92066284E-04  4.12947160E-02
 -2.63484752E-02  1.35692146E-03 -5.34850129E-03  1.71650063E-05  7.05606481E-05
  5.10527029E-02  6.84271994E-03  2.21927636E-02 -6.57330025E-02 -1.36520980E-02
  4.79704584E-02  1.36956806E-04 -5.26638220E-02  1.02322049E-02  1.77184148E-04
 -7.04774784E-03 -6.60284469E-05 -2.73352978E-07 -3.55506242E-02  5.74497756E-03
 -5.71553661E-03 -1.89455442E-02  5.58335550E-02 -6.04268397E-03 -1.03715864E-01
 -5.14047835E-04 -1.80745995E-02  9.54107549E-02 -8.20808964E-04 -3.84935179E-03
 -3.65861565E-04 -3.58056337E-05 -7.11682367E-03  6.28285115E-02  2.82113463E-03
  7.25184817E-03 -1.30111945E-02 -1.82306877E-02  1.23925923E-01 -7.05511213E-04
 -7.36694570E-03 -9.01107294E-02  1.00919020E-03 -7.14735495E-03 -2.22555095E-05
  1.35950325E-04  1.79205128E-02  7.26518773E-02 -4.45508500E-04 -1.52328849E-03
  5.19475491E-03  3.07410998E-03 -1.31669131E-06 -9.49802797E-05  6.65706827E-03
  8.10428823E-05 -9.27412336E-05 -3.16477306E-04  5.85634624E-06 -2.00758751E-06
  4.16290691E-03 -3.28701255E-06 -4.57251835E-04 -1.59102947E-03  6.16986688E-03
  4.86757885E-03  2.30275385E-03  1.09179133E-04  5.93988424E-03 -7.09270311E-03
  3.06189324E-04  7.91397272E-04  1.27425772E-04  2.52466740E-06 -1.60203335E-03
 -8.28338164E-03  1.48710094E-03  5.23508436E-03 -1.33972100E-02 -1.47503015E-02
 -2.34401986E-02  1.22080703E-04  6.48830460E-03  9.05717723E-03 -3.74485531E-04
  5.40595649E-03  8.74744239E-05  3.57178237E-05  6.23799108E-03 -1.49486437E-02
  1.86592875E-01 -1.45830119E-03 -5.28491032E-03  1.95732468E-02  1.14656326E-02
 -4.89761152E-06 -3.05147130E-04  2.00910220E-02  2.74836916E-04 -3.10364564E-04
 -1.69934277E-03  2.11699353E-05 -5.60951871E-06  1.28010251E-02 -1.11614364E-05
 -1.58605166E-03 -5.77340353E-03  2.36758550E-02  1.76462765E-02  8.33284996E-03
  3.82133413E-04  2.57072974E-02 -1.90222942E-02  9.89375936E-04  3.59886021E-03
  4.09291603E-04  2.67288373E-05 -5.96973107E-03 -2.73918556E-02  5.23792857E-03
  1.78971847E-02 -4.29530897E-02 -5.12709642E-02 -8.10686290E-02  4.23296214E-04
  2.78247110E-02  2.81629263E-02 -1.33469201E-03  1.79633069E-02  2.28728592E-04
  4.79402432E-06  2.06919822E-02 -4.93115286E-02  4.48079297E-01  1.08400748E+00
  3.79214394E-03  1.53852934E-02 -6.31085401E-02 -4.72604048E-02  1.58851259E-05
  1.25123162E-03 -5.79404387E-02 -7.26047976E-04  8.05799095E-04  8.21093938E-03
 -1.41878107E-04  1.02677627E-05 -3.18744360E-02  3.20360112E-05  6.20076245E-03
  2.37875113E-02 -9.85246487E-02 -8.13832641E-02 -3.16711826E-02 -1.65499261E-03
 -1.13126797E-01  3.63062802E-02 -2.75340308E-03 -1.16195425E-02 -1.27514733E-03
 -1.03352717E-04  1.34026792E-02  8.05614872E-02 -1.27286857E-02 -4.07506048E-02
  7.57770783E-02  1.68430759E-01  2.64538448E-01 -2.31308382E-03 -1.12384421E-01
 -8.68896702E-02  4.20104905E-03 -4.90022895E-02 -4.10596784E-04  5.65227141E-04
 -5.78129243E-02  1.39605391E-01 -5.67135452E-02 -2.14858625E-01  7.96718461E-01
 -2.97943638E-03 -1.12216923E-02  4.47709712E-02  3.70367747E-02 -2.70343826E-05
  4.74126379E-04 -2.50200532E-02 -1.71731325E-04  7.12324348E-04 -1.25257823E-02
 -4.38934856E-04  1.60077732E-05 -2.22116506E-02 -5.46580584E-06 -3.20061629E-03
 -1.18010806E-02  5.18779298E-02  3.83990052E-02  1.68072731E-02 -1.61676011E-03
  5.82251174E-02  3.88342566E-02 -2.76725379E-03  1.49013988E-02 -7.35728758E-04
  7.38567287E-05 -2.99513002E-02 -1.49518129E-02  1.29296295E-02  4.41329668E-02
 -1.24929118E-01 -8.53756221E-02 -1.81403833E-01  2.70740042E-04  1.88013511E-01
 -8.58389480E-02  2.87439749E-03  2.05567931E-02 -2.01487201E-04 -3.37779780E-04
  8.63643877E-02  2.29045226E-02  4.16544537E-03  1.41726862E-02 -4.50028821E-02
  5.26042244E-01 -1.05650722E-07 -3.15481275E-07  1.74846830E-06  4.39318248E-06
 -4.95794988E-02 -2.92745710E-05  4.14808176E-06 -9.26385547E-03  4.94428660E-06
  4.44449638E-06  1.45196245E-06  5.21359470E-05 -6.32998255E-06 -1.40873263E-02
 -2.79605706E-03 -1.00166929E-02  4.68328948E-02  3.58682729E-02  2.08063143E-02
 -2.00550452E-04 -1.55057559E-02 -6.55179003E-02 -1.56347804E-05  1.85891115E-02
  3.71087374E-05 -1.02313212E-04 -2.06010722E-02 -4.98054137E-02  2.42274847E-02
  8.40806682E-02 -2.73248166E-01 -1.98785364E-01 -3.01854404E-01  8.43643631E-04
 -2.85345614E-02 -2.53582677E-02  4.32856628E-04  9.51775356E-03 -4.05751814E-04
  2.30270648E-04 -2.61589246E-02 -6.98154080E-02  2.73082339E-07  1.36118508E-06
 -1.12806146E-05  3.07904707E-05  5.97838873E-01  1.17695029E-06  1.78359973E-05
 -2.66064912E-04 -1.45425074E-04  5.50529558E-05 -1.52466727E-01  1.15237406E-04
  1.03698822E-04  1.56688210E-02 -5.37379083E-04  5.33416008E-03  8.17488189E-06
 -6.55196034E-04  9.30272601E-06  3.61643343E-05  1.48262012E-04 -5.01028280E-04
 -1.55236032E-04 -2.19598527E-04  2.08676027E-02 -1.79675493E-03  3.71293174E-03
 -1.93040011E-02  1.00498691E-03  3.94541015E-02 -2.19741324E-02 -7.58503788E-04
  6.54128284E-04 -2.88715731E-05 -6.83427771E-05 -1.00803274E-03  5.74365732E-04
  5.02501365E-04  2.49766913E-01  9.32713631E-03 -1.86377326E-02  8.34330689E-02
 -2.75720416E-03  2.40585638E-02  4.66674185E-02  1.33664437E-03  1.70688227E-03
 -4.67597862E-04 -1.56170134E-03  4.46673359E-03  4.74728810E-03  1.95074598E-05
  4.25683433E-01 -2.49789866E-02 -8.59145760E-02  2.50115823E-01  7.08840629E-02
  2.10363534E-06 -1.26070551E-02  2.31801953E-01 -1.87708934E-03  1.49169660E-03
 -1.20525480E-02  1.32846027E-03  6.07505514E-05  4.02945500E-03  4.40855602E-05
 -8.79420431E-03 -3.88854703E-02  1.59307859E-01  1.32235483E-02  8.97012642E-02
  1.21692701E-02  1.15246281E-01 -1.38759377E-01  5.50194158E-03 -6.82914012E-02
  4.97516090E-03 -2.14343349E-03  3.69837883E-02 -8.78883145E-02 -2.24021767E-02
 -7.44346314E-02  2.06410017E-01  5.77875042E-03 -7.73202616E-02  1.68339736E-02
 -2.83636821E-02  2.46108085E-01 -7.95568347E-03 -1.96676917E-02  7.70175499E-04
 -3.89857048E-03 -1.55103240E-02 -6.35436112E-02  1.17944724E-02  3.83498877E-02
 -1.40678362E-01 -1.38358897E-01  3.91369762E-05 -4.47815604E-02  5.45726695E-01
 -5.67991086E-05 -2.07098842E-04  5.78076962E-04  1.79837672E-04  2.84339435E-02
  3.58998099E-04  2.19676393E-03 -2.26490613E+00 -3.73936600E-04  9.47328144E-05
 -1.33076296E-04  6.66332837E-05 -1.60746918E-04  1.11591438E-01 -5.73131317E-03
 -2.76126871E-02  1.55065537E-01  7.93692144E-02 -8.61338863E-03 -6.82786501E-04
  1.63742112E+00 -1.33337824E+00  9.20725554E-04 -7.85121942E-02 -1.77821806E-04
 -3.23177507E-04 -5.76775718E-02  4.65624958E-03 -1.25376050E-02 -4.78254636E-02
  1.71366419E-01 -3.68005471E-02  7.84398116E-02 -1.21878765E-03  1.49264490E+00
  1.15056182E+00 -2.48442735E-03 -6.24761733E-03 -6.42636226E-04 -9.28893047E-04
  1.63670553E-02  7.59435979E-03 -8.11221311E-05 -2.72707991E-04  7.25571195E-04
  1.54669777E-04 -1.60619572E-01 -7.89579478E-05  1.69052801E-03  1.87824677E+00
  7.92835924E-04  2.87281727E-03 -8.69901730E-03 -5.05809865E-03  4.93985376E-06
 -2.79878376E-02 -8.68662631E-03  3.42862031E-04  2.10322489E-03  1.69475634E-03
  2.71299530E-03 -3.90317884E-06  3.35337100E-03 -8.99049041E-06  9.69192064E-04
  3.49501670E-03 -1.11332505E-02 -1.41353228E-03 -2.21582333E-03  2.04440958E-02
 -5.75869542E-03  9.50874498E-05  5.88128292E-03  1.88521135E-03  9.66559547E-03
 -4.24746960E-03  2.18744841E-05  1.31605209E-03  4.51322669E-04  1.70399091E-03
 -4.30745741E-03  3.47205678E-03  2.11297947E-03  4.87100394E-02 -1.29094049E-02
  7.27081461E-03 -7.95712094E-03  4.12060988E-03 -9.66884438E-06 -4.43126663E-03
 -3.75793451E-03 -1.87287308E-03  4.93964793E-04  1.89551741E-03 -7.18541005E-03
 -8.44392852E-03 -2.74141021E-05 -1.54503688E-02  1.81360676E-02 -2.98959698E-04
  3.45634424E-02  6.26314722E-04  1.66447187E-03  1.39027782E-03 -8.00209831E-05
 -6.71255243E-06 -1.33319536E-03 -3.50386765E-02  4.17885002E-04 -1.94113772E-04
 -2.16085746E-04  3.94638499E-05 -1.22890253E-06 -6.01867377E-03 -1.06053474E-05
  8.33114410E-04  3.84157625E-03 -1.42552948E-02 -3.30077341E-02 -7.66483605E-03
  4.65077466E-04  1.01724003E-02  2.57459621E-02  4.32982266E-04  1.32992707E-02
  4.66485843E-04 -1.00318801E-04 -1.77162325E-02  3.42488847E-03  8.07029448E-03
  2.69517723E-02 -7.31750099E-02  6.35093128E-04 -3.30232570E-03  2.25455301E-03
  1.94625818E-02 -3.11379221E-02 -1.01230233E-03  1.04470778E-02 -1.72470241E-04
 -2.94399946E-04  3.47396483E-03 -1.27191039E-02  9.54632795E-03  3.34459608E-02
 -9.54289476E-02 -2.08836009E-02 -2.16152061E-06  2.33395582E-03 -6.34811260E-02
 -3.71745008E-04  3.14548818E-03  3.67976761E-02  1.31274311E-04  4.75894805E-04
 -1.55940576E-03 -9.72791200E-04 -1.43294096E-05  3.09214544E-02  3.48312017E-04
 -9.41266720E-05 -2.97850833E-03  2.42245350E-04 -1.94499014E-03  7.94905216E-07
  8.03343692E-04 -6.03603212E-06  1.73910698E-04  6.15474492E-04 -1.95597845E-03
 -4.64873725E-04 -3.73460137E-04 -1.85409310E-02 -2.88519317E-03 -6.97892105E-04
 -3.62468543E-03  3.64977547E-04 -1.03393860E-02  4.67085961E-03  2.30462609E-04
  4.41002220E-05 -1.71250343E-04 -5.41521887E-04  9.57417342E-04  1.53014480E-03
  1.30773612E-03 -5.52132511E-02  1.76311131E-04 -4.09958101E-03  1.39794725E-03
 -6.09629074E-04 -1.33982843E-03  1.08937037E-03 -8.98265996E-04 -4.12442556E-04
  2.65284225E-04  7.55670392E-04 -1.19926976E-03 -6.32136207E-03  5.23656663E-06
 -1.12692187E-02 -1.47725586E-02  1.02270815E-04 -2.69522295E-02 -3.40732484E-04
  2.39010897E-02  1.35807910E-06  4.29217744E-06 -1.22023100E-05  7.80233926E-06
  1.45330725E-04 -9.44672741E-06  9.57700517E-07 -4.91890986E-04  2.32120159E-06
  6.29798656E-06  3.97175253E-06  1.68709122E-02  7.47763204E-06  2.05132878E-05
  4.76825600E-05  1.42373025E-04 -2.08212960E-04  2.38851789E-04 -9.76476870E-05
 -6.27923821E-02  3.72474196E-04 -7.49359361E-04 -9.19473215E-03  1.68876110E-04
 -8.40615654E-03  8.50746974E-04 -1.10208674E-04 -3.09492218E-04  2.19297649E-04
  7.23645849E-04 -2.02546706E-03 -1.02105773E-03 -1.46759014E-03 -6.19410269E-02
 -8.38736073E-04  6.78225945E-04 -9.86261967E-03  1.03873592E-04  8.09287275E-03
  5.01301783E-04 -3.54813933E-04 -3.73797378E-04 -2.29132260E-06 -7.27410466E-06
  1.62711144E-05  2.24514541E-06  2.08774209E-03  9.90265063E-06  1.16829756E-05
 -1.18706831E-03  4.10238155E-06 -3.45431835E-06 -2.38732987E-06  1.60756119E-02
  1.57064261E-03  3.42378176E-03 -3.19113809E-03  3.23630642E-02 -1.51730409E-05
 -1.71333507E-03 -2.98939027E-02 -2.22890800E-04  3.43817477E-04 -1.56168182E-02
 -8.42879024E-05  2.05332444E-05 -3.28965140E-02 -5.54044729E-06 -8.38166913E-03
 -2.79705142E-02  8.75161283E-02  3.81373129E-02 -3.51921424E-03  2.70269000E-04
  4.95285087E-02  6.67558721E-02 -4.78256118E-04  6.37488416E-03  2.20781225E-04
 -2.86621116E-04 -2.14435659E-02  2.58664897E-02  1.32836279E-02  4.32435785E-02
 -1.17482369E-01 -1.16834107E-01  1.05937459E-02  1.58427668E-03  1.07430716E-01
 -7.47730392E-02 -2.22424312E-04  1.28776475E-02 -2.66334254E-06 -5.50974563E-04
  5.43248155E-02  4.48714827E-02 -2.19738540E-03 -6.32428361E-03  1.12180719E-02
  2.13767109E-01 -1.33275753E-04 -3.46069780E-03 -6.22930411E-02  3.01217631E-04
 -2.68029651E-04 -1.05290709E-02 -4.15797977E-03 -3.28775082E-06  1.60256795E-01
 -7.29454684E-07 -1.44069187E-06  2.19730734E-06 -1.98656574E-05  1.25801964E-02
 -2.02302258E-05 -1.49857712E-05  1.05476958E-01  1.53319769E-05  4.90880309E-06
  2.69489293E-07 -2.49506672E-04  1.38296429E-05 -2.13519348E-02 -4.77480881E-03
 -1.59016949E-02  3.89772478E-02  5.43770818E-02  7.03915313E-03  8.64112674E-04
 -5.05869065E-02  7.28888591E-02 -4.42968679E-06 -1.00677805E-02  1.27368353E-04
  1.10008824E-04  2.37179961E-02  6.56618133E-03 -1.42975628E-02 -4.74168327E-02
  1.34332359E-01 -8.59419731E-03  6.43206816E-02  5.60660583E-04 -1.60931283E-02
  4.24172114E-03 -3.80007784E-04 -1.04271476E-02  1.44393770E-04 -4.46530119E-04
  2.17221462E-02  1.65962032E-02  1.94566487E-06  5.99536470E-06 -1.11318471E-05
 -1.65882723E-04 -1.18918638E-01 -5.57910672E-06  4.32420192E-05  3.36963148E-02
  3.20981046E-05  1.10800562E-05 -1.02784357E-05 -2.66661682E-03 -5.46665768E-05
  7.10017769E-02 -4.93278456E-04 -1.71084013E-03  6.84800337E-03  2.01014731E-03
  2.84088096E-03 -2.55732766E-05 -1.25559821E-02  1.00779952E-02 -5.66305357E-05
 -1.07586139E-03 -2.27195166E-05  9.40450191E-06 -5.20154379E-03 -5.34102908E-03
 -3.86344871E-04 -1.21614975E-03  2.90432764E-03  1.40023212E-03  2.64825260E-03
  1.51390797E-05  6.70409555E-03  1.48202595E-02  1.12403859E-04  1.13794080E-03
  2.93926323E-05  2.72844780E-05 -1.09615328E-03  2.30232132E-03 -4.92170271E-04
 -1.69691984E-03  6.73468170E-03  4.99034385E-04  4.77946202E-03  3.74075461E-05
  1.79441447E-02 -4.40925450E-03 -3.72305179E-04 -5.61237555E-04 -1.30502909E-05
 -1.28296237E-04  7.42502444E-03  2.98934811E-03  1.48723531E-03  5.23831734E-03
 -1.27283109E-02  1.29162677E-02 -2.42366736E-02 -2.90676575E-05 -2.23902703E-02
  1.24494967E-02  4.56604806E-04  8.07111962E-03 -1.72541692E-04 -2.21971708E-04
  1.33010054E-02  1.42824172E-02  1.86499568E-01 -1.65870747E-03 -6.07296097E-03
  2.60200184E-02  7.72974666E-03  1.01512341E-02 -6.16436676E-05 -3.95019042E-02
  3.96844996E-02 -1.93475463E-04 -3.09257990E-03 -7.18765837E-05  2.95692992E-05
 -1.63943978E-02 -1.80316773E-02 -1.22258795E-03 -4.22398849E-03  1.24068613E-02
  5.26005963E-03  9.90864374E-03  3.88447545E-05  2.09774790E-02  5.31925456E-02
  3.72342337E-04  3.69067298E-03  9.31613061E-05  9.61586092E-05 -3.13511327E-03
  6.21403971E-03 -1.69690698E-03 -6.19512668E-03  2.62612007E-02  1.68028058E-03
  1.75002457E-02  1.05927506E-04  5.96192172E-02 -9.54053570E-03 -1.30960148E-03
 -1.14089509E-03 -6.86289497E-05 -4.52399781E-04  2.48745515E-02  9.41063771E-03
  5.23551007E-03  1.78984309E-02 -4.07491004E-02  4.40865519E-02 -8.41121202E-02
 -6.86995673E-05 -7.43932561E-02  4.75060894E-02  1.72349221E-03  2.69552302E-02
 -5.46861895E-04 -7.32855233E-04  4.33026640E-02  4.73671845E-02  4.48088394E-01
  1.08478805E+00  5.75640176E-03  2.27843938E-02 -1.01229016E-01 -3.92043275E-02
 -4.58803705E-02 -6.99218211E-04  9.37950747E-02 -1.56353224E-01  4.74719914E-04
  7.28747728E-03  2.07701039E-04 -8.32143979E-05  4.98399737E-02  4.87391955E-02
  3.02261924E-03  1.26974011E-02 -4.70615194E-02 -2.05805288E-02 -3.88151297E-02
  3.06602364E-04 -5.43927901E-02 -1.79898166E-01 -6.56866239E-04 -7.96345769E-03
  2.54390492E-05 -3.95427695E-04  5.86717266E-03 -1.20279625E-02  6.73517041E-03
  2.62630444E-02 -1.12653183E-01 -1.22225719E-02 -7.75353971E-02  6.61941130E-04
 -1.67982576E-01 -3.47789553E-03  3.36220617E-03  2.07864089E-03  3.23502592E-04
  1.23531763E-03 -7.03199787E-02 -2.95590489E-02 -1.33975859E-02 -4.29540232E-02
  7.57616741E-02 -1.24775265E-01  2.73348984E-01 -1.01894116E-03  2.06299724E-01
 -1.70503250E-01 -4.37883579E-03 -7.31945616E-02  9.82120272E-04  2.05031581E-03
 -1.17657257E-01 -1.34200718E-01 -5.80152342E-02 -2.20002202E-01  8.14587758E-01
 -5.36686180E-03 -1.94330352E-02  8.50372593E-02  2.20270617E-02  3.38650826E-02
  1.52449428E-04 -1.84959298E-02  1.10445994E-01 -2.73953473E-04  2.81592280E-02
  6.97225257E-05  1.18916504E-04 -3.01190010E-02 -5.82313023E-02 -1.32843646E-03
 -4.99264871E-03  1.88873414E-02 -1.37712813E-02  3.21052650E-02 -2.14023775E-04
 -7.39233546E-02  4.52208330E-02  6.58908344E-04 -7.15561719E-03  3.81583043E-05
 -2.63719825E-05  4.65459115E-03 -2.06043551E-02  4.96498979E-04  1.67099964E-03
 -1.21815743E-02 -2.92073064E-03 -9.19856929E-03 -1.66380484E-04 -8.60093875E-02
  3.66834855E-02 -1.24248840E-03 -8.82144540E-03 -4.71133883E-04 -7.18259495E-05
 -2.94191255E-02 -1.42774655E-02 -1.47439459E-02 -5.12491039E-02  1.68356044E-01
 -8.51925563E-02  1.98746438E-01  6.59950172E-04  5.82388118E-03  3.62116106E-02
  3.48976336E-03  6.25850831E-04  1.51857924E-03  1.02817551E-03 -1.16815782E-01
  8.74812962E-03 -8.00489840E-04 -3.02729952E-03  2.20665554E-02  5.52122028E-01
 -1.95324643E-03 -7.27828108E-03  3.03350008E-02  1.36136012E-02  1.87543256E-02
  6.87806107E-06  3.73027915E-02  3.37254821E-02  5.60378807E-05  4.34496780E-03
 -9.02325985E-05 -2.20052123E-04  7.41131013E-03 -6.31653844E-03 -2.64098969E-03
 -9.87181581E-03  3.88478399E-02  3.17891904E-02  1.91440558E-02  3.57773460E-04
  7.94082375E-03  3.06735052E-02 -3.43101698E-04 -7.67673652E-03  2.03694605E-05
  1.12810426E-04  8.52005782E-03 -1.11850885E-02 -4.77804967E-03 -1.74949743E-02
  7.75119812E-02  9.21644296E-03  5.54164636E-02 -5.87962330E-05  4.79105112E-02
  1.38586050E-02  1.47540667E-04  2.06463546E-02  1.80336829E-04 -4.36190254E-04
  5.61950649E-02 -3.16692506E-03  2.34432637E-02  8.10787870E-02 -2.64569298E-01
  1.81249615E-01 -3.02002999E-01 -5.86461162E-04  7.72977481E-02  7.81234542E-02
 -2.06462465E-03  3.30315354E-03 -1.31254936E-03 -1.48136231E-03 -1.04850615E-02
  6.43297877E-02 -3.32556923E-03 -1.14318129E-02  4.79135524E-02  1.78322804E-02
  5.44465914E-01  6.75698607E-06  2.62954073E-05 -9.28066844E-05 -5.28664547E-05
  1.24259663E-04 -7.16307348E-02 -6.48532691E-04 -7.71754292E-04  1.50308231E-02
  2.02496118E-04  1.17570436E-02  6.54538001E-02  2.31921014E-04  3.34937309E-05
 -4.62703907E-06 -2.18928983E-05  1.28237495E-04  3.90955684E-04 -3.45560471E-04
 -1.49099979E-01  2.55786948E-03 -5.03818869E-04 -2.63743621E-02 -4.16567182E-04
  5.97659481E-03 -1.01179542E-02  3.51528269E-04 -2.53635696E-05  3.42608281E-05
  9.45123233E-05  7.12152933E-04 -1.68885941E-04  6.71585858E-05  1.86577993E-02
 -3.53944845E-03  6.07083212E-03  3.67926390E-03  9.59748443E-04  4.16642583E-02
  2.37011122E-02 -9.03087929E-04 -2.67082815E-04  1.30955612E-04  4.54587500E-04
 -2.42502020E-03  3.44826957E-04 -9.39633086E-04  2.49784449E-01  1.69470529E-02
  7.76756099E-04  4.87042634E-02  2.25775070E-03 -5.51890208E-02  6.19685715E-02
  1.59924104E-03 -4.94881098E-04  3.97035342E-05  1.10809251E-04  6.67613086E-04
 -3.69516472E-04  2.43364736E-04  5.01572848E-01 -3.07858916E-03 -1.63722081E-02
  8.86949354E-02  8.61681690E-02 -5.54503562E-02  1.87097339E-03  7.65884107E-02
  1.96596421E+00  9.84284491E-04 -3.98634593E-03 -3.79165529E-04  6.40501107E-05
 -3.88693291E-02 -1.26935363E-01 -1.28804429E-02 -3.97240348E-02  7.92945131E-02
 -4.15812009E-02  4.89087067E-02 -3.07762659E-03 -1.26534532E+00  1.21993120E+00
 -3.91748427E-03  5.42803791E-02 -1.18852912E-03  7.16851111E-04  4.25001079E-02
 -1.25188771E-02  1.80309015E-02  5.99279608E-02 -1.68814191E-01 -8.55038116E-02
 -4.81551057E-02 -3.23942775E-03 -1.06246729E+00 -9.78223986E-01  6.86160149E-03
 -1.82230958E-03  8.98683984E-04  1.84312202E-03  7.10219258E-02  1.20660415E-02
  6.62227358E-03  2.82740455E-02 -1.13533104E-01  1.87738780E-01  2.84960075E-02
  9.52549542E-03 -3.16478473E-02 -1.49083105E+00 -1.24120264E-02  2.01641528E-02
  3.03792527E-05  8.27073155E-04  1.06961821E-01  1.59505902E-02  1.04794859E-02
  3.69836265E-02 -1.25267160E-01 -7.83393355E-02  3.31073310E-02 -4.18056409E-03
  1.42342016E+00  1.50657106E-02  4.75293799E-02 -1.17809455E-01 -3.32640520E-03
 -4.63143501E-02  3.23610705E-03 -1.24608100E-01 -1.36887657E+00 -4.84071142E-04
 -2.75888187E-03 -5.87808220E-04  4.91023414E-04 -5.99591503E-02  5.09576452E-02
 -4.75461938E-03 -1.78933038E-02  8.40206534E-02  1.72730849E-02 -1.19767276E-02
 -6.46114110E-03  1.02351715E+00 -7.70823890E-01 -2.00627429E-03 -1.86576170E-02
 -1.86178020E-03  3.38651078E-04 -5.65084540E-02  3.77479360E-02  4.36851803E-03
  9.39354107E-03  3.88349390E-03 -3.69580110E-02  1.41064753E-02 -6.30295304E-03
  9.78710389E-01  6.19102146E-01  2.02482169E-03 -6.19060455E-03 -4.34691046E-04
  1.20198036E-03  2.50567002E-02  3.03420832E-02 -9.11770536E-03 -2.83689710E-02
  8.74474301E-02  8.59543330E-02 -2.55326071E-02  1.85025512E-02 -2.44330326E-01
  1.15030911E+00 -7.61236894E-03  3.08059809E-02  4.22705889E-03  6.61631417E-04
  7.50324127E-02  4.17625023E-03  3.04268483E-02  1.02980403E-01 -3.05324222E-01
 -6.35191462E-03 -1.14043387E-01 -2.91454182E-03 -8.67973661E-01  9.28650054E-01
 -3.25332175E-04 -1.17420314E-03  3.43377750E-03  1.78358638E-03 -2.72882879E-05
 -1.77290453E-02  3.70604821E-03 -3.95336810E-03  2.89020452E-03 -7.74059294E-04
  7.91396555E-04  1.02338075E-02 -1.38005812E-03  1.98117266E-04 -4.46082263E-04
 -1.60553772E-03  5.08962466E-03  8.82126991E-04  6.67222485E-04 -3.35969600E-02
  5.17476998E-03 -2.17109623E-03 -9.15838333E-03 -1.07170211E-03  6.22962963E-04
 -2.33397082E-03  1.21966367E-04 -3.97586164E-04 -3.70062791E-04 -1.30044451E-03
  3.32539719E-03 -1.22622429E-03 -1.80570087E-04  3.69844356E-03  7.70049781E-03
 -1.43213483E-03  1.10701285E-02 -2.02924357E-03  9.13780316E-03  9.75646256E-03
  1.40053842E-03  1.08145725E-03 -3.74254736E-04 -1.33417763E-03  4.20677686E-03
  2.87883822E-03 -4.11914416E-04  8.34519144E-02 -8.00389889E-03  3.47601286E-03
 -7.94699947E-03 -9.98068504E-04  1.39374822E-03  9.86691978E-03 -2.09086061E-04
  3.43907220E-04 -2.31582306E-04 -8.24382593E-04  1.87840319E-03 -1.61608232E-03
  5.26032294E-05  8.09199370E-02  2.18559315E-03  6.02587331E-03  2.34986771E-02
 -5.47390853E-05  5.40382675E-04 -2.16921368E-03 -1.18980504E-02 -1.80627451E-02
 -7.98253281E-04 -8.26443615E-03  3.77736326E-02 -2.71500217E-04  3.37263795E-03
  5.10397273E-05  2.78196459E-05  1.54460092E-02 -1.20315309E-02  4.17795828E-04
  9.81552261E-04  1.88314321E-03  7.99791583E-03  9.67132067E-03  5.80662357E-04
 -2.12273990E-02  1.89228570E-02  9.00127718E-04  4.98964441E-03  4.02353542E-04
 -6.23535098E-05  4.38558308E-03 -8.53265130E-03 -5.59614363E-04 -1.13480777E-03
  2.05728973E-03 -8.82787737E-03 -2.06476063E-02  9.42187403E-04 -2.13255032E-03
  6.04713248E-03 -2.04313401E-03  6.59741395E-03 -9.19271137E-05 -5.31566541E-04
  5.75656177E-03 -1.00057529E-02  5.40775864E-03  1.79698397E-02 -4.90229738E-02
  2.05622030E-02 -9.52491556E-03 -2.77171805E-03 -1.96482134E-02  5.87129144E-03
  4.13094351E-03  1.04516411E-02 -6.13476762E-04 -1.06927702E-04  1.29005324E-02
  1.04110225E-02  7.58244261E-03  2.65780534E-02 -7.92034828E-02 -2.54489260E-03
 -1.08363055E-03  1.13933315E-03  1.52426957E-02  1.66076728E-02 -1.89381257E-03
  1.83139929E-02 -7.44203955E-05 -2.68183962E-04  8.38434233E-04  5.29047868E-04
  1.65671832E-05 -4.40573590E-02  8.85079541E-04 -7.22488480E-04  5.78528533E-04
 -5.10559045E-05 -1.38978494E-03 -8.51052401E-03 -2.03826633E-04 -4.93746457E-06
 -7.87878222E-05 -2.94995780E-04  1.04557254E-03  2.17826479E-04  3.58439090E-04
  1.27510575E-02  1.11303866E-03 -5.98107009E-04 -1.77431523E-03 -2.58423798E-04
  8.54331810E-03 -5.56034136E-03  3.06800596E-05 -2.22269415E-04 -1.43288096E-05
 -7.31641418E-05  3.41727160E-04 -4.77858539E-04 -1.88327148E-04  4.16400478E-02
  7.69387812E-04  3.69005256E-04  9.12906214E-03 -8.79080826E-05 -1.92107366E-04
  2.68386085E-03  6.72932576E-05 -1.23154398E-04  9.16312722E-05  2.42262244E-04
 -4.47047810E-04 -2.07106439E-04  3.92549764E-04  2.40212262E-02  7.91380325E-04
  5.12461875E-04 -6.79638562E-06 -1.70933908E-04 -1.34247565E-03 -8.09043075E-03
 -2.39974348E-05 -1.31693031E-04 -4.64248765E-05 -2.04868975E-04  9.23407283E-04
  2.70502951E-04  2.33517719E-04 -2.15513717E-02 -1.17524684E-04 -9.61543103E-06
 -9.91267076E-04 -1.58688737E-04  8.08168925E-03  6.54410338E-05  2.35704972E-04
 -6.61005485E-04 -3.84925351E-04  3.83380423E-05  1.86729892E-02 -1.13944675E-03
  8.19324444E-04 -1.43991152E-03  1.37652048E-04 -1.07223753E-04  4.20032124E-04
  1.95430186E-04 -3.59950289E-05  9.26631283E-05  3.36935891E-04 -1.09553666E-03
 -2.25018733E-04 -2.35040797E-04  4.10393298E-04 -7.50412926E-04  5.27368820E-04
  2.98043532E-03  2.76847121E-04 -3.91225598E-03  2.51211770E-03 -1.13742677E-04
  6.88381781E-05  1.27372761E-04  4.48482272E-04 -1.22052653E-03  7.71914447E-05
 -4.13902319E-04 -2.37193614E-02 -1.83288641E-03  1.21792049E-03 -9.76101873E-03
  5.26234277E-04 -2.68881460E-03 -5.38633068E-03 -1.79932217E-04 -2.40565464E-04
 -3.96051372E-05 -1.72889376E-05 -5.32551613E-04  3.25920785E-04  2.30801951E-04
 -4.66849577E-02  3.87103714E-03 -8.92969744E-04  4.43169596E-03  2.93739751E-04
 -1.08800118E-03  5.02740748E-04  5.39907969E-04 -4.42822126E-04  5.88996542E-05
  2.33248832E-04 -7.05396785E-04  2.92067969E-04 -3.17752778E-05 -2.00412979E-02
 -3.57058788E-04 -1.89636667E-03 -9.16769959E-03  5.03621126E-04 -3.16590796E-03
  5.43715481E-03 -2.04960717E-03 -7.45134272E-03  1.84012920E-02  2.40319914E-02
  2.21476820E-02  4.34649628E-04 -2.11037864E-02 -6.70053161E-02  2.43836830E-04
 -1.61559385E-02 -1.18062700E-04  6.18253371E-05 -2.63328563E-02  2.23010915E-02
 -1.13287838E-03 -3.25844816E-03  6.98811154E-03 -2.45625745E-03 -1.03004789E-02
 -8.95967759E-04  7.32201001E-02 -2.42030910E-02 -9.05133769E-04  4.13354126E-03
 -3.66977668E-04  4.27343374E-05 -2.38551424E-02  3.76476492E-03  7.42723255E-03
  2.48835245E-02 -7.03480198E-02 -2.94399240E-02 -5.62228541E-02 -9.11826484E-04
  7.12873691E-02 -2.48917173E-02  1.41863079E-03  5.77440720E-03  6.56011637E-05
  1.78668011E-04  1.72916390E-02  7.29039422E-04  6.25512476E-03  2.07489581E-02
 -5.79688474E-02  8.63539006E-02  2.61008422E-02  1.33150682E-03 -1.55469644E-02
 -1.60470058E-02 -3.77175794E-03  3.50791208E-03 -8.92818680E-04  3.51637614E-04
  5.42758505E-02 -2.17775315E-02  2.43183450E-04 -4.32804144E-04  6.14881583E-03
 -1.07163667E-01 -7.35009879E-03 -6.95879596E-04  4.10383378E-02  2.64798853E-02
  1.37493505E-03 -5.31611561E-03 -1.52531934E-06 -7.73648495E-05  5.10285719E-02
 -6.84397506E-03 -2.21973200E-02  6.57480369E-02  1.36124728E-02  4.79619637E-02
 -9.36933689E-05  5.26956747E-02  1.05714694E-02 -1.81352517E-04  7.04483348E-03
  7.39061724E-05 -8.26815905E-06  3.55799309E-02  5.70604582E-03  3.73944205E-03
  1.14226975E-02 -2.81337364E-02  1.44683913E-02  1.16188402E-02  5.46242357E-04
 -1.29389208E-02 -6.64511181E-03  6.84926888E-04 -3.55981464E-03  2.84212625E-04
  5.72349089E-05  3.37963257E-03 -2.39323222E-02 -2.99798311E-03 -9.43934471E-03
  2.96324699E-02  1.42990756E-02 -3.12048371E-03  2.44296927E-04 -1.23489875E-02
  3.02488001E-02 -1.09861496E-03  9.98816488E-03  1.12679020E-04 -2.49102636E-04
 -7.84414058E-04 -3.02844517E-02  1.49374740E-02  4.92739263E-02 -1.39499817E-01
 -2.30297944E-02 -6.98079373E-02 -1.70376049E-03  6.35936616E-02  7.30174926E-03
  1.89988057E-03  1.26998112E-02  3.99027686E-04 -3.69856251E-04 -4.48800977E-02
  1.66612361E-02 -2.82390248E-03 -7.26219686E-03  1.30437201E-02  1.82830158E-02
  1.23876593E-01  8.08365219E-04  7.53127638E-03 -9.02190722E-02 -1.04680547E-03
  7.14159132E-03  5.18844509E-05  1.29027682E-04 -1.79038173E-02  7.26309542E-02
  1.61174582E-03  5.65258596E-03 -1.34449906E-02 -1.19136913E-02 -2.44141225E-02
  2.76764605E-06  7.35263531E-03  1.58600119E-02 -1.00834903E-04  6.88163565E-03
 -6.10892021E-06 -1.84258911E-05  1.62598082E-02 -1.30503219E-02 -4.85553425E-04
 -1.69462455E-03  7.15594176E-03 -7.39979448E-04  4.83536975E-03 -9.38451468E-06
 -2.46758719E-02  4.51772597E-03  1.48840513E-04  1.03366686E-04  3.51737848E-05
  2.05302234E-05  7.19650380E-03 -4.64057901E-03 -3.86433483E-04 -1.22295279E-03
  3.02416529E-03 -1.32644839E-03  2.64356331E-03 -7.44106093E-06 -1.30379314E-02
  4.67468110E-03 -4.51449288E-04  4.16480375E-04 -8.03350980E-05 -9.42146780E-05
 -1.13686898E-03 -3.73889083E-03 -4.57332645E-04 -1.58635738E-03  6.20158947E-03
 -3.19869020E-03  2.79571012E-03  3.59555019E-05 -8.79677633E-03  5.55258368E-03
  9.73415662E-04  8.33152101E-04  1.72568019E-04 -4.94447331E-05 -8.37218972E-03
  4.78493159E-03  1.62475525E-03  5.75246935E-03 -1.43518044E-02  2.86488941E-02
  5.84457709E-05 -2.89759509E-06 -2.53116835E-03 -4.91855175E-03 -3.87994564E-04
  6.84177955E-03 -6.31206290E-05  8.49648424E-05 -1.65435007E-02  5.71821050E-03
  1.86612730E-01  5.68985241E-03  1.94300945E-02 -4.37048492E-02 -4.05752235E-02
 -8.47533460E-02  1.94140171E-05  2.16310236E-02  5.56598906E-02 -3.78594011E-04
  2.27417842E-02 -2.42416770E-05 -5.88208025E-05  5.36847981E-02 -4.28183868E-02
 -1.69457574E-03 -6.21102120E-03  2.76501835E-02 -2.62085330E-03  1.75754381E-02
 -4.11775894E-05 -8.04768152E-02  2.01101020E-02  5.38807848E-04  1.29617148E-03
  1.15259972E-04  7.55460722E-05  2.38534316E-02 -1.51081930E-02 -1.21643239E-03
 -4.22515693E-03  1.27026058E-02 -4.98540392E-03  9.88098334E-03 -3.20284736E-05
 -4.02828624E-02  1.76078685E-02 -1.62388310E-03  9.76988699E-04 -2.98915194E-04
 -3.41787916E-04 -3.27205519E-03 -1.14215680E-02 -1.59128809E-03 -5.77437718E-03
  2.37903944E-02 -1.17947517E-02  1.00162677E-02  1.47723134E-04 -3.88878407E-02
  2.69850124E-02  3.51020581E-03  3.84217364E-03  6.11627996E-04 -1.47675030E-04
 -2.79399083E-02  1.59356687E-02  5.75644376E-03  1.97437975E-02 -4.58317038E-02
  9.91331638E-02  1.72931399E-04 -1.83866705E-05 -1.48733002E-02 -5.51897234E-03
 -1.43090164E-03  2.28477974E-02 -2.16223839E-04  3.02990302E-04 -5.43612057E-02
  1.89531587E-02  4.48486564E-01  1.08622674E+00 -1.50610986E-02 -4.86247660E-02
  8.91133450E-02  1.10946592E-01  2.77737829E-01 -1.41846881E-04 -4.12975888E-02
 -1.47679535E-01  1.29660891E-03 -6.04539273E-02  8.40150129E-05  1.52745869E-04
 -1.44969229E-01  1.17201085E-01  7.15417919E-03  2.76446783E-02 -1.21820940E-01
  1.84908734E-02 -7.72412615E-02  1.87212847E-04  1.90886684E-01 -7.07909078E-02
 -1.71186571E-03 -5.29379527E-03 -2.95245316E-04 -2.35745158E-04 -6.23297283E-02
  4.45439333E-02  2.90491747E-03  1.24090278E-02 -4.70730887E-02  1.88609921E-02
 -3.88866210E-02  1.64947109E-04  8.09721516E-02 -8.31666478E-02  5.12856002E-03
  1.89178769E-03  1.05020062E-03  1.10737244E-03  7.02849141E-03  2.81389161E-02
  6.16902964E-03  2.36731367E-02 -9.85209461E-02  5.18659144E-02 -4.68387078E-02
 -5.05489997E-04  1.59279859E-01 -1.53229075E-01 -1.11790881E-02 -1.42679610E-02
 -1.95242772E-03  2.17260973E-04  8.74547197E-02 -3.90924925E-02 -1.42870307E-02
 -4.54866715E-02  7.64017318E-02 -3.16677778E-01 -1.74531080E-03  9.19661389E-05
  1.10402010E-01 -5.59991716E-02  4.71076971E-03 -6.06310966E-02  5.80366390E-04
 -9.36736067E-04  1.50439437E-01 -5.58588601E-02 -5.95704779E-02 -2.25901616E-01
  8.40939086E-01  1.58108978E-02  5.50745237E-02 -1.80464364E-01 -6.07855548E-02
 -1.98298046E-01 -1.87697665E-04  8.60088636E-02 -7.38221094E-02 -9.90661956E-06
  5.33994256E-03 -2.53302429E-05 -1.73415534E-04  1.09538937E-01  2.36416129E-02
 -7.41314267E-04 -2.62553522E-03  1.85107057E-02 -1.58669981E-03  8.69480447E-03
  2.30443250E-05 -5.69779075E-02 -8.01772484E-02 -4.43675150E-04  7.09606213E-03
  2.24107263E-05 -1.79464241E-05  2.61779673E-02 -8.23099086E-03  1.40058563E-03
  5.26092954E-03 -2.05788490E-02 -1.37978189E-02 -3.17934743E-02  3.04994497E-04
 -4.13884562E-02 -1.71773948E-02  8.77080675E-04  7.99602746E-03  2.19996787E-04
  2.28191021E-04 -2.45158633E-03 -1.44569087E-02  4.86754878E-03  1.76465126E-02
 -8.13852628E-02  3.83742299E-02 -3.58815317E-02 -1.63862019E-04  1.31229568E-02
 -7.91585252E-02 -1.41204181E-03 -3.29945392E-02 -4.74994601E-04 -1.95853108E-04
  3.81028194E-02 -5.44176204E-02 -2.90656011E-02 -1.00492044E-01  3.18092809E-01
 -4.05710849E-01  3.07586762E-04  8.29688651E-04  7.06343932E-03 -1.19479376E-01
  7.70499386E-04 -5.84804296E-03 -1.23536280E-04 -2.85559026E-04  4.81685826E-02
  5.98298350E-03  5.92877683E-04  2.30460141E-03 -2.07538424E-02  5.72554377E-01
  2.42449931E-02  8.38706193E-02 -2.71698617E-01 -1.79910041E-01 -3.04618126E-01
 -6.11956830E-04 -8.25119128E-02  1.36038765E-01 -1.95154639E-04 -1.30132561E-03
 -2.17396917E-05 -4.91823044E-05 -1.31150471E-02 -6.36178420E-02 -4.83602456E-03
 -1.75777240E-02  7.72415086E-02 -8.68768519E-03  5.34827395E-02 -3.65631302E-05
 -9.03123874E-02  2.97893358E-02  1.50338439E-04  2.34856759E-02  5.38673275E-05
  7.39689511E-07  5.51553706E-02  6.44524765E-03 -2.64821060E-03 -9.90874299E-03
  3.88231439E-02 -3.20713576E-02  1.91728353E-02  4.31239570E-04 -4.90658646E-02
 -1.20881869E-02 -6.56082408E-04 -9.67738858E-03 -3.46989252E-04 -2.29387172E-04
  1.03222495E-02  1.16365157E-02 -2.30490649E-03 -8.34049393E-03  3.17103294E-02
 -1.68050036E-02  2.08171738E-02  1.64420946E-04 -8.96881458E-02 -8.77237515E-03
  2.18355890E-03  7.68163639E-03  4.08673012E-04 -1.32410731E-04  3.51852119E-03
  7.05753933E-03  5.69291896E-05  1.81845722E-04 -2.64024201E-03 -1.42308465E-03
  2.65506609E-02 -7.91446976E-04 -2.80873285E-02  1.55530423E-01 -7.55846251E-04
 -3.95988211E-03 -2.28964735E-04  1.76425187E-04  2.11114604E-03 -1.03710968E-01
 -3.55587602E-03 -1.21623777E-02  5.10696888E-02 -2.13637035E-02  5.70257464E-01
  3.69695877E-05  1.28859461E-04 -4.29640440E-04 -2.41961074E-04 -6.06216489E-04
  2.58172131E-01 -1.01277438E-04 -7.64185703E-04  6.04704250E-03  2.32365693E-04
  1.55757117E-02  6.55180399E-02  2.74410292E-04 -1.82149353E-04 -1.25500746E-05
 -5.24961914E-05  2.31929067E-04  2.53755369E-05  1.37729368E-04 -5.99378971E-02
  1.30900761E-03 -1.97913966E-03  1.14894750E-02 -3.21448758E-04 -3.83781328E-02
  3.01083177E-02  4.54514536E-04 -3.14419167E-04  1.64346823E-05  4.28141908E-05
  2.92698830E-04 -1.83043317E-04 -3.16135597E-04 -1.49111829E-01 -2.92521907E-03
  6.54371598E-03 -3.36057356E-02  5.64483516E-04  1.27476663E-02 -4.15743030E-04
 -8.98663168E-04 -5.61169695E-04  1.06124270E-04  3.71211732E-04 -1.61162613E-03
 -1.64603670E-03  2.44957925E-04  2.08635440E-02  1.21803914E-02  8.32574645E-04
  2.04387622E-02  4.92020489E-04 -1.85099080E-02  6.28003492E-02  2.59144377E-04
 -8.33911447E-04 -2.50210816E-06 -2.16719437E-05  4.91166831E-04  5.45631804E-04
 -9.02991077E-04  3.40456383E-01 -3.89590207E-03 -2.22971966E-03  4.48893929E-02
  8.09215240E-04 -5.13603794E-02  4.21995527E-03 -5.83273936E-04  4.99483687E-04
 -9.22740585E-06 -3.53328999E-05  8.84902469E-05 -2.28007815E-04  2.42450032E-04
  4.37159754E-01 -1.14270743E-02 -4.53571384E-02  1.68879103E-01  1.75736393E-01
 -6.15750028E-02 -2.25556563E-03  1.75284015E-02  2.23710791E+00  1.32893601E-03
 -1.94000476E-02  1.40895058E-04 -2.08992148E-05 -1.23549885E-01 -1.60030307E-01
 -2.45383795E-02 -7.99909022E-02  1.89414705E-01 -5.71918592E-02  9.02658180E-02
  1.17310456E-03 -1.39206098E+00  1.38920346E+00 -1.98825079E-03  2.56981062E-02
  5.19391523E-04  5.14390712E-05  4.41174649E-02 -5.83953984E-03  6.77268759E-03
  2.12224230E-02 -5.50389949E-02 -7.33995498E-02 -8.18547626E-03  2.89226744E-03
 -1.26683350E+00 -1.02400803E+00  4.25248809E-03 -2.09711212E-02  1.26142760E-03
  7.68398151E-04  7.30175729E-02  1.26771393E-02  6.07319827E-03  2.61530861E-02
 -1.14274646E-01  5.79146969E-02  1.54779885E-02 -1.62652118E-03  1.12096681E-01
 -1.63740887E+00 -5.22426093E-03  1.08364205E-02 -3.04073585E-03 -3.78802658E-04
  4.90760753E-02  5.05837421E-02  4.23058281E-03  1.83705847E-02 -9.33097667E-02
  2.40954529E-02  6.33221312E-02  1.35296944E-03  1.49753417E+00 -1.01886011E+00
 -6.14055604E-04  2.63977032E-03  7.71204636E-05  4.03512961E-04  1.34858196E-02
  1.82940423E-02 -1.11108149E-02 -4.22994386E-02  1.72911346E-01 -1.11050215E-01
 -5.85438385E-03 -3.02278765E-04  1.73861236E+00 -3.95226338E-03 -1.18408463E-02
  3.18894986E-02 -2.38515183E-02 -5.26337633E-02  2.78232182E-04  1.41996343E-01
  1.91647846E+00  3.19369923E-04  1.93654222E-02  2.20890927E-04 -2.11045594E-04
  8.75236705E-02 -1.45187673E-01 -4.41579669E-03 -1.97529389E-02  6.97712402E-02
  8.00987820E-02  2.95690814E-02  1.88947777E-03 -1.38701237E+00  1.13479079E+00
 -2.61885754E-04  1.69375683E-02  3.36677196E-04  4.31412159E-04  1.25885485E-01
 -4.04784575E-02 -1.47883759E-02 -5.30751718E-02  1.79560455E-01 -4.48128622E-02
  3.05579712E-02  7.54733442E-04 -1.21925272E+00 -7.69791289E-01  1.38671647E-03
 -1.87910006E-02  7.09298684E-04  5.41442828E-04  2.39681018E-02 -6.75720648E-03
  7.14152507E-03  1.91849435E-02 -3.67040255E-02 -3.91105779E-02 -6.54739163E-02
 -3.57638076E-03  1.36927072E-01 -1.33153395E+00  3.40526693E-04 -2.54165683E-02
  5.53703173E-04 -7.46118330E-04 -6.69717774E-02  7.29127059E-02 -1.23589143E-02
 -3.49961959E-02  6.42669500E-02  1.18783008E-01  1.52299782E-01 -1.07541809E-03
  1.13483836E+00 -9.96441152E-01 -2.79989229E-03  1.55323420E-02 -9.09844312E-05
  3.76145354E-04 -8.45737878E-02  9.55066762E-02  2.64574544E-02  8.70382270E-02
 -2.28317477E-01  3.02623633E-02 -9.54147889E-02 -7.17174885E-04  1.30009374E+00
  1.35744315E+00  1.41607670E-04  5.04210256E-04 -1.45663215E-03 -6.56485415E-04
 -3.22269543E-04  7.81685877E-02 -1.13324204E-03  2.41199085E-03  7.10161081E-04
  4.26941592E-04  3.31926074E-03  9.38157482E-03  7.64876479E-04 -2.65535788E-04
  1.42472537E-04  5.10982577E-04 -1.60223999E-03 -3.68438190E-04 -1.46132967E-04
  1.14934925E-02 -2.73767821E-03  8.46909509E-04  8.37460195E-03  2.29200304E-04
 -8.70613802E-03  8.96484537E-03  2.28816443E-04  3.27360656E-05  9.65740165E-05
  3.14877248E-04 -4.66543963E-04  6.23646325E-04  3.74946525E-04 -2.64223070E-02
 -4.60087241E-03  1.64371043E-03 -9.16715712E-03  8.71555293E-04 -1.78182024E-03
 -2.98249128E-03 -8.91712572E-04 -6.76881648E-04  3.02529148E-04  9.71602043E-04
 -2.67791941E-03 -2.81492608E-03 -3.26485369E-06 -1.93456930E-02  5.55898857E-03
 -1.56747892E-03  5.87032473E-03  4.01267724E-04 -3.60743702E-03  9.19662845E-03
 -5.34725588E-04  5.85291780E-05  8.27866125E-05  2.56876471E-04 -1.72562124E-04
  1.12514007E-03  3.91994503E-05  4.54150934E-02 -1.75231275E-03 -3.54027084E-03
  2.40721924E-03  9.36364219E-04 -1.12011780E-02  3.55968142E-03 -1.07296227E-03
  8.77957286E-04  1.98436248E-04  7.36878831E-04 -2.53045939E-03 -2.29414360E-04
  6.17796754E-05  8.46438621E-02  5.80213263E-04  2.19110365E-03  1.92076962E-02
  5.69962738E-03  1.90678883E-02 -4.95996762E-02 -2.43720739E-02 -7.70863180E-03
  1.87559861E-04 -7.84202982E-03 -6.15107329E-02 -3.21186775E-04  9.40710660E-03
 -7.94853332E-05 -3.19927711E-05  2.01457482E-02 -2.95137783E-03  9.93833445E-05
  1.28253519E-03 -5.25383203E-03  7.09090420E-03 -2.34871606E-02 -3.53064098E-04
  2.51315810E-02 -1.66282920E-02  2.32992586E-04  7.31488977E-03 -6.71060050E-05
  9.27939412E-05  2.67981359E-03  6.40130288E-03  1.13572304E-03  3.68259464E-03
 -7.93626829E-03 -7.16432709E-03  7.67913806E-03 -4.32466292E-04  5.37210963E-02
  1.83465998E-02 -1.06085485E-03  4.98219150E-03 -2.58339536E-04 -2.79826800E-04
  4.12767370E-03  3.55596947E-03  7.89554188E-04  3.59178969E-03 -1.15947608E-02
  1.48863438E-02 -1.85905984E-02  9.88707900E-04 -6.82644263E-02  7.79171037E-02
  1.88186673E-03  1.32922762E-02  3.69149729E-04 -1.76332563E-04  6.38974655E-03
  1.00632821E-02  7.73967084E-03  2.61617203E-02 -7.18803398E-02  8.10809075E-03
 -1.70147893E-03 -4.29875614E-04 -4.33209896E-02  7.05460477E-02 -7.66216939E-04
  1.37992119E-02 -2.22564935E-04  1.88640770E-04 -1.03055964E-02  3.83427184E-03
  8.46704861E-03  2.98134005E-02 -9.09875728E-02 -2.22844267E-03 -1.13396274E-05
 -4.36252318E-04 -7.73472106E-02 -3.19729867E-02  1.65101317E-04  2.33998148E-02
 -1.17535107E-05 -3.60585803E-05  1.33128415E-04 -4.99840501E-05  1.84014027E-04
 -4.79960017E-02 -1.64070609E-04 -1.00779387E-04  2.24513661E-03  1.05036777E-04
 -1.57106406E-04  8.79642936E-03  2.11017308E-04  2.42218078E-05  3.82174361E-05
  1.25073661E-04 -3.25039756E-04  3.09809422E-05 -1.34028416E-05 -3.83942600E-02
  3.93974198E-04 -2.29860565E-04 -8.70052072E-03 -6.83129526E-05  4.11377753E-03
 -5.77089229E-03  6.28872899E-05 -9.79963516E-05  3.07884971E-05  9.77493996E-05
  1.78663273E-05  5.03242586E-05 -8.82977507E-06  5.97323289E-03 -1.29658382E-03
  1.79147162E-03  6.19372023E-04  4.13979406E-04  8.55023468E-03  3.90888833E-03
 -3.63551163E-04 -2.97951610E-04  1.31714762E-04  4.24341418E-04 -1.32000137E-03
 -7.11622496E-04 -7.59475092E-05  3.94591103E-02  4.97935771E-03  4.83302182E-05
  9.66662866E-03  4.78288068E-04 -1.03366597E-02  8.41066617E-03  2.13541611E-04
 -1.01751795E-04  2.97809194E-05  8.02620465E-05  1.69309630E-04  2.07247460E-04
  1.04181585E-04  7.15166240E-02 -1.28935612E-03 -1.49683662E-03  1.11239801E-02
  4.16842991E-04 -3.48356664E-05 -3.40473119E-03 -3.43044910E-04  4.15559257E-04
  2.67720593E-05  9.87660457E-05 -3.45202488E-04 -3.62441632E-05 -3.61465659E-04
  2.81256324E-02  3.04030268E-04  1.38205611E-04  1.07172560E-03 -6.89084512E-05
  1.30206561E-02 -3.08794172E-05 -1.06928914E-04  2.97392811E-04  1.31103132E-04
 -3.45499090E-05 -6.61704349E-02 -1.98572205E-04  1.05242622E-03  3.33497815E-04
 -6.58663450E-05 -6.89994787E-04  1.40894742E-03 -2.20388685E-04 -9.25192755E-05
 -2.81971089E-05 -1.02457643E-04  3.10268733E-04  7.02008743E-06  8.07953698E-05
 -3.01041415E-02 -2.81788006E-04  6.78613403E-04 -8.95525576E-03 -1.07946533E-04
  5.76537951E-03 -7.54263905E-03  5.67705800E-05  2.61833377E-05 -3.07251752E-05
 -1.09652102E-04  4.42433207E-04  2.31605105E-05  1.19039564E-04  1.01116564E-02
 -9.62478969E-04  1.80541792E-04  2.33318570E-03  4.35067514E-05  5.56345120E-03
  2.50940933E-03 -3.16406162E-05  7.05305862E-05 -1.18925511E-05 -5.87566754E-05
  1.98925651E-04 -7.80385445E-05 -6.78936341E-05  2.19669952E-02  2.20261906E-03
 -6.33050060E-04  4.24276921E-03  8.27312875E-05 -4.67141501E-03  8.53780396E-04
  3.00902756E-04  1.22527241E-04  1.36058651E-05  3.76497160E-05  9.06974443E-06
  6.73592919E-05 -8.18049761E-05  1.66482672E-02  1.59502002E-04 -8.74890132E-04
  3.24834049E-03  8.05124044E-05  4.73298529E-03 -2.50843117E-03 -7.62824056E-05
 -7.93860780E-05 -2.89939852E-05 -1.08827951E-04  3.95410600E-04 -2.36568667E-04
  1.99398124E-04 -2.39528798E-02  1.10997255E-03  4.66223426E-04 -8.19051188E-03
 -1.43122149E-04  6.60676876E-03  7.92643305E-03  8.62875585E-03  2.88063029E-02
 -8.13536407E-02 -6.53940227E-02  2.10207729E-02 -8.37699342E-05  7.18219997E-02
 -1.68961483E-01 -1.38830042E-07  1.30192578E-02  4.00001532E-05 -6.54606997E-05
  5.71897459E-02  2.84957288E-02  7.20197645E-03  2.38720189E-02 -6.23845657E-02
  2.61984297E-02 -5.52175912E-02  4.32888098E-04  4.44354929E-02 -1.26162320E-01
  1.53971913E-04  2.66612775E-03  7.82589779E-05 -5.46422761E-05  1.72434713E-02
 -1.89996111E-03 -1.09893363E-03 -3.14314417E-03  5.88817657E-03  4.65550409E-03
 -8.53082655E-03  3.48035070E-04  4.29474590E-02  5.67430266E-02  1.65295702E-04
  4.40123104E-03  2.19672902E-05  1.12678698E-04 -2.38563477E-02 -3.36864576E-03
 -1.59718984E-03 -5.95325438E-03  1.33503614E-02 -2.99251432E-02  2.05668443E-02
 -7.52680593E-04  3.70619864E-02  5.81545892E-02  6.85373443E-06 -1.77231155E-02
  2.28138172E-04  1.15773386E-04 -2.14899552E-02 -2.36899952E-02 -1.67207569E-02
 -5.50545334E-02  1.53094181E-01 -4.92312431E-02  1.20740162E-03  3.07327609E-04
 -1.01960288E-01 -1.39370407E-02  2.40902439E-04 -1.17519334E-02  1.14452228E-04
 -1.52267652E-04 -5.07807879E-04  7.19091914E-03  7.88488469E-04  1.54217849E-03
 -2.54314542E-04  1.15574600E-01 -7.21236801E-03  1.92515861E-04 -1.42310785E-01
 -4.15071003E-02  2.89413188E-05 -1.71635065E-03  8.28836722E-05 -1.02863955E-04
  6.11055655E-02 -1.38295130E-02 -4.50833672E-02  1.27710987E-01 -1.87695613E-02
  7.03524397E-02  1.10679348E-04  7.61714326E-02 -2.45075061E-02  1.26697298E-04
 -1.76871952E-03  1.00390459E-05 -6.60386967E-05  5.27237162E-02  1.55015246E-02
  4.63376417E-03  1.50847475E-02 -4.44693459E-02  8.23135049E-03  6.47813023E-03
  3.22771425E-04  6.21511792E-03 -4.06403189E-02 -4.24470312E-05 -6.41530542E-03
  8.17030763E-05  2.93952022E-05  1.86187529E-03 -3.40895399E-02 -2.30544268E-03
 -6.22567678E-03  1.20620750E-02  2.05895518E-02 -1.11903991E-02  2.16787179E-05
  1.28806352E-02  3.79409130E-02  4.02853112E-04  8.51449567E-03  2.04070678E-04
  5.69544462E-05 -3.77102057E-03 -2.39198387E-02  8.27592540E-03  2.73668838E-02
 -8.04923547E-02  1.49356853E-02 -4.97978404E-02 -6.53231138E-04  8.79369318E-02
  5.01153839E-03 -1.30618428E-03 -3.44186606E-03 -5.40753743E-05 -3.13254779E-04
 -2.58411880E-02  6.59897284E-03 -4.42075615E-03 -1.41224185E-02  4.03981543E-02
  8.52296458E-03  1.02064979E-01  5.13641358E-05  1.19218747E-02 -9.92694732E-02
  3.39811277E-04  6.25426200E-04  2.24863586E-04 -1.59157041E-04 -8.25797102E-03
  6.28036909E-02  3.91554925E-03  1.11596904E-02 -2.35059220E-02  1.45315722E-02
 -1.30592769E-01 -2.66030247E-04  1.57886315E-03  7.95851019E-02  1.41445635E-05
 -4.06968300E-03  1.57496439E-04 -8.01825830E-05  1.81176800E-02  7.69046017E-02
  1.29463435E-03  4.40475218E-03 -1.14485638E-02  2.54018139E-02 -1.74605898E-06
 -5.60600949E-06 -1.70667985E-02  7.12260626E-05 -3.56790275E-05  4.35674667E-03
 -3.05023923E-06 -4.13380895E-07 -2.54702661E-02 -1.30757792E-05 -3.37363763E-04
 -1.11435623E-03  1.74140522E-03 -4.08058796E-03  2.18981998E-03 -4.68147110E-06
  9.65298014E-03  1.31253240E-02  6.18385240E-05 -1.15542033E-03  1.67100652E-06
  7.21635836E-07 -5.60268959E-03  8.42859697E-03  1.88052954E-04  6.17204913E-04
 -2.09723196E-03  3.21935701E-03 -5.74560884E-04  1.72536509E-06 -1.55715562E-04
 -9.06669619E-03 -1.54016950E-04 -1.77564367E-04 -1.41818498E-05 -3.56232855E-05
  1.28004721E-03  2.69984176E-03  2.55904830E-05  6.41373023E-05 -1.01839341E-04
  3.95738201E-04  4.25186933E-07  3.93296754E-06 -1.17759155E-02 -6.12534906E-05
  2.79547545E-04  1.67706439E-03  8.95886709E-06  3.99285557E-07  1.70364034E-03
 -3.44001992E-07  1.87969205E-04  6.16799812E-04 -2.09344167E-03  3.21812440E-03
  5.74175083E-04 -8.30013347E-07 -4.56756611E-05  9.00629267E-03 -1.50185243E-04
 -1.77117075E-04 -1.67207862E-05  3.77514634E-05  1.28106976E-03 -2.70607637E-03
 -3.37147102E-04 -1.11363562E-03  1.74386492E-03 -4.07941627E-03 -2.18946368E-03
 -5.21458646E-06  9.78401069E-03 -1.30901788E-02  5.61501871E-05 -1.15348282E-03
 -4.31838508E-06  6.88065298E-07 -5.62429614E-03 -8.42885378E-03  1.88810401E-01
  4.54229346E-03  1.54771840E-02 -4.05052122E-02  9.06444202E-02 -5.59560064E-06
 -2.12032825E-05 -5.80367280E-02  2.27961176E-04 -1.16047348E-04  1.55526474E-02
 -9.42908872E-06 -9.48861732E-07 -8.76123457E-02 -4.42044867E-05 -1.15929861E-03
 -3.90968867E-03  6.72971826E-03 -1.50754049E-02  8.19549870E-03 -1.58344495E-05
  3.42069376E-02  4.48457149E-02  2.04552000E-04 -3.81626632E-03  5.87487672E-06
  2.11697379E-06 -1.93013542E-02  2.85923709E-02  6.78887891E-04  2.24673281E-03
 -7.77366053E-03  1.17097206E-02 -2.02021729E-03  5.99883370E-06  2.23813923E-05
 -3.05672722E-02 -5.16368191E-04 -7.55416792E-04 -4.69892969E-05 -1.21335086E-04
  4.27073565E-03  8.90154619E-03  9.54214040E-05  2.58118339E-04 -5.28284391E-04
  1.36336968E-03  1.63295395E-06  9.08709427E-06 -3.93226668E-02 -1.94289400E-04
  9.33291966E-04  5.82734105E-03  2.72144312E-05  1.35098161E-06  5.68144304E-03
 -1.42329608E-06  6.78479446E-04  2.24499631E-03 -7.76013532E-03  1.17053974E-02
  2.01876727E-03 -3.28101158E-06  3.71741670E-04  3.03765064E-02 -5.03834553E-04
 -7.53883924E-04 -5.54355033E-05  1.28657393E-04  4.27457906E-03 -8.92256830E-03
 -1.15862204E-03 -3.90740146E-03  6.73774981E-03 -1.50708997E-02 -8.19384152E-03
 -1.82315531E-05  3.46265768E-02 -4.47417715E-02  1.84449643E-04 -3.80988430E-03
 -1.44277163E-05  2.65956012E-06 -1.93731942E-02 -2.85926821E-02  4.53930494E-01
  1.10250068E+00 -8.23176001E-03 -2.81817282E-02  7.22919622E-02 -1.98390150E-01
  6.12627646E-06  7.52195978E-05  6.82441190E-02 -8.41125081E-05  5.07059306E-05
 -3.88158744E-02  1.84339873E-05 -1.30132922E-05  1.68865411E-01  8.33526073E-05
  2.39435241E-03  8.42644623E-03 -1.78482115E-02  4.12529143E-02 -2.59294606E-02
  1.67919600E-05 -8.41030082E-02 -7.78191395E-02 -1.87314796E-04  7.98009777E-03
 -8.55602208E-06 -1.09787335E-06  3.46913446E-02 -4.71135908E-02 -1.70258239E-03
 -5.87220545E-03  2.22726387E-02 -3.02411813E-02  4.81625677E-03 -8.82781596E-06
 -1.98400485E-02  4.90486321E-02  4.83162836E-04  3.05285471E-03 -2.12850857E-05
  1.34751936E-04 -6.52311714E-03 -1.26052163E-02 -3.15173296E-04 -1.07467059E-03
  3.63477484E-03 -2.78206908E-03 -5.47371919E-06  1.01066719E-04  4.61803837E-02
  2.11306148E-05 -5.85100860E-04 -9.77614917E-03  1.19983499E-04 -1.20040388E-06
 -1.08654841E-02  9.34576315E-06 -1.70078246E-03 -5.86562278E-03  2.22370943E-02
 -3.02307191E-02 -4.81094844E-03  1.19939486E-05 -1.98751624E-02 -4.90388157E-02
  4.62323134E-04  3.04811260E-03 -9.68614619E-06 -1.44163373E-04 -6.53499703E-03
  1.26426277E-02  2.39410611E-03  8.42542108E-03 -1.78640042E-02  4.12435005E-02
  2.59194051E-02  3.09205433E-05 -8.42685056E-02  7.79950647E-02 -1.33815523E-04
  7.97203249E-03  3.24135724E-05 -9.98534694E-06  3.48127801E-02  4.71083765E-02
 -5.19112398E-02 -1.93795974E-01  4.46250744E-01 -2.21423563E-02 -7.62221947E-02
  2.46050721E-01 -3.92928177E-01 -1.27239047E-05  7.09492519E-05 -5.42015274E-02
 -2.35005227E-04 -1.69209498E-05 -5.97152265E-02 -3.02997099E-05 -3.49735818E-05
  1.56997769E-01  1.01636129E-04  4.44987156E-03  1.58013878E-02 -6.02831559E-02
  6.31566313E-02 -3.70936555E-02  2.21181298E-05 -1.08807776E-01 -2.05041962E-02
 -9.63582813E-05 -5.57531542E-03 -4.80226506E-06  1.08649970E-05  3.70924900E-02
 -6.23414154E-02 -3.06406808E-03 -1.09384239E-02  4.28035907E-02 -4.74770367E-02
  6.79027217E-03  5.85082728E-05 -5.78297447E-02  4.21184743E-02 -9.45871056E-05
  8.45021525E-03 -2.05854420E-04 -5.65822924E-05 -4.56426585E-03 -1.06103223E-02
 -7.03863784E-04 -2.76624479E-03  1.38067872E-02 -9.22962161E-03 -3.30672537E-07
  1.55216084E-04  2.12316422E-02  4.25019579E-05  9.48485465E-04 -9.05163862E-03
  1.80239488E-04  1.63324967E-06 -1.65851065E-02  1.53259399E-05 -3.06239211E-03
 -1.09324093E-02  4.27776984E-02 -4.74779412E-02 -6.79112608E-03  1.00528251E-04
 -5.78622296E-02 -4.20658688E-02 -9.81373081E-05  8.44097721E-03 -2.00569452E-04
  4.46700585E-05 -4.57717784E-03  1.06406814E-02  4.44953686E-03  1.57997017E-02
 -6.02802420E-02  6.31668067E-02  3.71131220E-02  4.03377327E-05 -1.09003026E-01
  2.05283513E-02 -3.44740689E-05 -5.55125789E-03  3.51616165E-05 -3.42684691E-05
  3.72063263E-02  6.23170907E-02 -4.62344895E-03 -1.69244648E-02  4.38966088E-02
  6.57081322E-01 -1.07641800E-05 -3.61692746E-05  9.38095712E-05 -1.85083490E-04
  1.76167371E-02  7.31504073E-05 -9.42943869E-05  3.22820809E-02 -4.54374018E-05
 -3.45676075E-05 -2.01383494E-05  1.30154469E-05  9.51800367E-05 -8.45679883E-02
 -1.17262085E-03 -4.49601214E-03  2.29477712E-02 -9.97456630E-03  3.09533896E-04
  7.47664917E-06  4.39364334E-02 -1.01358125E-01  1.02800773E-05  5.39791185E-03
 -1.34618094E-05 -9.12897719E-06 -3.53822107E-04 -1.56462968E-03  3.78567089E-04
  1.38760831E-03 -5.99130795E-03  3.10732536E-03  2.33238063E-03 -2.90705537E-05
  5.52692851E-02  6.04739235E-02 -8.40563006E-06 -3.38862839E-03 -8.18177972E-05
 -6.28389757E-05 -2.23017151E-03 -7.38708810E-03 -1.62636399E-07 -8.42993273E-07
  8.52374545E-06 -4.57058379E-06 -8.15613092E-04 -3.22480443E-05  4.43953018E-05
  5.91142330E-02 -2.20134175E-05 -4.65227057E-06  1.54150615E-05  1.67654959E-05
 -1.53462595E-05 -4.64753876E-03 -3.80239898E-04 -1.39406094E-03  6.02679087E-03
 -3.15368336E-03  2.32285985E-03 -3.60427832E-05 -5.53553505E-02  6.03810698E-02
  4.10290228E-05  3.39930439E-03  7.29276851E-05 -6.31296374E-05  2.23231849E-03
 -7.35565805E-03  1.17639974E-03  4.50900130E-03 -2.29772131E-02  1.00251528E-02
  3.46795452E-04  2.22451800E-05 -4.40680075E-02 -1.01243826E-01 -1.88188277E-05
 -5.38669127E-03 -1.07745737E-05 -3.48650550E-05  3.54788840E-04 -1.48786450E-03
 -1.93364849E-06 -6.27780713E-06  8.16681226E-06  5.55676373E-05  5.65162917E-01
  6.58893907E-06  2.13929995E-05 -7.14035145E-05  3.47568897E-05 -1.45900238E-05
  1.91508175E-01  3.53166561E-05  2.80305014E-04  1.22785957E-02 -1.48217578E-04
 -5.84396670E-02 -3.42431807E-05 -9.00350780E-05 -8.26673832E-06 -3.69467468E-06
 -7.73058335E-06  1.99955125E-05  8.37285058E-05  4.76561417E-05  1.66589186E-02
 -1.08090570E-03  6.13695037E-04  1.22865612E-02  3.00456159E-04 -1.20622273E-02
  2.39981881E-02 -1.89766626E-04  8.78963475E-05 -6.74108519E-06 -7.73805045E-06
 -5.58270960E-04 -1.50376297E-04 -1.68118493E-04 -7.07634647E-02  2.69836924E-03
 -3.99282647E-03 -4.13576954E-03 -7.59766795E-04 -6.95970853E-03 -4.25796750E-03
  6.51439267E-04  4.83973021E-04 -1.19323954E-04 -4.06445962E-04  1.63552013E-03
  1.60672514E-03 -1.63753073E-05 -5.58207554E-02 -1.17521047E-02 -2.90411517E-04
 -2.56053247E-02 -6.66758379E-04  1.81299376E-02  4.69132221E-06 -6.70024827E-04
 -1.12832766E-05 -1.15005545E-05 -2.47368375E-05 -4.93284637E-04 -1.84077693E-04
  1.95465918E-04 -7.07274178E-02  3.21489233E-03  3.71709516E-03 -4.17724024E-03
 -7.64524696E-04 -6.95230229E-03  4.26743785E-03  6.48092066E-04 -4.85888270E-04
  7.07066295E-09  5.45367358E-06 -2.49421009E-05  1.23397373E-04 -1.20728676E-04
  1.66790091E-02 -5.38724313E-04 -3.49668511E-04  1.24032394E-02  3.01444038E-04
 -1.20664835E-02 -2.40117109E-02 -1.88423112E-04 -8.50380346E-05 -7.92283780E-06
 -2.91814856E-05  8.62750886E-05  8.96260979E-05  3.88266722E-05  6.26293391E-01
 -9.57483413E-03 -3.21925845E-02  9.24255940E-02  6.01102424E-02 -6.83188159E-06
 -2.76149430E-04  1.46146480E-01 -9.52084230E-04  6.06354903E-04  6.14310601E-03
  1.62332948E-05  4.16886911E-05  1.15300782E-02 -4.09854713E-06 -3.37904087E-03
 -1.17006858E-02  3.54918199E-02 -1.89616493E-02  5.90892246E-02  1.26135262E-04
  5.73312128E-02 -4.00038335E-02 -6.94922953E-04 -9.90966449E-03  4.17635846E-05
 -6.51531395E-05  3.25898632E-03 -3.25978574E-02 -5.39884825E-05  8.42088434E-04
 -1.34883808E-02  4.30787423E-04 -1.62896628E-03  2.04072079E-04  6.41397208E-02
  4.26334865E-02  1.90764237E-03 -5.00089805E-03  4.46985243E-04  3.85563866E-04
  2.62805270E-03 -1.65652680E-02  1.08667966E-03  4.56853804E-03 -2.15315252E-02
  4.90563174E-03  7.29260973E-07 -8.42729354E-04  1.14852121E-01  9.84086426E-04
 -4.50959973E-03 -8.96125304E-03 -8.47363400E-04 -3.79162088E-06  7.64060485E-03
 -8.95092197E-06 -4.77184678E-05  8.63588807E-04 -1.35490382E-02  4.68028993E-04
  1.62597253E-03  2.06432049E-04  6.23680728E-02 -4.16034917E-02  1.88816559E-03
 -4.98629085E-03  4.62654397E-04 -4.03617553E-04  2.62321769E-03  1.65640873E-02
 -3.37834110E-03 -1.16979163E-02  3.54675236E-02 -1.90383524E-02 -5.90344390E-02
  8.34297248E-05  5.55614984E-02  3.89381015E-02 -7.14334036E-04 -9.91396732E-03
  4.83462436E-05  8.38003637E-05  3.28878304E-03  3.26115871E-02 -1.17407139E-02
 -4.16379871E-02  6.84610519E-02 -6.02256308E-02  6.32117269E-05 -2.15810717E-04
  8.44638870E-02 -1.50159399E-05 -5.39421253E-05  1.43453885E-04  1.12665141E-05
  1.16693303E-01  7.60203813E-05  2.45502728E-04 -7.70779489E-01 -9.87176836E-05
 -2.45244227E-05 -3.99046809E-05 -7.92368681E-05 -4.91983774E-05  1.03738396E-01
  7.47670944E-03  2.49482084E-02 -6.80038970E-02  2.22823500E-03 -7.45352667E-02
  6.20710903E-05  4.77230734E-01 -3.82321869E-01  3.40829112E-04 -1.54446960E-02
 -3.84542539E-05 -1.44750995E-04 -4.17573140E-02  1.60807413E-02  2.18636399E-03
  8.17298659E-03 -2.78000260E-02  2.65629174E-02 -3.00318673E-04 -1.16983257E-04
  4.18996578E-01  2.67960926E-01 -5.83163174E-04  1.18266902E-02 -1.76336861E-04
 -1.86639675E-04 -1.62078675E-02  8.60997730E-03 -1.27890883E-05 -4.47877496E-05
  1.29370052E-04 -1.29115513E-05 -1.47171603E-02 -9.02148760E-06  2.32598266E-04
  4.80066741E-01 -4.62527186E-05 -5.66514875E-05  7.17157679E-06 -5.63869938E-05
  1.19417942E-05 -1.84209174E-02 -2.20664302E-03 -8.24509334E-03  2.80099038E-02
 -2.66538598E-02 -3.48250193E-04  8.08147264E-05 -4.18866485E-01  2.68013299E-01
  8.32786959E-04 -1.18774148E-02  1.40531068E-04 -1.75200272E-04  1.62644330E-02
  8.52551317E-03 -7.51420059E-03 -2.50786312E-02  6.83725628E-02 -2.23100871E-03
 -7.45190028E-02 -1.00711629E-04 -4.77552626E-01 -3.81944147E-01 -5.52949478E-04
  1.53089326E-02  3.75376859E-05 -2.30532281E-04  4.18212592E-02  1.60742192E-02
 -1.33404282E-05 -4.52737634E-05  6.52861515E-05  1.08403946E-04 -1.46663605E-01
  7.30897753E-05  6.79244971E-05  2.28822538E-01  3.14071841E-05  1.13619081E-04
 -3.73079880E-04 -1.05913060E-04  1.83224497E-05  1.10033448E-01 -6.22700660E-05
  9.31969479E-05 -3.21389213E-04 -3.18539042E-05 -3.02495720E-03 -5.05796539E-07
  1.04895606E-04 -1.97280810E-05  2.96436164E-05  1.14156737E-04 -4.02146653E-04
 -6.25928039E-06 -2.68137107E-05  3.48893627E-02 -9.96379163E-04  1.49015487E-04
  1.19832326E-02  2.42821383E-04 -1.14406139E-02  1.31767390E-02 -1.09002857E-04
  7.30258579E-05  5.17709225E-06  3.12696104E-05 -4.45930820E-04  7.39057559E-05
 -2.46662156E-05 -3.43037563E-02  1.26316379E-03 -2.32753828E-03 -4.07743859E-03
 -3.55578785E-04 -7.90717640E-03 -3.67334615E-03  2.43297324E-04  1.66244409E-04
 -3.42837866E-05 -1.20141122E-04  6.08926926E-04  4.71747200E-04 -1.56777146E-06
 -3.73223561E-02 -7.39292615E-03 -6.09704133E-05 -1.26724229E-02 -3.48091610E-04
  1.21985083E-02  1.75711374E-06 -6.55143428E-04 -8.14059802E-06  1.58867129E-06
  1.88273723E-05 -4.03434187E-04  7.26386950E-05  3.26976426E-05 -3.42725140E-02
  1.36549643E-03  2.22532860E-03 -4.08035289E-03 -3.52481792E-04 -7.90641640E-03
  3.67785181E-03  2.41516200E-04 -1.53565865E-04  2.93881269E-05  1.13765806E-04
 -4.04740106E-04  6.19172882E-06 -7.57704293E-05  3.49281748E-02 -8.74327513E-04
 -6.08963533E-05  1.20128676E-02  2.31224725E-04 -1.14431619E-02 -1.31761551E-02
 -1.14884049E-04 -5.42819223E-05  1.57018626E-06  2.42193549E-06  6.98452083E-05
  6.69340294E-06  9.50571267E-05  7.54833677E-02 -3.00341034E-04 -3.53487738E-05
  2.53913198E-02  4.26538319E-03  1.41057972E-02 -4.31666957E-02 -1.21018834E-02
 -1.40919191E-05  3.30231308E-05 -1.14457704E-01  6.83488458E-04 -4.10467350E-04
 -1.33744955E-02  1.53999812E-05 -2.54170947E-05 -1.39734943E-02  3.93076603E-06
 -3.27418908E-06  3.29263213E-04 -3.35890347E-03  1.39763871E-02 -2.38378769E-02
 -1.86979440E-05 -3.19128987E-02  2.70528766E-02  5.14534210E-04  3.64323665E-03
  1.68800001E-05  3.42435385E-06 -9.80666153E-03  2.28867176E-02 -2.29862328E-04
 -1.28000780E-03  9.41312658E-03 -8.41826019E-03  3.04117789E-03  1.67262097E-05
 -4.60852967E-02 -2.63715580E-02 -1.34037223E-03  2.33817785E-03 -2.91511374E-04
 -2.82901343E-04  2.85513178E-03  1.01199752E-02 -1.85709346E-04 -1.00593195E-03
  6.20903963E-03 -3.46764698E-03 -6.95232067E-06  2.19099522E-04 -7.32321578E-02
 -7.04869983E-04  3.17618748E-03  6.43787507E-03  4.42427057E-04  3.55449134E-06
 -2.16015263E-03  1.14229576E-05 -2.29850351E-04 -1.28011132E-03  9.41148931E-03
 -8.43392282E-03 -3.03512807E-03  1.42238464E-05 -4.47991426E-02  2.56760903E-02
 -1.33783955E-03  2.33217516E-03 -3.01767919E-04  2.96106451E-04  2.85177833E-03
 -1.01273667E-02 -1.49376856E-06  3.35323855E-04 -3.36473869E-03  1.40079754E-02
  2.38261399E-02 -4.73224926E-06 -3.06473540E-02 -2.63550629E-02  5.39332757E-04
  3.65485522E-03  1.94833631E-05 -3.63609492E-06 -9.82523341E-03 -2.28948269E-02
  4.60151290E-03  1.47081647E-02 -7.67768147E-03  9.90571269E-03 -1.59366086E-06
  1.42145395E-05 -5.06557999E-02 -4.03595218E-05  1.53022965E-04  4.35863921E-02
  1.01645801E-05  3.65705495E-05 -1.31420193E-04 -3.18979366E-05 -8.68453562E-06
  9.55457593E-02  1.68107332E-04 -2.30593540E-04 -1.45053988E-03 -2.59801955E-05
  3.98828466E-03  2.96452817E-06  4.37035282E-05 -1.06151668E-06  5.73174250E-06
  2.25704702E-05 -8.09012408E-05 -9.86433256E-06  1.70744431E-05  3.92556648E-02
 -3.63419955E-04 -1.94974369E-04  1.22657986E-02  9.79912803E-05 -9.96644188E-03
  1.11854020E-02 -4.68021330E-05  1.39442357E-05 -6.70714043E-06 -1.53190366E-05
 -2.01422917E-04  1.61193905E-05 -8.56077067E-06 -2.23444431E-02  1.01148099E-03
 -1.15667398E-03 -3.90348129E-03 -2.59696880E-04 -7.74666324E-03 -3.53474708E-03
  1.68414944E-04  9.98358327E-05 -3.19887371E-05 -1.08849612E-04  4.63971745E-04
  2.78023846E-04 -5.64944657E-06 -3.20219329E-02 -4.38191952E-03  2.08096431E-04
 -7.95896394E-03 -3.22893811E-04  8.62551535E-03 -2.49526557E-06 -4.32408001E-04
 -6.13978095E-06 -6.80441197E-06 -1.55069212E-05 -1.98583618E-04  2.17506941E-05
  1.66953928E-05 -2.23492688E-02  6.64956931E-04  1.39896779E-03 -3.90654768E-03
 -2.54890339E-04 -7.74187648E-03  3.53755287E-03  1.69094878E-04 -9.91275417E-05
  6.06969889E-06  2.32872997E-05 -8.48712013E-05 -1.61061678E-05 -5.22373928E-05
  3.92567725E-02 -7.40005189E-04 -1.33795209E-04  1.22759254E-02  9.89646687E-05
 -9.97397103E-03 -1.11814229E-02 -4.18046235E-05 -7.43648093E-06 -2.12065562E-06
 -7.60346579E-06  3.08738001E-05  1.52022022E-05  5.09664980E-05  5.75609550E-03
 -1.11154254E-04  1.90345957E-05  1.76346021E-02  3.13959965E-05  1.78954987E-02
 -2.64324433E-06 -8.57123750E-06  2.04146318E-05 -6.45966490E-05 -5.45856417E-05
  3.43593460E-05 -2.31692276E-04  9.71806882E-04  6.23419746E-07 -2.37868674E-05
  2.46234063E-06 -9.15523769E-03 -3.44971568E-06 -3.49846614E-05 -4.34119007E-06
 -1.34165423E-05  2.45410792E-05 -8.14091171E-06 -1.22517369E-05  8.24823653E-04
 -8.12103371E-04  5.37563801E-04 -8.53016014E-04  1.20322557E-05  2.02295854E-04
 -2.31001387E-03 -1.40746133E-05  1.82882879E-05 -2.00898907E-08 -7.31524641E-07
  1.26355140E-05 -8.84523628E-06  9.39764488E-06  4.33944658E-03 -8.15926450E-04
 -5.23548877E-04 -3.26929990E-04  3.67588910E-06 -3.46586500E-04  3.07277742E-04
  2.38282945E-05  4.26501300E-07  1.32408584E-06  4.54985423E-06 -9.66177853E-06
 -4.88027459E-07 -3.82259506E-06 -1.18568414E-05 -9.43106361E-05 -8.68531261E-04
  7.95713495E-06  1.57907008E-05  3.06793891E-06 -1.41511910E-03 -8.85129678E-06
  4.46446048E-05  2.66335695E-06  9.87808738E-06 -3.20194590E-05  1.28387295E-05
  1.56310160E-05 -4.35186236E-03  6.89125812E-04 -4.65318099E-04  3.07174328E-04
  9.22948887E-06  3.40064601E-04  3.12428531E-04 -1.94296513E-05 -4.18721024E-06
  1.05989527E-05  3.40748208E-05 -7.99378542E-05  6.21812890E-06  1.97765663E-05
 -7.96404459E-04  7.76924231E-04  4.39004181E-04  8.82105188E-04  1.94096372E-06
 -2.13133275E-04 -2.31713713E-03 -3.03048628E-05 -1.23028760E-05  4.48142227E-06
  1.40383169E-05  3.05341477E-06  6.52885395E-05 -1.88234681E-05 -5.92049334E-06
 -8.18572762E-05 -1.20703218E-04  5.66597400E-07  2.95160081E-05 -1.53905713E-05
  3.46118162E-02 -1.47627492E-02 -4.98384599E-02  1.38228477E-01 -7.98409311E-02
 -6.99087282E-05  4.64013291E-05 -1.97690694E-01  1.83390860E-04 -1.78943351E-04
 -5.06594801E-02  2.12045405E-05 -3.28403372E-05 -1.08626205E-02  3.04666537E-05
 -3.41135234E-03 -1.17489112E-02  2.82031661E-02 -1.01288542E-02 -4.37044647E-03
 -4.08903910E-05 -1.45344670E-02  3.24446040E-02  1.68180916E-04 -9.99582011E-03
 -2.52395272E-05 -6.37231132E-05 -2.15939503E-02  1.41740075E-03 -1.06495988E-03
 -4.13147738E-03  1.63780746E-02 -2.41520706E-03  2.06584640E-03 -2.45460014E-05
 -5.79964643E-02  4.28054979E-04 -5.28075916E-04 -1.18551639E-03 -1.76205681E-04
 -1.18816124E-04  8.14040967E-03  8.11950958E-03 -1.79323756E-03 -6.38194602E-03
  2.21863729E-02 -3.62510532E-03 -3.73756249E-07  2.14130104E-04 -2.63375237E-02
 -3.41753980E-04  1.48500659E-03  1.92926486E-04  2.43085019E-04  5.52589937E-08
 -5.95936010E-03  5.41361112E-06 -1.06592268E-03 -4.13513928E-03  1.63933821E-02
 -2.43632201E-03 -2.07817103E-03 -4.93460991E-05 -5.73163322E-02 -6.10880378E-04
 -5.32542922E-04 -1.19347859E-03 -1.84185043E-04  1.29418335E-04  8.12280560E-03
 -8.13626549E-03 -3.39966830E-03 -1.17087435E-02  2.80790104E-02 -1.00489384E-02
  4.39956896E-03 -3.12217921E-05 -1.39560620E-02 -3.24295553E-02  1.89060446E-04
 -9.94993327E-03 -4.87225969E-06  7.80647546E-05 -2.15364206E-02 -1.41850090E-03
  1.60867293E-03  4.44499229E-03  1.67677137E-02  1.02716516E-01  1.83947255E-04
  4.03417589E-05 -6.64048898E-02  2.36572493E-05  9.49927469E-05  5.04421040E-02
  2.96035125E-05  1.07035175E-04  1.65425021E-01 -1.14192814E-05 -4.12610403E-05
  1.49896608E-04 -9.18967925E-05  7.21940513E-02  4.80452841E-06 -2.47020875E-04
  2.42259444E-01  6.88789525E-05 -6.23117510E-05  2.72405840E-05  3.36722865E-05
 -1.83656188E-06  1.96012432E-02  4.05580119E-03  1.39611064E-02 -4.91575374E-02
  1.56912415E-02 -4.17413079E-02  7.67509802E-05 -2.28537553E-01  2.24538370E-01
 -1.22906039E-04  6.20953568E-03 -1.22182155E-05  6.48207111E-05  2.89595661E-03
  9.45470695E-03  8.63731998E-04  2.94202234E-03 -5.68316221E-03  3.27078254E-03
  5.17014220E-03 -2.50907723E-05 -1.99678379E-01 -1.78437878E-01  2.91381104E-04
  4.46122446E-03  1.32233027E-04  1.31134281E-04 -1.34638011E-03  1.20208819E-02
 -3.96042106E-06 -1.38427181E-05  4.33056802E-05 -6.76725662E-06 -7.51484618E-03
  8.09832996E-06 -8.74633402E-05 -2.47571944E-01  2.28183142E-05 -2.37541146E-06
 -6.65955934E-06  7.93686031E-05 -9.32035308E-07  4.20346574E-03 -8.66918947E-04
 -2.95464416E-03  5.72726471E-03 -3.29403478E-03  5.15397973E-03  4.09164492E-05
  1.99519284E-01 -1.78442566E-01 -4.36520444E-04 -4.47906535E-03 -1.16908299E-04
  1.27489449E-04  1.35690923E-03  1.19727419E-02 -4.06571831E-03 -1.39953284E-02
  4.92603701E-02 -1.57128356E-02 -4.16731391E-02 -1.13413522E-04  2.28636545E-01
  2.24232648E-01  2.24496236E-04 -6.22071015E-03  3.17914591E-05  9.46860585E-05
 -2.91412829E-03  9.43156742E-03  3.22992240E-06  9.56716299E-06  1.91517537E-05
  1.74461889E-04 -1.15305247E-01  4.24289970E-05 -1.41080110E-04  2.83899356E-03
  4.52389619E-06  6.48581101E-05 -4.34745396E-05 -2.71639200E-06  5.60937553E-05
  1.07394381E-01 -1.05606604E-05 -1.05772124E-04  6.48260131E-04 -5.33569407E-04
 -7.37317167E-07  9.39527430E-04  1.71533154E-03  3.62855133E-05 -7.59117215E-06
  4.42447681E-06 -6.35267765E-05  4.22760696E-07  9.88337833E-04 -1.11822605E-06
  1.97849597E-04  7.08686463E-04 -3.25276546E-03 -3.64600070E-03 -4.64065347E-04
 -6.15389436E-04  7.10288363E-04 -2.80465688E-04 -4.89967199E-04  1.31128563E-03
 -3.53120020E-04  1.76345672E-04 -1.23860768E-04 -1.74171223E-03 -3.86947899E-04
 -1.32242051E-03  2.83155455E-03  3.89591265E-03  1.83775995E-03 -1.15028471E-03
  5.66488670E-04 -2.54052670E-03  7.37059400E-04 -4.40126790E-03 -1.57165811E-04
  8.02951609E-05 -1.96834084E-03 -6.24937989E-03  1.44659166E-03  4.89860060E-03
 -9.99796607E-03 -2.61040646E-02  8.21486781E-06  2.06593605E-03 -1.83231168E-02
 -2.16952751E-05 -1.74107065E-03  9.87677827E-03  7.06324552E-04  4.59233334E-07
 -2.45492937E-02  1.52567295E-05 -3.86976959E-04 -1.32251818E-03  2.83190030E-03
  3.89520361E-03 -1.84114532E-03 -1.15143987E-03  6.26244211E-04  2.51517688E-03
  7.37546459E-04 -4.40200961E-03 -1.55725903E-04 -7.87704576E-05 -1.96312688E-03
  6.24851772E-03  1.97929589E-04  7.09083816E-04 -3.25640740E-03 -3.64701475E-03
  4.66941176E-04 -6.12909635E-04  7.71769697E-04  3.08459801E-04 -4.93314248E-04
  1.31064828E-03 -3.50720951E-04 -1.78556866E-04 -1.23109429E-04  1.73846913E-03
  4.46960904E-05  1.70515906E-04 -4.44259364E-04 -6.82977031E-04  1.07105709E-07
  7.33181577E-04 -2.60659752E-04 -3.85107099E-06  4.26816658E-04  1.26595264E-04
  2.76501972E-04  7.53624210E-07 -4.59509918E-04 -7.94265457E-07  1.88373136E-01
 -4.03041352E-05 -3.15452324E-04  1.85838452E-03 -2.00908149E-03 -2.68668383E-06
  3.39545142E-03  5.16674163E-03  1.26018305E-04 -8.43973540E-06  1.08005129E-04
 -2.38371440E-04  1.30910005E-06  3.07268174E-03 -3.93834121E-06  7.53839148E-04
  2.70786836E-03 -1.21541999E-02 -1.32745897E-02 -1.65983464E-03 -2.22144272E-03
  1.99975513E-03  4.46207405E-05 -1.77090901E-03  4.48025887E-03 -1.27285877E-03
  6.30380578E-04 -7.26569833E-04 -5.49623037E-03 -1.32374248E-03 -4.58256430E-03
  1.04086049E-02  1.46668793E-02  6.59920364E-03 -4.17873142E-03  2.62771839E-03
 -1.08307585E-02  2.70908702E-03 -1.47884123E-02 -5.18003165E-04  3.17893223E-04
 -6.46018915E-03 -2.08377482E-02  5.05332210E-03  1.71683318E-02 -3.60700257E-02
 -9.26397172E-02  2.93685865E-05  7.42478675E-03 -6.68270087E-02 -7.47521460E-05
 -6.49004697E-03  3.42084161E-02  2.47107497E-03  1.69836525E-06 -8.35054571E-02
  5.17236304E-05 -1.32388166E-03 -4.58303383E-03  1.04100327E-02  1.46641195E-02
 -6.61191934E-03 -4.18287768E-03  2.83728527E-03  1.07421770E-02  2.71154890E-03
 -1.47912354E-02 -5.13358546E-04 -3.12426668E-04 -6.44234911E-03  2.08341890E-02
  7.54147837E-04  2.70929448E-03 -1.21667510E-02 -1.32779988E-02  1.67020931E-03
 -2.21237687E-03  2.21340382E-03  5.25687839E-05 -1.78261336E-03  4.47831554E-03
 -1.26497626E-03 -6.37859738E-04 -7.24366119E-04  5.48513017E-03  1.86805898E-04
  6.93343911E-04 -1.67565013E-03 -2.47104028E-03  4.17218883E-07  2.65191140E-03
 -1.24518582E-03 -1.32643407E-05  1.53011453E-03  6.00342233E-04  9.96919074E-04
  2.76272772E-06 -1.49225225E-03 -2.69323481E-06  4.53293773E-01  1.10251654E+00
 -9.70748561E-05 -2.27683306E-04 -7.46745733E-04  5.16464850E-03  6.81939353E-06
 -7.79090454E-03 -2.18490498E-03 -2.60035812E-04 -2.21835300E-05 -1.01941582E-03
  5.85149623E-04 -1.54418593E-06 -3.40969566E-03  8.02100177E-06 -2.20730018E-03
 -7.93419654E-03  3.24882150E-02  3.27335130E-02  4.03853087E-03  5.06907177E-03
  7.52907967E-04 -6.17348126E-03  3.91227493E-03 -9.25666785E-03  2.88233987E-03
 -1.39294195E-03  3.70944260E-03  6.86500504E-03  2.20157374E-03  7.95272407E-03
 -2.01199886E-02 -3.91021632E-02 -1.62086070E-02  9.73681080E-03 -6.93429721E-03
  3.38793548E-02 -6.16124448E-03  2.70925235E-02  9.19898069E-04 -8.91984201E-04
  1.19628438E-02  3.49005226E-02 -8.86077189E-03 -3.02221513E-02  6.28146124E-02
  1.85408814E-01 -6.16863694E-05 -1.64459191E-02  1.53605818E-01  1.56554188E-04
  1.52539185E-02 -6.60283023E-02 -5.39475719E-03 -4.04578428E-06  1.55351963E-01
 -9.41558286E-05  2.20233881E-03  7.95531356E-03 -2.01266334E-02 -3.90937955E-02
  1.62429524E-02  9.74611599E-03 -7.38199544E-03 -3.36914293E-02 -6.17001309E-03
  2.70995788E-02  9.12897971E-04  8.79661636E-04  1.19299353E-02 -3.48901476E-02
 -2.20800225E-03 -7.93710194E-03  3.25126971E-02  3.27377234E-02 -4.06277909E-03
  5.04613413E-03  3.09693039E-04  5.97173117E-03  3.93428687E-03 -9.25417078E-03
  2.86833757E-03  1.40604680E-03  3.70732782E-03 -6.84349532E-03 -6.77122446E-04
 -2.39629581E-03  4.68716644E-03  6.02878698E-03 -1.23743880E-06 -6.08963217E-03
  5.59495852E-03  2.63172083E-05 -3.46129791E-03 -2.86075674E-03 -2.27596784E-03
 -7.53526050E-06  1.51106441E-03  4.43468062E-06 -5.23529457E-02 -1.97580572E-01
  4.52085233E-01  6.15337321E-04  2.04091713E-03 -4.69341336E-03 -1.28230377E-02
  3.38833124E-06 -7.07063600E-03  3.22790129E-02  5.62937007E-04 -1.14002879E-03
  1.44046234E-02  7.18182016E-04 -2.35134073E-05  2.70061486E-02 -1.77889342E-05
  2.25753002E-03  7.56201282E-03 -2.32099643E-02 -3.58563091E-02 -5.44145573E-03
  3.47215114E-03 -9.71799792E-03 -5.89556171E-02  5.56359033E-03 -1.00369905E-02
  3.10481674E-03 -1.00026852E-03  1.60799083E-02 -1.99013647E-02 -3.37200893E-03
 -1.23789906E-02  5.49767446E-02  4.28273677E-02  3.61099315E-02  7.73266282E-03
 -1.50582685E-01  1.38758066E-01 -6.30603867E-03  2.17365260E-02  1.51001495E-03
  1.11356717E-03 -6.44629077E-02 -7.32613659E-02  2.58854973E-02  8.89073631E-02
 -2.83287699E-01 -4.03781211E-01  1.23264006E-04 -3.43191942E-03  2.72466198E-01
 -6.12350180E-04  1.85340404E-02  3.57764857E-02  6.82592016E-03 -1.76339494E-05
 -1.48900588E-01  1.27757888E-04 -3.36955302E-03 -1.23701817E-02  5.49464568E-02
  4.27928138E-02 -3.61212569E-02  7.69989490E-03 -1.49706841E-01 -1.39198238E-01
 -6.31455135E-03  2.17426251E-02  1.53320744E-03 -1.12270912E-03 -6.43808728E-02
  7.32985032E-02  2.25753535E-03  7.56229897E-03 -2.32306980E-02 -3.58515164E-02
  5.45447558E-03  3.48390167E-03 -8.79292467E-03  5.94260411E-02  5.58654356E-03
 -1.00433067E-02  3.09850571E-03  9.65018810E-04  1.60842102E-02  1.98626294E-02
  4.86601625E-04  1.82161912E-03 -5.12228197E-03 -5.94949277E-03 -4.25579892E-06
 -5.11672737E-03  3.04380509E-03 -6.25131744E-05 -2.44622873E-03  1.47244142E-04
 -1.86514247E-03  7.03541341E-06 -4.94793579E-03 -1.73568353E-05 -4.17795981E-03
 -1.49705175E-02  4.02499544E-02  5.75590968E-01 -3.89635458E-07 -1.34126982E-06
  3.52039782E-06  5.30152419E-06 -3.59577116E-03 -4.48268504E-05  4.86479383E-06
  2.06455925E-02  5.53325822E-06 -3.33953795E-06  4.25244718E-06 -5.98843530E-04
 -3.36303084E-06  4.48793445E-03  1.28719823E-03  4.54248107E-03 -1.66781419E-02
 -1.54712542E-02  2.91164621E-03  1.49647859E-03 -2.93839954E-02  1.17842547E-02
 -3.20611562E-04 -1.04878571E-03  2.62755448E-04  3.09956287E-04 -1.55863424E-03
  5.80000866E-03 -3.42228692E-03 -1.22376999E-02  4.06813557E-02  3.36330793E-02
  3.73862177E-03  6.77563261E-04  3.36982231E-02 -3.86312166E-02 -1.77733160E-03
 -2.65541253E-03  7.40850045E-04 -2.00819770E-03  5.17776670E-03  5.57454567E-03
 -6.40407308E-06 -2.20872053E-05  7.18144590E-05  1.13019674E-04  1.73222329E-02
 -9.50235086E-05 -1.27740950E-05  9.89972626E-03  5.39918903E-05 -1.83241759E-05
 -2.85951501E-05 -1.02337504E-02  1.01893876E-04  1.16299408E-01  3.42317473E-03
  1.22409420E-02 -4.06935830E-02 -3.36372823E-02  3.79160330E-03 -5.71330182E-04
 -3.36251003E-02 -3.85984182E-02  1.71882127E-03  2.65064400E-03 -7.44745178E-04
 -1.98901002E-03 -5.13794038E-03  5.56398824E-03 -1.28804094E-03 -4.54532172E-03
  1.66862268E-02  1.54857118E-02  2.90108510E-03 -1.44584941E-03  2.94054046E-02
  1.17668673E-02  3.50881013E-04  1.05221008E-03 -2.31173282E-04  3.17718075E-04
  1.55704984E-03  5.80276063E-03 -1.29203006E-07 -4.27800102E-07  4.86806176E-07
  3.43912584E-07  4.40908891E-04 -3.54512311E-05  2.53765284E-06  9.61405554E-04
 -2.13314102E-05  8.93970660E-08 -1.25328768E-05  2.23692240E-05  1.38187449E-06
 -5.61792400E-04 -1.72008146E-07 -6.12443358E-07  1.72302456E-06  2.71928394E-05
  6.19572981E-01  4.96220847E-05  1.92122514E-04 -1.02195446E-03  1.13551817E-04
 -4.64069843E-05  1.07822663E-01  2.45698667E-03 -4.59703889E-04 -5.13071951E-03
 -1.55541368E-03 -7.01497410E-03 -9.27498854E-06 -1.02199054E-03 -3.12097751E-05
 -8.02780103E-05 -2.35650646E-04  1.29643288E-03  1.87884673E-03 -1.04225360E-04
 -6.74291896E-02 -8.26429810E-03  5.47809142E-03 -2.75917536E-02  2.81893338E-03
 -3.28586170E-02  1.54365518E-02 -2.12176622E-03  1.18376945E-03  1.84294256E-04
  7.83695287E-04 -6.95409460E-03 -3.06133959E-03 -1.60184366E-03 -1.34403698E-01
  2.99471842E-02 -4.70214837E-02  6.43445333E-02 -5.74448100E-03  5.91395781E-03
  3.66069723E-02  5.94153584E-03  5.54127105E-03 -9.82074565E-04 -3.24230099E-03
  9.48434740E-03  2.03165759E-02 -1.83904544E-05  2.20443832E-01 -1.27058986E-01
  5.71414398E-04 -1.61186456E-01 -4.54844549E-03  1.23848824E-01 -2.78913092E-05
 -1.20924182E-03 -4.52715530E-05  1.78752590E-04  7.63843678E-04 -6.87867273E-03
 -3.06237522E-03  1.58932608E-03 -1.34413518E-01  2.92041666E-02  4.76061650E-02
  6.43086670E-02 -5.76679938E-03  5.89377932E-03 -3.66129389E-02  5.93643208E-03
 -5.58753030E-03 -7.71504365E-05 -2.24037971E-04  1.24061856E-03  1.83034048E-03
  1.95017250E-04 -6.74245176E-02 -9.03635716E-03 -6.09480181E-03 -2.75482839E-02
  2.83777563E-03 -3.28644559E-02 -1.54424871E-02 -2.14015239E-03 -1.21071393E-03
 -1.52223725E-05 -6.97976251E-05  4.59252301E-04  7.24021624E-04  4.21075487E-05
  8.22914507E-02 -2.10607110E-03  3.78043599E-05  4.97120595E-02  3.90310459E-04
  3.19858860E-02  1.15346487E-05  4.23357739E-04 -5.11750234E-06  3.32700901E-03
  1.18110731E-02 -2.80122545E-02 -1.80736178E-02 -1.30169667E-04  8.35905101E-01
 -1.08967775E-02 -4.01940686E-02  1.26716300E-01  6.56939529E-02 -2.95538594E-05
 -1.35540709E-03  1.44958614E-01 -8.85961663E-04  7.70847343E-04 -1.36524704E-02
  4.95942337E-04  4.69455430E-05 -2.25741461E-02  2.45064246E-06 -1.30082366E-02
 -4.88358122E-02  1.68274630E-01  2.31030613E-02  3.00286199E-02  5.05056388E-03
  1.11930274E-01 -5.47002777E-02  2.04378136E-03 -4.14113317E-02  1.21503421E-03
 -3.68369270E-04  1.64090481E-02 -4.21806664E-02 -9.34197463E-03 -3.25748478E-02
  9.79715063E-02 -5.78942552E-02 -5.00967628E-02  2.60554556E-03  3.08190794E-02
  1.22198187E-01 -2.54133009E-03 -1.55649547E-02  2.61330684E-04 -1.74139587E-03
  1.42972392E-02 -3.62542634E-02  1.74332804E-02  5.68285071E-02 -1.71121069E-01
 -8.51661429E-02  7.87296278E-05 -2.38508469E-02  3.09739609E-01  8.78547123E-04
  3.03111403E-03 -1.94296593E-02 -5.31938398E-03 -5.02273201E-07 -2.43762160E-02
  2.46693283E-05 -9.33748961E-03 -3.25597718E-02  9.79433633E-02 -5.78468940E-02
  5.00427652E-02  2.64018150E-03  2.90537668E-02 -1.21355700E-01 -2.56938598E-03
 -1.55471573E-02  2.69268400E-04  1.72128102E-03  1.42780966E-02  3.62615524E-02
 -1.30044400E-02 -4.88237920E-02  1.68259488E-01  2.30725101E-02 -2.99991909E-02
  5.02597997E-03  1.10327721E-01  5.38823339E-02  2.03080972E-03 -4.14181178E-02
  1.20046083E-03  4.08846075E-04  1.64124828E-02  4.22021141E-02 -5.02054806E-03
 -1.66139822E-02  1.22040391E-02 -1.59538284E-02 -9.30460295E-06 -3.45834189E-03
  7.66881443E-02  7.02673761E-05 -2.21212214E-03 -4.82804738E-02 -1.02413043E-03
 -7.03916173E-05 -2.78916265E-02 -1.70889352E-05 -5.19935859E-04 -4.13461606E-03
  2.54137705E-02  1.57359608E-01  5.41583967E-05 -5.29320898E-02  2.15549486E-01
  1.22658305E-05  4.37706955E-05 -1.23513324E-04 -3.53317191E-05 -8.56441407E-03
 -5.88928696E-05 -3.13801191E-04  2.82939078E-01  4.63804922E-05 -5.26456804E-06
  1.93342002E-05  2.03273778E-04  2.83532357E-05 -7.46206347E-03  2.25029819E-03
  9.38550953E-03 -4.22679802E-02 -3.38102075E-02 -6.97053520E-04 -9.39645404E-04
 -2.13421270E-01  1.57541179E-01 -4.33278949E-04  1.20728626E-02 -8.61374890E-05
  1.62479842E-04  2.18350199E-03 -1.21024487E-03  2.65699232E-03  9.07960008E-03
 -2.62624714E-02  3.22725763E-02 -3.30892269E-02 -1.10136174E-03 -1.79869523E-01
 -1.63088478E-01 -5.36303802E-04  9.07237915E-04  5.46804265E-04 -5.58264295E-04
 -6.89687563E-03 -4.49156358E-03  3.34722734E-06  1.27279308E-05 -3.49276898E-05
  2.99692098E-05  5.01060579E-02 -4.03758349E-05 -2.71640102E-04 -2.51984542E-01
  6.51716510E-05  4.52965359E-05 -2.73288548E-05 -2.93244484E-03  7.88392981E-06
  2.56520303E-02 -2.63747459E-03 -9.00990932E-03  2.60672652E-02 -3.21855340E-02
 -3.30852940E-02  1.19927237E-03  1.79625397E-01 -1.63005437E-01  3.82914587E-04
 -8.38220142E-04 -5.37517550E-04 -5.52712175E-04  6.85282334E-03 -4.47995135E-03
 -2.22157117E-03 -9.28122108E-03  4.19444880E-02  3.37768548E-02 -6.68875959E-04
  9.46374868E-04  2.13359865E-01  1.57277500E-01  5.21591829E-04 -1.19709930E-02
  1.11554865E-04  2.03814700E-04 -2.25465641E-03 -1.28672063E-03  9.87989553E-06
  3.17896387E-05 -1.26359784E-05 -1.24941018E-05 -2.12917919E-03  2.66145726E-05
 -1.43741762E-04 -6.05203923E-02  9.16091053E-07  1.00982785E-04 -3.07183018E-05
  6.56197651E-05  4.75576289E-05  2.87975388E-02 -4.80952516E-06 -1.63264521E-05
  2.75251648E-05  1.01075359E-04  2.17520437E-01 -1.59436662E-04 -1.36503117E-04
  1.14730196E-01 -1.50078310E-03 -5.42211294E-03  1.57772046E-02  9.14500092E-03
 -2.82929873E-05  6.33344386E-02  1.97098165E-02 -4.32748478E-04 -2.26207245E-03
 -3.68794134E-03 -3.72495579E-03  3.26590874E-06 -5.65453124E-03 -1.16916479E-05
 -2.04288331E-03 -7.38670037E-03  2.35463503E-02  5.10857271E-03  3.95075832E-03
 -3.22009831E-02  9.62816920E-03 -4.01717393E-04 -1.43264921E-02 -3.87716560E-03
 -1.77253792E-02  8.84702316E-03  8.94674358E-04 -2.72741708E-03 -1.52480118E-03
 -5.32714676E-03  1.23386654E-02 -8.59372434E-03 -1.95363958E-03 -6.96116353E-02
  2.67760691E-02 -1.93030459E-02  3.57283791E-02 -9.84751804E-03  2.82561137E-03
  1.96644217E-02  7.17414099E-03  3.01058708E-03 -5.78584434E-04 -2.44527973E-03
  1.06282137E-02  6.96722387E-03 -1.66622857E-05  1.19314699E-01 -5.16880404E-02
  4.89932473E-04 -8.81749546E-02 -5.44080028E-03  6.52483454E-02 -1.24779715E-05
 -5.63799245E-03 -2.98162545E-05 -1.52709874E-03 -5.33554223E-03  1.23738306E-02
 -8.60699305E-03  1.94174883E-03 -6.96136495E-02  2.60515741E-02  1.97861808E-02
  3.57057233E-02 -9.85865602E-03  2.81406322E-03 -1.96681632E-02  7.16567823E-03
 -3.03376455E-03 -2.04058297E-03 -7.37998524E-03  2.35294993E-02  5.08860747E-03
 -3.90286088E-03 -3.22020408E-02  8.89485395E-03 -1.01168747E-04 -1.43052954E-02
 -3.86765450E-03 -1.77312660E-02 -8.84087053E-03  8.85883689E-04  2.71967198E-03
 -6.69904779E-04 -2.24733400E-03  1.96106866E-03 -9.85296017E-04  2.25738062E-05
  4.73441960E-02  8.84567318E-03  4.07980576E-05  2.74903285E-02 -6.24729255E-03
  1.78215286E-02 -5.05755049E-06 -2.92498807E-03 -4.83461537E-06  5.32634123E-03
  1.93542254E-02 -4.31403195E-02 -2.89372017E-02 -1.07908673E-04  4.44412008E-01
 -1.08706220E-02 -1.31779939E-04  2.42235398E-01  1.26123689E-03  4.30407557E-03
 -1.17445342E-02 -4.67291443E-03  2.30545790E-06  1.20724820E-03 -5.28527767E-03
  1.14655569E-04 -1.31254053E-04  1.15420241E-03 -2.47947825E-04 -4.56748514E-06
  5.91248637E-03 -3.27253820E-06  1.00678888E-03  3.57587237E-03 -1.07669471E-02
  5.09871090E-03 -1.80554966E-03 -2.50160701E-03 -4.08998395E-03  2.76903892E-03
 -1.14897050E-03  5.31959482E-03 -6.95928057E-04  2.60204155E-04 -1.09149838E-03
 -1.56600335E-03  5.60184538E-04  2.46048414E-03 -9.86617545E-03 -6.00202675E-03
 -9.88780362E-03 -2.53482555E-03  7.19459348E-03 -9.81037353E-03  2.12178132E-03
  1.53434557E-03  1.92257182E-04  1.07498934E-03  2.21552593E-03 -7.29172118E-03
  3.56608265E-03  1.24742042E-02 -3.60721662E-02 -1.84728407E-03 -8.54615806E-06
  9.10863734E-03 -3.56123239E-02 -9.80458963E-05 -4.41928770E-03  1.20433115E-02
  3.15072689E-03 -1.62175516E-06 -9.78691433E-03  1.22163839E-05  5.60362705E-04
  2.46109725E-03 -9.86856285E-03 -6.00644096E-03  9.90415637E-03 -2.53237504E-03
  7.39891974E-03  9.71081104E-03  2.12419986E-03  1.53312509E-03  1.93518769E-04
 -1.07483076E-03  2.22638253E-03  7.28670574E-03  1.00675077E-03  3.57565727E-03
 -1.07686285E-02  5.10140368E-03  1.80039368E-03 -2.50336700E-03 -3.89131668E-03
 -2.67901617E-03 -1.15436671E-03  5.31939723E-03 -6.91894969E-04 -2.71244145E-04
 -1.08905971E-03  1.56036794E-03  3.30622407E-04  1.10003708E-03 -7.89470688E-04
  3.03977669E-04  7.49595212E-07  2.00681796E-03 -5.34149467E-03 -1.37586291E-05
  1.08784866E-03  3.37360192E-03  5.74408127E-04  5.70364052E-06 -5.52875538E-04
 -2.14619793E-06  6.65279338E-03  2.31336028E-02 -4.53130246E-02 -6.14475618E-03
  2.32589906E-05  2.28379649E-02 -1.18555634E-02  1.68430827E-05  1.31201246E-02
  7.62186090E-03 -3.00164199E-04 -1.09324668E-03  3.16725631E-03  1.41445154E-03
 -1.02696751E-05  1.58035553E-02  5.84528688E-03 -2.25282323E-05 -1.78524726E-03
 -1.59460113E-04 -5.43393702E-04 -7.91863864E-07  2.97256373E-04 -2.61851209E-06
 -4.25141474E-04 -1.62043945E-03  5.69398156E-03  1.80320543E-03  8.77395773E-04
 -3.59097635E-03  2.65206326E-03 -3.95377444E-03  1.71630506E-03 -2.06477765E-03
 -4.42695425E-03  2.31497128E-03  1.58543319E-03 -1.54356132E-03 -5.81326262E-04
 -1.98833229E-03  6.15015414E-03 -2.04756385E-03  7.54078928E-05 -2.81633674E-02
 -4.22432371E-03  9.55119837E-03 -8.35403844E-03  3.18472862E-04 -2.32695903E-03
 -4.50616220E-03 -1.09668149E-03 -1.85985570E-03  9.43858200E-04  2.91063663E-03
 -8.16398960E-03 -1.01057772E-02 -1.23321526E-05 -4.35202129E-02  2.27125393E-02
  2.94127006E-05  2.37813629E-04 -2.02614077E-03  2.75526770E-03 -3.02736307E-06
 -1.36516748E-03  1.27466327E-05 -5.79367943E-04 -1.98196290E-03  6.13473471E-03
 -2.07283589E-03 -5.12455246E-05 -2.81691107E-02 -4.29183245E-03 -9.52664632E-03
 -8.35835647E-03  3.21680412E-04 -2.32242078E-03  4.50667608E-03 -1.09927451E-03
  1.86584181E-03 -4.24237778E-04 -1.61773923E-03  5.69014642E-03  1.81394066E-03
 -8.71260978E-04 -3.59611792E-03  2.60496704E-03  3.93842556E-03  1.72192920E-03
 -2.06205096E-03 -4.42923997E-03 -2.31323127E-03  1.58303396E-03  1.54719452E-03
 -2.35783416E-04 -7.89842445E-04  8.98808468E-04 -9.35227795E-06  4.49357128E-06
  5.15375510E-03  2.65389666E-03 -8.97401314E-07  4.11910194E-03 -1.54618091E-03
  3.54093217E-03 -5.04980456E-07 -8.11577589E-04 -2.40251858E-07 -1.42352419E-03
 -5.12638951E-03  1.12739293E-02  1.85751436E-02  5.05972599E-05 -1.50122216E-02
  1.29879803E-02  1.44582768E-05 -8.48106403E-03 -2.17088946E-03  5.50561394E-03
 -2.02837624E-06 -7.28856822E-06  2.18203363E-05  1.30803605E-05 -9.61638166E-04
 -5.34906165E-06  1.98759098E-05  6.67130230E-03  1.67081986E-06 -2.97533141E-06
  6.91750829E-07 -6.20638963E-05 -5.62623566E-06  1.37875936E-04  6.37118141E-05
  3.03239126E-04 -1.61638947E-03 -2.68794089E-03  1.56166202E-04  1.93668869E-04
 -5.61636084E-03  4.13851865E-03 -4.34580493E-06  1.58545074E-04  2.96872313E-05
  1.53142555E-05 -1.36513444E-04  6.12877082E-04 -1.57721036E-04 -5.14118352E-04
  1.42824513E-03  3.62241116E-03  1.72451802E-03  1.48728945E-04 -2.13446168E-03
 -5.51235936E-03 -6.74320382E-05 -5.13384842E-05  2.94643031E-05 -1.03873932E-04
  1.99846945E-04  6.19882726E-04  1.60146283E-06  4.19085068E-06 -8.21291780E-06
 -5.72881319E-06 -1.52223407E-03  6.29308262E-06  5.45625061E-05 -4.23987811E-03
  1.55280494E-06 -8.92601629E-06 -1.15348994E-06 -5.74262123E-04  7.35469407E-06
  6.21140437E-03  1.54885880E-04  5.03633289E-04 -1.39338385E-03 -3.63862936E-03
  1.73329812E-03 -1.29268877E-04  2.13848213E-03 -5.55246314E-03  6.74747572E-05
  4.61160279E-05 -2.76322021E-05 -1.06347029E-04 -1.94959067E-04  6.23668652E-04
 -6.86040006E-05 -3.21034925E-04  1.67448987E-03  2.69568723E-03  1.42525027E-04
 -1.89644071E-04  5.65461356E-03  4.15123317E-03  6.72351455E-06 -1.74078767E-04
 -2.58369775E-05  1.69276537E-05  1.41686811E-04  6.22744275E-04 -6.24009309E-07
 -2.10332129E-06  1.43931573E-06 -3.34115658E-06  1.99697064E-04 -1.17373465E-06
  1.17537608E-05 -1.27083087E-03 -1.45257622E-06 -7.02165447E-06 -1.65108964E-06
  4.37657251E-06 -3.27318378E-06  3.89360146E-04 -3.45576968E-06 -1.23649233E-05
  2.67651606E-05  3.01494668E-05  3.26278689E-02  2.03250590E-06  3.70198726E-05
  1.20845924E-02  6.59632423E-07 -3.14277411E-06  4.02750808E-06  1.75455568E-03
  8.79716335E-04  3.66746265E-03 -1.57252918E-02 -1.22579879E-02  1.33071319E-05
  1.52839548E-03 -1.23348217E-02 -4.27434971E-05  1.90982371E-05 -4.78492936E-05
  3.65543935E-05 -3.65468494E-06  1.10056749E-03  6.92712447E-06  8.69020950E-04
  3.38807144E-03 -1.39212587E-02  2.99656167E-03 -5.27909378E-03  5.35520754E-04
 -2.02967595E-02  3.57043425E-03  2.40826913E-05 -6.15158184E-04 -3.07224201E-04
  1.53622849E-04  3.67458144E-03  9.69183382E-03 -2.13345554E-03 -6.79624707E-03
  1.43728062E-02  1.20405446E-02  2.50867191E-02 -9.74792977E-04 -1.44261213E-02
 -1.14010393E-02 -2.91032888E-04 -4.99667991E-03 -3.19316946E-04 -4.14769654E-04
 -4.39629675E-03  1.79823547E-02 -1.07390256E-02 -3.53044960E-02  9.63912711E-02
  1.29747640E-02 -5.95603689E-05 -2.94327418E-03 -2.40815254E-02  5.59309651E-05
 -2.25910388E-05 -1.42258069E-02 -8.16952030E-04  1.08055978E-06  8.51775296E-03
  1.80776767E-05 -2.12763169E-03 -6.77600563E-03  1.43062540E-02  1.19920132E-02
 -2.50352082E-02 -9.87438539E-04 -1.44927837E-02  1.14144387E-02 -2.90877880E-04
 -4.99684078E-03 -3.23843189E-04  4.18992249E-04 -4.42237073E-03 -1.79568961E-02
  8.67855947E-04  3.38406682E-03 -1.39021501E-02  2.99963929E-03  5.26508740E-03
  5.33343158E-04 -2.03493946E-02 -3.55160397E-03  3.78814320E-05 -6.07434104E-04
 -3.12504421E-04 -1.44901385E-04  3.66503809E-03 -9.67384989E-03 -2.40841325E-04
 -9.22457725E-04  3.93593403E-03  9.30938106E-03  3.09225797E-06  1.30091035E-04
 -7.24525993E-03  1.50290792E-05  2.32113374E-04  4.37107041E-03  2.74664409E-04
  3.57109360E-06  6.18184400E-03  1.27449910E-05 -3.08108970E-03 -1.05007557E-02
  1.79898535E-02 -4.87223560E-02  7.31014540E-05 -3.16906006E-03 -2.69442678E-02
  2.17790657E-05 -1.75215302E-03 -4.59710374E-03 -9.92406888E-04  1.75256307E-06
  1.32870155E-02 -2.77235320E-07 -1.33065721E-06  7.59981542E-06  3.68744125E-06
  6.76558571E-03  1.08193365E-05 -4.58930023E-06  2.09514526E-02  1.63623377E-06
 -1.16332695E-06  3.94814015E-07 -1.82152291E-04  1.21644610E-06  5.43453919E-04
 -1.94144469E-04 -4.18785921E-04 -3.02304456E-03 -4.89362105E-03 -5.81272231E-03
  5.89481978E-04 -1.18632286E-02  2.16305367E-02  1.50152427E-05 -3.46910915E-03
  7.71414689E-05  5.32614735E-05  4.38922965E-03  7.22533613E-03 -4.60750296E-03
 -1.59718898E-02  5.10863403E-02  3.07340909E-02  3.76757337E-02  3.31148774E-04
 -1.11519121E-03 -5.24419057E-03 -2.20848553E-04 -2.88594659E-03  1.07730253E-04
 -2.78398694E-04  5.25903299E-03  1.03113131E-02  6.72288806E-06  2.23313203E-05
 -6.06267348E-05 -2.59807351E-05 -8.04360901E-02 -1.07079182E-05  1.76493263E-06
  1.52302368E-02  4.64978595E-06  1.17640714E-05  3.29489253E-06 -1.66570506E-03
  1.49043332E-05  3.27451401E-02  4.61154940E-03  1.59854380E-02 -5.11224804E-02
 -3.07344815E-02  3.77203827E-02 -3.29011481E-04  1.12513723E-03 -5.23316437E-03
  2.07011408E-04  2.89406901E-03 -1.05968629E-04 -2.78603449E-04 -5.24875808E-03
  1.03381960E-02  1.94069269E-04  4.18332761E-04  3.02702666E-03  4.88302073E-03
 -5.81767846E-03 -5.94414922E-04  1.18953928E-02  2.16167765E-02 -1.14721720E-06
  3.47376459E-03 -7.22067575E-05  4.73161136E-05 -4.39011768E-03  7.23492739E-03
  4.11298951E-07  1.37218227E-06 -1.78810991E-06 -2.97950031E-06 -1.81189934E-03
  5.28932195E-06 -8.86924020E-07 -8.64261699E-04  2.28918451E-06  2.11381482E-06
  1.15741976E-06  2.35661464E-05 -2.26772599E-06  2.90165498E-03  2.09212703E-06
  7.28770398E-06 -1.30317284E-05  4.65483522E-05  7.47867004E-02  2.70821190E-05
  1.20061778E-05  2.11183005E-02  9.30882687E-06  8.84536101E-06  9.46757756E-06
  4.26176317E-03  6.84191367E-06  2.08228644E-02 -1.65459232E-04 -5.96828212E-04
  1.67690675E-03  4.92983182E-04 -1.89456685E-03  6.24455545E-03  1.19799526E-02
 -2.21620233E-03 -8.20166075E-04  3.37411373E-03 -1.83687744E-04 -3.11174136E-05
  4.35751064E-03 -3.88738972E-03 -1.11006694E-03 -4.07517083E-03  1.64051783E-02
  1.10296740E-02  2.67343892E-03 -2.03142432E-03  5.68259495E-03 -2.55534596E-02
  1.15882334E-03 -5.79692805E-03 -1.24196646E-03  6.20100661E-04  6.96142020E-03
 -9.41131081E-03  1.53849139E-03  5.40191766E-03 -1.36334401E-02 -2.36454191E-02
 -1.44242421E-02 -7.11444728E-03 -6.21299854E-02  6.22511045E-02  1.45162776E-03
  1.30319018E-02  3.19059237E-04  3.13349410E-03 -1.74332132E-02 -1.32955819E-02
  2.36734992E-03  8.32260075E-03 -3.93962093E-02 -4.75277888E-02  2.57163289E-02
  5.30381173E-03  1.17919743E-01 -1.68351746E-02 -2.72946830E-03 -1.54434210E-02
  9.45760648E-03  4.43352902E-03  7.76686310E-03 -5.81681798E-02 -3.66786571E-03
 -1.28786698E-02  4.59403482E-02  3.02063675E-02 -2.54523676E-02 -8.86951883E-03
 -2.17462992E-02 -3.16543033E-02 -5.34766983E-04  1.03680852E-02  1.31793723E-03
 -1.32663820E-03 -1.03096899E-02 -5.05051618E-04  4.98252743E-04  1.52019187E-03
 -3.92175504E-03 -1.13546854E-02  6.97262109E-04 -2.90811791E-03 -1.04760321E-02
  1.38341412E-02  5.51696735E-04 -8.83761487E-03 -1.33538564E-03 -9.37923424E-04
  5.77476593E-03 -2.78629553E-03 -2.02602695E-04 -6.68040650E-04  4.11346779E-04
 -5.42628417E-04 -5.13467467E-04  3.62810213E-03  4.28564109E-03 -3.06892765E-03
  2.53894976E-03 -2.09956594E-03  1.68754698E-03  1.67308120E-05 -1.08344476E-03
  1.30976665E-04 -2.01902458E-02 -7.21845105E-02  1.51776890E-01  1.57287746E-01
 -2.77984891E-01  4.64167007E-02  4.80259053E-02 -9.47647475E-02  1.16569367E-02
 -1.54176755E-02  7.86509222E-03 -1.47666494E-02 -5.65131823E-03 -3.80745400E-02
  2.18651416E-01  1.12579872E-02  4.08601109E-02 -1.23012933E-01 -6.95811467E-02
  1.26014129E-03  8.68022257E-04 -1.30115742E-01  1.42696384E-01 -1.48956543E-03
  1.93796135E-02 -2.74397241E-05  1.54958422E-04  3.71939763E-02 -6.40010892E-03
  1.43588789E-02  5.38321806E-02 -1.86155369E-01 -3.78787667E-02 -3.25545764E-02
 -1.80332940E-03 -1.99364005E-01  1.09606650E-01  1.81106969E-03  4.38625379E-02
  3.73475999E-05  2.68278364E-04 -6.72473004E-03  2.62689951E-02  8.22307927E-03
  2.92160068E-02 -7.93010422E-02  7.94570813E-02  2.63224142E-02 -9.46298197E-04
 -1.59859093E-01 -1.20785718E-01 -3.44745869E-03  3.41178374E-02 -5.52018923E-05
  7.65476346E-04 -2.96597939E-02 -1.48100463E-03  7.92280359E-04  5.61264039E-03
 -2.61211734E-02 -1.56188207E-02 -3.78368181E-02  1.00857183E-02 -1.80855109E-01
 -1.04034977E-01  9.41575366E-03  3.75667872E-02  5.78009692E-03  4.76877513E-04
 -6.26483575E-03  3.43860560E-03  1.24788642E-02  4.36476930E-02 -1.25439248E-01
  3.10029328E-02 -1.39030705E-02  4.36387473E-04  2.33366264E-02 -1.53527753E-04
 -3.59672968E-03  3.78776905E-02 -3.34804323E-04 -5.03745442E-04 -2.85235206E-02
  5.41526544E-03  1.39503995E-02  4.99795606E-02 -1.51909842E-01 -2.36513733E-02
  3.21790763E-02 -3.77076674E-04 -4.82012173E-03  5.19909716E-02  2.10626425E-03
  3.77216439E-02  2.40336035E-04 -2.58535330E-04 -2.05232924E-02 -2.45869947E-02
  4.78690562E-03  1.59452299E-02 -1.21905266E-02  1.20567906E-02 -1.12506482E-03
  6.38204744E-04 -7.35023357E-02 -3.05777258E-02  1.12834994E-03  4.70215187E-02
  4.56159229E-04  1.02700224E-04  2.24257326E-02  1.32458838E-02 -7.68020032E-03
 -2.68652045E-02  5.03895079E-02  8.64903027E-02 -2.57980825E-02  2.79792533E-02
 -1.41246984E-01  4.34550700E-03 -1.56419066E-02  7.81258288E-03 -3.22007058E-03
 -9.29502933E-04 -4.12708834E-04  2.89419024E-03  4.40923798E-02  2.03100103E-01
 -1.64263722E-03 -6.04189366E-03  1.88688390E-02  1.13223138E-02  1.66343505E-04
 -9.45077131E-04  2.03896183E-02  2.89451932E-03  2.08600230E-04 -2.05896780E-03
 -8.22370436E-05 -1.70968991E-04 -5.37286799E-03 -6.95134804E-04 -2.43562670E-03
 -8.71620018E-03  2.70076635E-02 -1.07280345E-03  2.93314825E-03 -4.01046183E-04
  1.44506124E-02  1.84216917E-04 -7.30546560E-04 -5.51247368E-03  3.00505684E-05
 -8.56539428E-05  1.20107699E-03 -4.24781410E-03 -1.51386213E-03 -5.28299744E-03
  1.42989407E-02 -7.19695987E-03  3.80255220E-03  5.57597412E-04  6.45560344E-03
  7.50215161E-03  1.63608313E-03 -6.26503360E-03  2.02084850E-04  4.60547374E-04
  2.11507442E-03 -6.12674915E-03  2.66261227E-03  8.96425482E-03 -2.50319255E-02
 -3.69081780E-02  6.48162723E-04  3.71165536E-03  2.31336749E-02  9.89397583E-04
 -2.89912120E-03  4.93778506E-03  7.01477811E-04 -4.78298460E-04 -2.15771049E-02
  4.41259248E-03 -1.28681877E-03 -4.81654881E-03  1.55644095E-02  1.40862933E-04
  4.41067375E-03 -6.09705864E-04  5.86450527E-03 -1.41099862E-02  1.55455953E-03
 -6.34500776E-03  3.15722426E-04 -6.01753599E-04 -6.75243475E-04  8.86955084E-03
 -1.51503311E-03 -5.61297172E-03  1.75931904E-02 -3.60412620E-03 -5.23695410E-03
 -1.65414368E-03  2.01307330E-02  9.78197190E-03 -8.62483146E-04 -4.74691438E-03
 -1.35614332E-04  9.36405593E-05  1.12188030E-03  6.34136194E-03 -3.37802586E-04
 -1.06957051E-03 -9.32464679E-04 -4.67780170E-03 -1.28692821E-03  3.67928068E-04
  1.07821985E-02  1.56804839E-04 -2.26569016E-05 -6.88773385E-03 -1.01270700E-04
  1.63074572E-05 -4.51315522E-03  9.28980166E-04  7.65192513E-03  2.68681486E-02
 -5.28085290E-02  1.55546030E-02  1.96091461E-02  3.73129870E-03  2.69087009E-02
  6.21182263E-03  8.22225889E-03  3.78169542E-03 -2.51069585E-05  1.03003946E-03
 -5.45743883E-03  2.34265924E-03 -2.07929140E-02 -2.89811950E-02  1.13921916E-02
  2.47283436E-03  8.96445924E-03 -2.68794074E-02 -1.18888582E-02  3.41358365E-04
 -2.93376457E-03 -2.69123106E-02  4.14826528E-02 -2.12419288E-04  5.33306681E-03
  7.32478507E-05 -1.78229657E-05  6.25552336E-03 -4.42122598E-04  2.82223039E-03
  1.11595090E-02 -4.19671824E-02 -1.61792539E-02 -8.94295710E-03  1.58028592E-05
 -5.24855108E-02  3.01781456E-02  6.00317641E-04  8.19204534E-03  7.76755919E-04
 -3.88705063E-04 -1.59641818E-03  8.14154335E-03  2.44403184E-03  7.96915751E-03
 -1.71986059E-02  2.66828728E-02  1.25736511E-02  3.15438052E-03 -5.00569778E-02
 -2.86581553E-02 -6.93430549E-04  9.91499180E-03  4.08589571E-04  5.44217099E-04
 -8.98822410E-03  3.27979612E-03 -2.06246530E-04 -6.93379437E-04  1.39784843E-03
 -2.06992424E-03 -1.58173992E-02  4.48938912E-03 -1.64588630E-02 -3.31771808E-02
  3.76813394E-03  2.09315773E-03  8.96392626E-04 -9.16586061E-05  6.68480536E-03
  2.42790188E-03  2.67359839E-03  9.14132607E-03 -2.43474571E-02  2.54549780E-03
 -1.74272920E-03  3.19012180E-03  6.35616874E-03 -1.66773912E-02 -7.52898087E-04
  1.02259438E-02  3.40262943E-04 -5.39534825E-04 -8.21152647E-03  4.32918983E-04
  2.77018688E-03  9.91270922E-03 -2.94856070E-02 -3.41743368E-04  3.15892628E-03
 -1.44393465E-05  7.89846581E-03  2.23819812E-02  6.55169363E-04  6.18197532E-03
  7.77884598E-04  3.98161143E-04 -3.17680013E-03 -4.80657866E-03  1.37034829E-03
  4.59572995E-03 -5.13566521E-03 -3.02146157E-04 -9.85119432E-04 -1.09797141E-03
 -1.49368313E-02 -8.22099546E-03 -6.07013716E-04  9.46964346E-03 -5.91479571E-04
  3.89420009E-05  4.10556622E-03  4.89038021E-03 -7.74436998E-03 -2.70840750E-02
  5.32455215E-02  3.93025915E-02  2.64598077E-03  4.94855605E-03 -2.44476809E-02
  5.31421204E-03 -6.99873207E-03 -3.12041029E-03  4.94959602E-04  3.34904814E-04
  9.95451668E-04  2.69719718E-03  2.41566021E-02  5.13599633E-02 -1.03392165E-02
  1.78537015E-02 -3.92009224E-04 -1.43843440E-03  4.68197294E-03  2.54404865E-03
 -1.34125150E-03  8.72566409E-03  2.67152337E-03 -1.26362835E-02 -1.20935183E-04
 -7.84669386E-04 -6.56058536E-05  5.08250748E-04 -1.80895855E-03  6.88599618E-04
 -3.80898679E-04 -1.46919380E-03  5.65407296E-03 -1.33079122E-03  1.61579739E-03
 -1.73529334E-03  1.17202813E-02 -6.46086913E-03 -6.80035979E-04 -7.21723595E-04
 -1.81089070E-03  1.13650582E-03 -1.47789633E-03 -5.97305799E-04  1.65248650E-04
  5.73004614E-04 -2.58970129E-03 -2.00132901E-03 -1.92511055E-03 -6.79720898E-03
  1.52018606E-02  1.26014550E-03  1.98404003E-03 -1.27855079E-03  4.30848479E-05
  1.03868582E-03  2.17505785E-03  4.99244418E-04 -2.28787533E-04 -6.76023739E-04
  1.75910868E-03  6.47878556E-03  3.05409770E-03  6.51858905E-03 -6.24048955E-03
  9.29837838E-03 -6.29743727E-03 -2.15534716E-04  4.16375925E-03  2.49425151E-04
  7.24003533E-04  1.78365908E-03 -2.31544337E-04 -8.45290374E-04  2.44776273E-03
 -3.87639270E-04  2.75752020E-03 -3.06686880E-03 -2.46599849E-03  7.20069322E-03
  2.68178925E-03 -1.73634326E-03 -4.68341753E-04 -1.11304044E-03  1.98673969E-03
 -4.53153260E-04 -3.03854136E-04 -1.10219746E-03  3.20825771E-03  5.65354930E-04
 -5.94527910E-04  1.99951276E-03 -4.80233248E-03 -7.91985666E-03 -1.17874789E-04
 -2.91306356E-04 -1.31240731E-03 -1.07045113E-03  2.61088147E-04  8.71657347E-04
 -1.01888973E-04 -3.31713307E-04  9.94352756E-05 -7.87718126E-04  3.48114873E-04
  3.63293771E-03  1.92457297E-03  2.59587573E-03  2.58162719E-03 -1.31437568E-03
  1.96582874E-03 -9.36624463E-05 -6.13872704E-04 -1.49941279E-03  1.25797505E-03
  4.38748570E-03 -8.85081333E-03 -1.22618329E-02  1.45455138E-02  2.88536891E-02
 -8.97726031E-04  3.97246337E-03  1.67606321E-02  1.40449595E-03 -7.87300309E-04
  7.38245073E-04  7.16759319E-05  1.26841995E-03 -1.01886655E-02 -7.02717470E-03
  1.76207007E-03 -2.53179595E-03  1.95203982E-03 -1.65835171E-04 -5.98237448E-04
  1.68036132E-03  4.92823797E-04  1.89003103E-03  6.27954585E-03  1.20040626E-02
  2.18157935E-03 -8.22395009E-04  3.37375463E-03 -1.83777274E-04  2.07294962E-05
  4.36239757E-03  3.87922389E-03  4.97876801E-04  1.51879623E-03 -3.91588477E-03
 -1.13520770E-02 -6.87148510E-04 -2.92347753E-03 -1.04353820E-02 -1.38661705E-02
  5.33665628E-04 -8.83932818E-03 -1.33131394E-03  9.46083891E-04  5.78299589E-03
  2.77637013E-03 -3.66739410E-03 -1.28772405E-02  4.59356488E-02  3.02161534E-02
  2.54341180E-02 -8.90047645E-03 -2.16927780E-02  3.16783020E-02 -5.27354274E-04
  1.03658860E-02  1.31583892E-03  1.32730735E-03 -1.03112321E-02  5.04477697E-04
  2.36700770E-03  8.32141685E-03 -3.93913167E-02 -4.75354842E-02 -2.56878850E-02
  5.29176684E-03  1.17919501E-01  1.67827319E-02 -2.75444131E-03 -1.54537984E-02
  9.49672845E-03 -4.44456588E-03  7.82996183E-03  5.81424049E-02  1.53762310E-03
  5.39862246E-03 -1.36203559E-02 -2.36376684E-02  1.44395058E-02 -7.14782339E-03
 -6.21612149E-02 -6.22059223E-02  1.44123552E-03  1.30323228E-02  3.20966798E-04
 -3.14527336E-03 -1.74182474E-02  1.33148316E-02 -1.11026916E-03 -4.07595455E-03
  1.64063075E-02  1.10248741E-02 -2.67311012E-03 -2.04225096E-03  5.64626630E-03
  2.55337436E-02  1.18264360E-03 -5.79793323E-03 -1.25168893E-03 -6.31684250E-04
  6.96676903E-03  9.41093493E-03 -2.03153753E-04 -6.69822695E-04  4.12757957E-04
 -5.42569352E-04  5.15207205E-04  3.64249414E-03  4.29130223E-03  3.06952135E-03
  2.54860752E-03 -2.10162841E-03  1.69681055E-03 -2.08542222E-05 -1.08389477E-03
 -1.36028393E-04 -2.01894244E-02 -7.21816187E-02  1.51772134E-01  1.57438263E-01
  2.77846968E-01  4.67016231E-02  4.80859020E-02  9.47515069E-02  1.17709169E-02
 -1.53863142E-02  7.91278591E-03  1.47937375E-02 -5.59258098E-03  3.80743737E-02
 -3.45631236E-02  2.43859997E-02 -3.13874225E-03  2.82556349E-02  2.69173135E-03
  2.18645402E-01  1.12498719E-02  4.08324880E-02 -1.22945567E-01 -6.95755399E-02
 -1.20168989E-03  8.95295641E-04 -1.29865585E-01 -1.40212301E-01 -1.53193294E-03
  1.93906619E-02 -4.18819121E-05 -2.70227772E-04  3.71801419E-02  6.36291583E-03
  1.39452672E-02  4.99599016E-02 -1.51828119E-01 -2.36589709E-02 -3.22001287E-02
 -3.86988583E-04 -7.00261170E-03 -5.10195395E-02  2.05615904E-03  3.76867209E-02
  2.17381897E-04  2.08758419E-04 -2.04890415E-02  2.45101216E-02  1.24712319E-02
  4.36197557E-02 -1.25339140E-01  3.10259753E-02  1.39336000E-02  4.58314149E-04
  2.11189116E-02 -9.28780744E-04 -3.55772916E-03  3.78551477E-02 -3.47141052E-04
  5.15121058E-04 -2.85834693E-02 -5.42234911E-03  7.82690706E-04  5.57911579E-03
 -2.60224349E-02 -1.56137345E-02  3.77930231E-02  1.01087571E-02 -1.80679157E-01
  1.01540219E-01  9.37566792E-03  3.75232973E-02  5.79266510E-03 -4.96418896E-04
 -6.28639330E-03 -3.41890147E-03  8.21120887E-03  2.91744496E-02 -7.91965657E-02
  7.94218167E-02 -2.63126696E-02 -9.96706600E-04 -1.57478424E-01  1.19644849E-01
 -3.35845199E-03  3.40801633E-02 -5.46252846E-05 -7.54293943E-04 -2.95870698E-02
  1.45567647E-03  1.43480299E-02  5.37939557E-02 -1.86067119E-01 -3.78562699E-02
  3.25269894E-02 -1.77079784E-03 -1.97233527E-01 -1.08387998E-01  1.78225228E-03
  4.38247747E-02  4.76359972E-05 -3.50896958E-04 -6.69573218E-03 -2.62945965E-02
  4.77945210E-03  1.59214520E-02 -1.21827894E-02  1.20755192E-02  1.13617178E-03
  5.91444866E-04 -7.34019231E-02  3.03286161E-02  1.11738536E-03  4.69466323E-02
  4.76813954E-04  4.55827604E-05  2.23976029E-02 -1.32309255E-02 -7.67026047E-03
 -2.68312721E-02  5.03263820E-02  8.64252946E-02  2.57234480E-02  2.80692695E-02
 -1.41145627E-01 -3.94414162E-03 -1.55733312E-02  7.80978427E-03 -3.22009831E-03
  8.84740301E-04 -4.09258381E-04 -2.87447498E-03  2.43596259E-02  1.79942302E-01
 -2.64502276E-02  4.46648811E-02 -3.97566868E-03  4.40591736E-02  2.02791730E-01
 -1.64495213E-03 -6.05047396E-03  1.88939596E-02  1.13392606E-02 -1.77450204E-04
 -9.50480438E-04  2.04207741E-02 -3.10014263E-03  2.07430594E-04 -2.06507274E-03
 -8.32525792E-05  1.87386615E-04 -5.37982932E-03  6.96349651E-04 -1.51951076E-03
 -5.62854248E-03  1.76386829E-02 -3.59398045E-03  5.25137502E-03 -1.66083804E-03
  2.03402705E-02 -9.88317438E-03 -8.62920086E-04 -4.75569617E-03 -1.36433009E-04
 -8.87635005E-05  1.12495963E-03 -6.34147866E-03 -1.28975825E-03 -4.82668135E-03
  1.55897809E-02  1.27450206E-04 -4.41304474E-03 -6.20332296E-04  6.09280272E-03
  1.42194115E-02  1.56117226E-03 -6.35478055E-03  3.14574132E-04  6.00479905E-04
 -6.65623194E-04 -8.86088399E-03  2.66047683E-03  8.95719992E-03 -2.50160095E-02
 -3.68892339E-02 -6.35292986E-04  3.70816511E-03  2.31743490E-02 -7.59036964E-04
 -2.90598027E-03  4.92492736E-03  7.01251694E-04  4.79535857E-04 -2.15736957E-02
 -4.38749507E-03 -1.51779566E-03 -5.29647113E-03  1.43374170E-02 -7.22928480E-03
 -3.78938543E-03  5.53114053E-04  6.26356978E-03 -7.42275985E-03  1.63707220E-03
 -6.27527263E-03  2.02177928E-04 -4.62024715E-04  2.12541781E-03  6.12707502E-03
 -2.43947823E-03 -8.73045082E-03  2.70560387E-02 -1.04279840E-03 -2.93681611E-03
 -4.06716796E-04  1.42832015E-02 -2.64255132E-04 -7.42306947E-04 -5.52579203E-03
  2.72203132E-05  9.28552686E-05  1.20639571E-03  4.25931760E-03 -3.39456409E-04
 -1.07515693E-03 -9.25501164E-04 -4.67976686E-03  1.28238990E-03  3.72733826E-04
  1.08003373E-02 -1.42197059E-04 -2.27919934E-05 -6.89784216E-03 -1.01399787E-04
 -3.65384293E-05 -4.51506293E-03 -9.30460651E-04  7.65289259E-03  2.68715826E-02
 -5.28151881E-02  1.55029393E-02 -1.96178317E-02  3.72430359E-03  2.69359939E-02
 -6.26917503E-03  8.22983521E-03  3.77737064E-03 -2.75181389E-05 -1.02651333E-03
 -5.45880906E-03 -2.33614301E-03 -3.15177880E-03 -2.65231631E-02  9.79892009E-03
 -1.03137158E-02  7.64915785E-04 -2.07994225E-02 -2.90118569E-02  1.14035423E-02
 -2.46750616E-03 -8.94573117E-03  2.68301504E-02  1.18651185E-02  3.28139891E-04
  2.92958551E-03  2.67962353E-02  4.09467818E-02  2.24445101E-04 -5.32973448E-03
 -6.72354295E-05  7.79417182E-06 -6.24159323E-03 -4.37449541E-04 -2.76434974E-03
 -9.89204593E-03  2.94226206E-02  3.37342093E-04  3.15831484E-03  1.78210022E-05
 -7.45339429E-03  2.21851059E-02 -6.33222949E-04 -6.16098472E-03 -7.72582957E-04
  4.07565009E-04  3.16276015E-03 -4.78328560E-03 -2.66831633E-03 -9.12267274E-03
  2.42920847E-02 -2.54134721E-03 -1.75065510E-03 -3.18815670E-03 -5.90644518E-03
 -1.64470746E-02  7.29038202E-04 -1.02072808E-02 -3.38215907E-04 -5.43492013E-04
  8.21417045E-03  4.28058772E-04  2.10051940E-04  7.06568248E-04 -1.43221272E-03
  2.05713632E-03 -1.57927070E-02 -4.51345855E-03  1.63581924E-02 -3.26069947E-02
 -3.74119135E-03 -2.06658180E-03 -9.05964916E-04 -8.61743440E-05 -6.67499539E-03
  2.44281518E-03 -2.43348536E-03 -7.93244113E-03  1.70960554E-02 -2.66309867E-02
  1.25492503E-02 -3.12872238E-03  4.95144226E-02 -2.83704135E-02  6.61953014E-04
 -9.88847541E-03 -4.09070662E-04  5.45296108E-04  8.95971844E-03  3.28036728E-03
 -2.81267100E-03 -1.11255505E-02  4.18693094E-02  1.61264812E-02 -8.92500880E-03
 -1.49819674E-05  5.20014393E-02  2.98793325E-02 -5.88641535E-04 -8.16391014E-03
 -7.73830470E-04 -3.73034145E-04  1.57897309E-03  8.13011788E-03 -1.36671172E-03
 -4.58388647E-03  5.12854711E-03  2.98283710E-04 -9.81663259E-04  1.10724642E-03
  1.48849176E-02 -8.16412301E-03  6.09684667E-04 -9.43521100E-03  5.84456290E-04
  1.01028566E-05 -4.09321602E-03  4.88299159E-03  7.73712826E-03  2.70590334E-02
 -5.31979470E-02 -3.92399443E-02  2.69810758E-03 -5.01814211E-03  2.43773565E-02
  5.22561118E-03  6.94330556E-03  3.12202987E-03 -4.92100488E-04  3.39151533E-04
 -9.93947359E-04  2.69720808E-03 -2.82460432E-02 -4.45983616E-02  1.02855255E-02
 -1.51666204E-02  2.10808667E-03 -2.41226965E-02 -5.12061694E-02  1.03351349E-02
  1.77923809E-02 -3.93925174E-04 -1.44563091E-03  4.70626137E-03  2.55940690E-03
  1.33965197E-03  8.72495151E-03  2.67042661E-03  1.26140375E-02 -1.16645337E-04
 -7.91179501E-04 -6.42156729E-05 -5.03102316E-04 -1.81930628E-03 -6.92592127E-04
 -3.05609971E-04 -1.10844075E-03  3.22561419E-03  5.63604482E-04  5.98298478E-04
  1.99463867E-03 -4.74271673E-03  7.92069624E-03 -1.15715785E-04 -2.92537146E-04
 -1.31224572E-03  1.07060791E-03  2.61716914E-04 -8.74829604E-04 -2.32706719E-04
 -8.49430205E-04  2.45909524E-03 -3.88132551E-04 -2.77208446E-03 -3.07012526E-03
 -2.41530386E-03 -7.18397551E-03  2.67783422E-03 -1.74408750E-03 -4.66605071E-04
  1.11242046E-03  1.99515313E-03  4.47504445E-04 -2.27457435E-04 -6.70810923E-04
  1.74130886E-03  6.47607031E-03 -3.06740541E-03  6.51592386E-03 -6.24376058E-03
 -9.24739982E-03 -6.29500352E-03 -2.09558634E-04  4.15854630E-03 -2.48537560E-04
  7.11738030E-04 -1.79124737E-03  1.64553409E-04  5.70729269E-04 -2.58627774E-03
 -2.01651319E-03  1.93256197E-03 -6.78562517E-03  1.51811617E-02 -1.24596331E-03
  1.97876776E-03 -1.28591455E-03  4.16802015E-05 -1.03813878E-03  2.18153988E-03
 -4.98059839E-04 -3.83652038E-04 -1.47957295E-03  5.69202125E-03 -1.33415675E-03
 -1.61776831E-03 -1.72651857E-03  1.17169089E-02  6.44239635E-03 -6.75369079E-04
 -7.27356095E-04 -1.80960669E-03 -1.13297861E-03 -1.48501648E-03  6.02001852E-04
 -1.01983132E-04 -3.32065966E-04  9.98103197E-05 -7.94798169E-04 -3.47614908E-04
  3.63487955E-03  1.92958377E-03 -2.60303705E-03  2.58195018E-03 -1.31673137E-03
  1.96384211E-03  9.11279013E-05 -6.15236811E-04  1.50866384E-03  1.26626279E-03
  4.41682886E-03 -8.91014126E-03 -1.22990488E-02 -1.45765279E-02  2.88233200E-02
 -8.85652276E-04 -3.99663569E-03  1.67542533E-02  1.40774570E-03 -7.90527684E-04
 -7.39771713E-04  6.65676941E-05 -1.26846449E-03  2.66691884E-03 -4.01056942E-03
  7.71780985E-04 -2.12572005E-03  1.05490241E-03 -1.02178648E-02 -7.05763574E-03
  1.77433354E-03  2.53977584E-03  1.95647792E-03 -4.36021522E-04 -1.40192735E-03
  2.83311970E-03 -3.58239918E-03  9.71684035E-05  6.30704161E-06 -2.84852209E-02
 -1.24969586E-01 -1.29296669E-04 -6.61976080E-03 -8.99925771E-07 -2.97165354E-05
 -4.43575611E-03  5.88467605E-03 -2.34132940E-04 -8.19859898E-04  3.75175213E-03
 -4.72899908E-04 -2.05905812E-03 -5.11034057E-06  8.25605594E-02 -7.29267205E-02
  1.94619921E-04 -3.22352990E-03  7.75104762E-06 -3.33883396E-05 -8.58581614E-03
  4.28096450E-03 -2.88129871E-06 -1.06366944E-06  4.55772684E-04  3.09415894E-04
  3.46659940E-04  1.17009452E-05  6.93292599E-02  5.55471318E-02 -4.54706426E-04
  1.32200774E-03 -1.14409640E-04 -1.12650483E-04 -1.78627154E-04  1.05799531E-03
 -9.31911950E-05 -3.46108876E-04  1.71912291E-03 -6.10938319E-04 -2.43653986E-04
  3.63526324E-05 -1.66992751E-02  9.82519674E-02  7.90098072E-04  1.59827643E-03
  1.08562491E-04 -2.06774831E-05 -1.23559003E-03 -2.20459321E-03 -9.40574627E-05
 -3.71623888E-04  2.87005702E-03 -5.31642062E-04 -3.18309866E-04  5.57773888E-06
 -9.50746275E-02  6.45643595E-02 -1.77435623E-04  2.84950920E-04 -3.18353207E-05
  3.09315555E-05  1.79180543E-03 -2.67683526E-03  1.79560043E-05  1.49204305E-04
 -2.91220961E-03  1.55552495E-03  1.99070759E-03  2.59783407E-06 -1.00005621E-01
 -8.04868885E-02  6.26469259E-05  2.65863562E-03  1.19323151E-05 -3.10309916E-05
  3.23430414E-04 -4.34987844E-03  6.73784815E-04  2.20402891E-03  1.98501769E-03
  9.23960940E-03  1.15971733E-02 -4.54149766E-06 -8.35015841E-03  2.76735983E-02
  3.23756706E-05  1.50395465E-02  1.44255312E-05  1.34537839E-05  2.11522211E-02
 -1.81044086E-02  8.31065219E-06  5.36550064E-05 -5.48875827E-04  1.97605277E-04
  2.01259824E-04  3.97332369E-05 -1.20202575E-02 -1.24014765E-02 -1.62315547E-03
  6.77520307E-04 -3.82376063E-04 -2.49132675E-04  1.06638542E-03 -5.77222768E-04
 -7.66342062E-04  5.81285767E-03 -1.82994738E-03  5.36571700E-04  2.34569024E-04
 -4.83810480E-05  1.78498509E-02 -1.74433753E-03 -4.23098149E-03 -8.79664159E-04
  1.92142824E-01 -1.44334155E-03 -4.88891840E-03  1.09324476E-02 -1.27762555E-02
  1.28625710E-04  2.31817631E-05 -1.13360221E-01 -4.36549451E-01 -4.61406370E-04
 -2.37168937E-02 -3.99494537E-06 -1.02638224E-04 -1.55002268E-02  2.12464830E-02
 -7.83239742E-04 -2.90903175E-03  1.39692815E-02 -1.99324553E-03 -7.38461821E-03
 -1.81098899E-05  2.87594976E-01 -2.51314207E-01  6.95775643E-04 -1.10394408E-02
  2.78071011E-05 -1.17031100E-04 -3.16622670E-02  1.53907138E-02  1.30880327E-05
 -6.74583669E-06  1.85409814E-03  1.06337299E-03  1.31967715E-03  4.21658087E-05
  2.37371034E-01  1.92570722E-01 -1.64889820E-03  4.37173395E-03 -4.14979878E-04
 -4.10697756E-04 -2.88045563E-04  3.64477668E-03 -3.31725669E-04 -1.28443326E-03
  6.42333553E-03 -2.32696296E-03 -8.58264925E-04  1.34803636E-04 -6.09101703E-02
  3.40417509E-01  2.91602444E-03  5.97523317E-03  3.97572289E-04 -7.61260405E-05
 -4.55418200E-03 -7.69267744E-03 -3.15088353E-04 -1.36159355E-03  1.05586339E-02
 -1.90854255E-03 -1.23464639E-03  2.15848681E-05 -3.32024340E-01  2.26833325E-01
 -6.80031501E-04  8.55894554E-04 -1.28531031E-04  1.25356509E-04  6.60250821E-03
 -9.70778477E-03  8.36424961E-05  5.45993255E-04 -1.01759971E-02  5.47654644E-03
  7.11587416E-03  7.78136481E-06 -3.46680337E-01 -2.86798936E-01  2.26373946E-04
  9.71649037E-03  4.15797480E-05 -1.10385019E-04  4.48801355E-04 -1.58939299E-02
  2.27849126E-03  7.31045529E-03  7.93862026E-03  3.20192809E-02  3.95964770E-02
 -1.52784934E-05 -3.69404029E-02  9.22146066E-02  1.19289103E-04  5.18584270E-02
  4.99690154E-05  4.75593445E-05  7.34931558E-02 -6.09997920E-02  1.92793424E-05
  1.75687383E-04 -1.99093057E-03  7.18429209E-04  6.95379404E-04  1.52262605E-04
 -4.42342385E-02 -4.28249424E-02 -5.95435771E-03  2.47771725E-03 -1.40505326E-03
 -8.44116109E-04  4.06568402E-03 -2.02670336E-03 -2.71172922E-03  2.25457866E-02
 -6.71457415E-03  2.31530376E-03  7.56181026E-04 -2.30611696E-04  6.41498695E-02
 -6.35391134E-03 -1.51458097E-02 -3.12261943E-03  4.60531376E-01  1.11737596E+00
  5.28382853E-03  1.98821576E-02 -5.02259830E-02  6.22434546E-02  6.34662300E-03
 -1.15740532E-04  5.97738509E-01  1.82278105E+00  2.05532393E-03  1.06461234E-01
  2.10202036E-05  4.24976827E-04  5.87611503E-02 -9.74692020E-02  3.00871124E-03
  1.25182191E-02 -6.55676395E-02  1.33584809E-02  3.52991998E-02  7.27665894E-05
 -1.18531246E+00  1.01679377E+00 -3.10324079E-03  4.32681345E-02 -1.28534105E-04
  4.90614190E-04  1.46412596E-01 -6.83983348E-02 -2.55165355E-04 -8.07843708E-05
 -9.10824026E-03 -5.67694153E-03 -6.87253618E-03 -1.85557168E-04 -9.42515211E-01
 -7.87930312E-01  7.55471957E-03 -1.66599945E-02  1.89265764E-03  1.89010265E-03
 -1.37813436E-03 -1.52757458E-02  1.54602496E-03  6.29790691E-03 -3.10747101E-02
  1.23497417E-02  3.87311448E-03 -6.40093917E-04  2.82349669E-01 -1.39498501E+00
 -1.38769879E-02 -2.91505942E-02 -1.88197542E-03  3.57300503E-04  2.23788223E-02
  3.19635852E-02  1.30060628E-03  6.39398371E-03 -4.85265260E-02  8.39451721E-03
  6.68576561E-03 -1.04590255E-04  1.38768285E+00 -9.56660426E-01  3.50811060E-03
 -2.91972143E-03  7.21252759E-04 -7.04188574E-04 -2.96193394E-02  4.36943650E-02
 -9.41653367E-04 -3.93743544E-03  4.60796907E-02 -2.51388147E-02 -3.63086479E-02
 -2.85851368E-05  1.42942174E+00  1.23899542E+00 -1.08282540E-03 -4.59043907E-02
 -1.79215436E-04  4.79128174E-04  3.95931795E-03  7.31044704E-02 -5.18774633E-03
 -1.44993732E-02 -6.83538207E-02 -1.22732217E-01 -1.33358314E-01  4.36978147E-05
  2.19846036E-01 -3.52635263E-01 -5.69323040E-04 -2.14466928E-01 -2.07594488E-04
 -2.12044892E-04 -3.07081730E-01  2.31572013E-01 -1.05848696E-04 -9.74066907E-04
  9.57188887E-03 -4.08975004E-03 -2.92940903E-03 -7.48662587E-04  2.08636665E-01
  1.74395942E-01  2.80115546E-02 -1.16468030E-02  6.59370114E-03  3.29226701E-03
 -2.02809956E-02  8.41591262E-03  1.17742708E-02 -1.18528244E-01  3.14734997E-02
 -1.44670919E-02 -2.47430531E-03  1.54308245E-03 -2.88321001E-01  2.95652311E-02
  6.72406237E-02  1.36034460E-02 -1.36837192E-01 -5.00832391E-01  2.30327199E+00
  9.73907192E-03  3.39656624E-02 -1.10056034E-01  1.38609622E-01  3.74962739E-02
 -1.69958898E-05  1.00627817E-01 -1.81489385E-01 -2.19944832E-04  1.67616549E-02
  2.36597130E-05 -2.58560658E-06 -7.87430807E-03  4.10852923E-02  3.80861116E-03
  1.30766791E-02 -3.24428102E-02  4.17081173E-02  1.12469200E-02 -7.54399430E-05
  1.74378476E-01 -2.09309223E-01  3.78398633E-04  2.80206388E-03  1.22262952E-05
 -6.11184890E-05 -4.44752302E-03  2.35700316E-02 -1.17730202E-03 -4.16268123E-03
  1.39232327E-02 -1.24031928E-02  9.82832125E-04  7.05088278E-05  1.35915529E-01
  9.53054277E-02 -6.11741272E-04 -2.02729897E-03 -1.35463716E-04 -1.36578675E-04
 -3.04485277E-03 -4.58011419E-03  7.29314852E-04  2.58588555E-03 -1.02759097E-02
  6.70592676E-03  1.81769883E-03  5.40022858E-05 -2.15280240E-02  1.58555411E-01
  8.60844243E-04  3.00883356E-03  8.50324460E-05 -1.24405969E-05  1.81677382E-03
  9.63255540E-04  1.62164309E-03  5.60523870E-03 -1.66602585E-02  2.37749996E-02
  3.04592194E-03 -1.14830115E-05 -1.24512147E-01  1.30697012E-01 -1.63191539E-04
 -1.30130385E-03  3.21852055E-05  2.31611799E-06  3.62299168E-03  3.73401248E-03
 -4.01805257E-03 -1.43851727E-02  5.29488606E-02 -3.88752349E-02 -4.33852908E-02
 -7.89839655E-05 -1.90796891E-01 -1.65082726E-01  1.41631960E-05  1.87205892E-03
  3.02600971E-05 -4.37647744E-05 -8.51215406E-03 -3.71165475E-03 -1.22820141E-02
 -4.29830397E-02  8.87396784E-02 -6.94750810E-02 -2.29215185E-01  1.25684101E-05
  5.37831353E-02  5.11586388E-02  5.47293104E-05  8.66068098E-03  3.46132326E-05
 -7.66032001E-05 -1.77865757E-01 -9.76060752E-02 -7.88385435E-05 -2.45097223E-04
  6.75003257E-05 -2.84598037E-03 -1.24845366E-03  4.35291991E-05 -1.37793694E-02
 -1.88323297E-02 -1.82740991E-03  1.29922818E-03 -5.07115000E-04 -3.20936905E-04
  4.57043191E-04 -1.70130266E-03  2.37376426E-04  6.60233974E-03 -3.11145535E-03
 -1.90328695E-04  4.42674993E-04 -1.08069891E-03  1.87939085E-02 -7.43873723E-04
 -5.85818353E-03 -1.04248244E-03  1.17172674E-02  4.18531507E-02 -2.02166213E-01
  1.01082000E+00  6.85331367E-04  2.15948388E-03 -2.20700466E-02  2.65316678E-02
  8.82331058E-03 -6.39800402E-05 -9.53942667E-02 -4.85745905E-01 -2.59214585E-04
 -2.17837267E-02 -4.51422755E-06 -1.07021524E-04  4.62328743E-03  8.98272666E-02
 -2.27864294E-03 -8.18541249E-03  3.09855477E-02 -1.93431865E-02 -2.83380902E-02
  1.39593661E-05  2.15128833E-01 -1.07853407E-01  4.76600818E-04 -1.45677151E-02
  3.75847237E-05 -1.07040511E-04 -4.04414741E-02  1.39971565E-02  1.07565876E-03
  3.69934061E-03 -1.00942629E-02  1.33250696E-02  2.72781875E-03 -1.35813968E-05
  1.85813418E-01  1.16518547E-01 -1.14613004E-03  7.34359172E-03 -2.04313887E-04
 -2.19997123E-04  1.92885524E-03  1.44092548E-02 -3.73003261E-04 -1.34592908E-03
  5.25561446E-03 -2.09628789E-03 -8.96959731E-03  1.36592535E-04 -3.47119370E-02
  2.64351596E-01  1.84502948E-03  4.56705764E-03  3.10293501E-04 -1.16680723E-04
 -4.15237600E-03 -3.35822903E-03  7.24273022E-06 -1.67646111E-04  2.47275009E-03
  2.57886558E-03  1.54308493E-03  8.59986692E-05 -2.48574819E-01  1.26603160E-01
 -2.95352819E-04 -7.46474438E-03 -1.00333476E-04  7.64015806E-05  1.84713240E-03
  4.20176786E-03 -3.19739848E-04 -1.12200035E-03  1.00963017E-02 -6.44535130E-03
 -9.39611583E-03 -7.91068284E-05 -2.43167184E-01 -1.03698910E-01  1.47013534E-04
  2.56759758E-02  7.48816208E-05 -5.73730039E-05  1.08465078E-02 -1.34427823E-02
 -2.62389161E-02 -9.31370356E-02  2.09506908E-01 -2.37920266E-01 -3.22208268E-01
  2.52838840E-04  4.47222174E-03  2.27744057E-01  6.34694004E-05  3.37115276E-02
 -4.89535426E-05 -4.95681789E-06  7.95146636E-02  1.29730952E-01  1.93105886E-04
  7.74464129E-04 -2.88286605E-03  2.50437193E-03  6.72548658E-04 -1.27530198E-04
 -2.40929704E-02 -4.06267043E-02 -3.73454941E-03  1.24094506E-03 -7.16921334E-04
 -1.13009632E-03  1.65879749E-03  1.47929209E-03 -2.46324887E-03  4.01082903E-03
 -1.67704262E-03 -2.45288945E-04  8.97554251E-04  1.07062002E-03  4.67338022E-02
 -5.96933733E-03 -9.93395739E-03 -2.09339793E-03  1.87729725E-02  6.67151799E-02
 -3.22194201E-01 -1.96162900E-01  7.61030581E-01 -6.94371857E-06 -2.61126447E-05
  1.31828145E-04  1.08528147E-05 -1.07849973E-05 -1.47341510E-01 -4.95482942E-04
 -2.27420854E-03  1.23396674E-02  9.38294857E-05 -3.88410027E-02  3.65961888E-02
 -4.85583403E-05 -4.53797106E-05 -1.39724469E-06 -1.22523009E-05  9.75994154E-05
  1.07491514E-05 -2.57994977E-06 -7.18475520E-02  3.38519280E-03 -1.12706875E-03
 -1.73450889E-02 -2.73098894E-04  2.43125601E-02 -7.77078303E-03  2.14789202E-04
 -3.33814633E-05  9.51975698E-06  1.43583335E-05  5.87414154E-04  4.54125255E-05
  7.46203538E-05  4.42414729E-02 -5.08351407E-04  5.09860920E-03  1.30500195E-02
  7.05731919E-04  1.75562924E-02  7.00544981E-03 -6.14106462E-04 -3.06948696E-04
  1.01030309E-04  3.37037075E-04 -1.33211394E-03 -1.15508860E-03  3.53981327E-05
  7.69857620E-02  1.20904392E-02  2.42150517E-03  1.83403803E-02  8.46652842E-04
 -2.35156605E-02  4.94334799E-03  9.46889205E-04 -1.17064392E-04  1.20671820E-05
  2.24865496E-05  5.93623549E-04  9.25578218E-05 -1.64502944E-04  7.31247152E-02
 -4.64461674E-03 -2.28167630E-03  9.35454608E-03  7.30673984E-04  1.56188920E-02
 -9.60102787E-03 -5.31390275E-04  2.92833694E-04 -1.83807084E-06 -1.19601927E-05
  3.21659814E-05 -6.70555317E-06  2.44254828E-04 -7.20730066E-02 -9.00204647E-04
 -1.13615165E-03 -2.54384793E-02 -2.49456174E-04  2.51108300E-02  2.66353121E-02
  1.31564023E-04 -4.84245528E-05  1.06613690E-05  3.88637761E-05 -1.07019820E-04
 -1.22637816E-06  2.59103483E-04  3.04516739E-01  2.06347572E-04  1.24150915E-04
 -9.90364029E-03  9.64545147E-05 -4.50954840E-02 -1.41828026E-01 -1.87320686E-05
 -1.45701778E-05 -7.27413709E-04 -2.62816908E-03  6.00527085E-03  5.27676394E-03
 -6.38188082E-05 -8.20530366E-02  3.14474187E-03 -1.34713972E-04 -4.36172507E-02
 -1.60605225E-03 -9.37329067E-03 -9.98023514E-06 -6.99839736E-04 -9.00550095E-05
 -4.12006521E-03 -1.30638647E-03  9.09692513E-05  1.35165218E-03 -4.28077915E-03
 -4.02960223E-03 -1.19587974E-03  2.93898831E-04 -1.51326973E-03 -4.97426728E-03
 -5.70097907E-06 -2.09420052E-05  1.14862309E-04  1.33100784E-04 -5.71219459E-06
  8.64332858E-01  2.95441492E-03  1.02269128E-02 -3.13402990E-02  3.09604987E-02
  3.43178822E-02  5.16855235E-06  6.01375464E-02  1.33344763E-01  1.56812411E-05
  7.92416992E-03  1.37126458E-05  3.34584602E-05  9.04540259E-03  1.71558453E-02
  3.82553892E-03  1.29503317E-02 -3.77055607E-02  1.79385731E-02 -1.35784639E-02
 -2.64419965E-05 -8.79890721E-02  5.31167430E-02 -4.37521078E-05  7.60019033E-03
 -9.82061038E-06  3.10715322E-05  9.13360495E-03  6.67477097E-03  4.41804190E-04
  1.39108427E-03 -1.89685568E-03 -2.84064374E-03  1.63220431E-03 -2.85182290E-06
 -8.02707522E-02 -7.23647428E-02  1.88332951E-04  5.55147001E-04  6.38963895E-05
  7.54134127E-05 -2.02655347E-03  1.20597021E-03  4.76052600E-04  1.69324753E-03
 -5.41639096E-03  4.27082330E-03 -7.37954587E-04  1.47897076E-04  1.91843160E-03
 -1.10059117E-01 -1.52894574E-04  1.15864636E-03 -1.06313273E-05  4.70995862E-05
  5.51443870E-04  3.67328549E-03  8.66088746E-04  3.10393570E-03 -1.10445516E-02
  1.22983844E-02  4.50231617E-03 -2.65193898E-05  1.01893478E-01 -6.60347332E-02
 -1.39989739E-04 -4.49708551E-04 -2.12080914E-05  3.26995661E-05 -6.77095303E-04
  7.69548119E-03 -2.54470260E-03 -8.95889510E-03  3.46977313E-02 -2.58249230E-02
 -2.48260162E-02 -8.98289701E-05  8.15842686E-02  8.07096001E-02  4.90491900E-05
 -3.69307966E-03  9.75563008E-06  3.67274456E-05 -5.66318089E-03  8.92017758E-03
 -7.36670084E-03 -2.50330242E-02  4.46779744E-02 -8.38683998E-03 -1.57835336E-01
  5.52176961E-05  2.88644669E-02 -4.33895392E-03  1.33106760E-05 -6.52978303E-03
  1.31264172E-06 -2.66811401E-05 -7.39878704E-02  7.74439796E-04  6.42333119E-05
  2.25417190E-04 -4.15560622E-04 -1.66073275E-03 -1.29544288E-03  3.04932125E-04
  1.12461817E-03  1.36615910E-02  2.83371295E-04  2.54974795E-04 -5.95088129E-05
  2.38449003E-04 -6.51098857E-04  6.07122077E-04  5.01149793E-04  6.92187965E-03
 -5.30313161E-05  1.86583478E-03 -5.97163126E-04 -1.27906631E-03 -8.76988990E-03
  3.96041117E-04  2.47441797E-03  8.28720612E-04 -7.42477868E-03 -2.72499988E-02
  1.15169663E-01  3.87671759E-01 -7.20069276E-02  3.06135800E-05  1.77150596E-01
  3.37262305E-04  8.04423400E-04 -6.21022460E-03  2.62600377E-02  5.01364437E-03
 -3.88194027E-05  6.64223077E-02 -5.19245034E-02  2.33762016E-04  2.97193295E-03
  7.31063163E-06 -1.87766499E-07  1.96873971E-02  3.42625033E-02 -1.08834125E-03
 -4.05673470E-03  1.53883631E-02 -1.05010752E-02 -2.78283246E-03  2.89127317E-05
 -1.21020984E-02  3.96655522E-02 -2.71489121E-04 -5.26185366E-03 -5.89543490E-06
 -9.17779119E-06 -1.25768808E-04 -8.42490150E-03 -4.25712516E-04 -9.29478786E-04
 -1.46205163E-03  8.06555979E-03  1.48014792E-03 -5.56925075E-05  5.79024094E-03
 -1.41465449E-02  7.33068517E-04 -1.62877078E-04  2.07333925E-04  2.09366565E-04
 -2.67075053E-04  2.26212962E-03 -2.19992710E-04 -6.37966924E-04  8.39798730E-05
 -2.41433134E-03 -6.09379126E-03 -1.25799076E-04  4.15352337E-02 -1.45753880E-02
 -1.69682928E-03 -4.58304148E-03 -1.55342812E-04 -3.01168413E-05 -1.44820015E-04
  1.79705106E-03 -2.80084770E-04 -7.51069729E-04 -1.42236150E-03 -1.26215104E-03
 -7.86571871E-04  3.26681907E-05  3.38088681E-02 -4.84554666E-02  7.35872607E-04
 -5.83657536E-03  1.28754382E-04 -1.62095608E-04 -2.98732190E-03  1.02390244E-02
 -6.14610224E-04 -2.33364262E-03  1.54882303E-02 -3.45540340E-03 -1.87186976E-02
 -2.35445755E-05  3.47163283E-02  9.43357082E-02 -2.14009437E-04  5.96326402E-03
  1.04666313E-05  3.36427008E-05  1.11728385E-02  9.16235814E-03 -1.93142048E-02
 -6.69523257E-02  1.27106114E-01 -1.26852185E-01 -1.68615116E-01  1.08756526E-04
  5.00463329E-02  7.64775195E-02 -7.36045386E-05 -1.89011702E-02 -5.65566922E-05
 -4.64286778E-05 -2.67559471E-02  9.07322377E-02  2.63472439E-05  7.18397993E-06
  8.50135683E-04  1.71338489E-03  3.82451720E-04 -3.65440460E-04  2.81099593E-02
 -1.75382100E-03  3.51607693E-03 -2.11475528E-03  1.03696088E-03 -1.87935883E-04
 -1.99461531E-03  2.00373472E-03  9.93020438E-04 -2.86099469E-02  5.00211510E-03
 -5.29396221E-03  5.86814003E-04  2.24758408E-03 -2.54885432E-02  2.67580621E-03
  5.98419191E-03  8.15117843E-04 -8.13825936E-03 -3.12559224E-02  1.39137669E-01
 -6.82732732E-02  3.32862564E-01 -1.53752162E-05 -3.12199253E-03  1.93788179E-01
 -4.34840683E-06 -1.64747901E-05  7.66131048E-05 -1.11043716E-05 -2.64080974E-05
 -7.56880958E-02 -2.78618020E-04 -7.58001721E-04  5.95747940E-03  5.44138567E-05
 -1.74377214E-02  1.49112255E-02 -2.71406025E-05 -3.64359760E-05 -5.39260726E-06
 -2.31702445E-05  1.01713739E-04  1.50053663E-05 -1.07828728E-05 -3.53530914E-02
  1.46527051E-03 -4.11436033E-04 -8.98545281E-03 -1.60196775E-04  1.23422558E-02
 -5.23029613E-03  1.28202548E-04 -2.37764100E-05  3.60208594E-06  1.42768101E-06
  3.49596693E-04 -1.17092972E-06  3.72526234E-05  2.60130178E-02 -7.41822598E-04
  2.65117077E-03  6.20867767E-03  3.92172006E-04  8.88495195E-03  3.75606080E-03
 -3.35078235E-04 -1.84029210E-04  5.70621353E-05  1.91628072E-04 -7.66440938E-04
 -6.72355686E-04  2.69525186E-05  4.08254740E-02  6.85888680E-03  8.69103736E-04
  1.06188693E-02  4.56884322E-04 -1.29198256E-02  2.49103467E-03  5.17844030E-04
 -5.35480560E-05  6.06636048E-06  1.11710950E-05  3.22455868E-04  5.76431585E-05
 -1.00612597E-04  4.16385058E-02 -2.21107153E-03 -1.58117625E-03  5.45197792E-03
  4.10081951E-04  7.56065769E-03 -4.73973830E-03 -3.07362312E-04  1.69891126E-04
  2.45737307E-08 -5.51629472E-06  3.46191747E-05 -1.82540496E-05  1.43108534E-04
 -3.10663748E-02 -6.14545062E-05 -3.77694162E-04 -1.15124641E-02 -1.53604143E-04
  1.32419287E-02  1.26730051E-02  7.51660431E-05 -2.42203316E-05  7.77991719E-06
  2.79865509E-05 -7.30866353E-05  7.77717042E-06  1.09252044E-04  1.33954721E-01
  1.12065520E-04  1.44289258E-05 -6.79593038E-03  2.85937163E-05 -2.22420807E-02
 -5.55629490E-02  1.30160358E-06 -1.59768582E-05 -4.07523253E-04 -1.47158969E-03
  3.36110391E-03  2.90105661E-03 -7.11607262E-05 -4.61273116E-02  1.86589487E-03
 -4.49531143E-05 -2.45634943E-02 -9.46785935E-04 -4.94860518E-03 -6.98672214E-06
 -3.44474939E-04 -4.64902716E-05 -2.26417100E-03 -7.31441362E-04  1.73373172E-05
  7.18223636E-04 -2.32560546E-03 -2.26101578E-03 -7.13832358E-04  1.10600858E-04
 -7.79919075E-04 -2.62722436E-03 -7.30766957E-06 -2.51473307E-05  1.11609156E-04
  2.90015019E-05 -4.34257602E-05  3.59579914E-01  4.89543688E-06 -2.37445421E-05
  1.50927056E-01 -9.29593548E-04 -2.86891388E-03  7.17767853E-03  6.73793018E-03
 -9.75361598E-04 -9.27491385E-06 -1.26258581E-02 -9.20420420E-02 -2.26592462E-05
 -5.65145100E-04 -4.97521601E-06 -1.38881480E-05 -9.57521063E-03 -3.21425412E-05
 -5.36404940E-04 -1.77447059E-03  5.11557274E-03 -2.18271401E-03  6.20937263E-03
 -1.05257912E-05  7.59969939E-02 -6.17271366E-02  4.76291471E-05 -3.16533475E-03
 -1.47514143E-06 -2.60382970E-05 -6.07405417E-03  1.02717521E-03 -3.17185259E-05
 -1.52911794E-04  2.05469858E-04  1.21016342E-03 -1.63596403E-04  6.49487731E-06
  6.30807562E-02  4.91969273E-02 -1.09343782E-04 -1.97455103E-04 -4.16275165E-05
 -4.60048171E-05 -4.77954140E-05 -1.04732883E-03 -1.02452418E-04 -3.56135063E-04
  1.01659087E-03  5.67171362E-04 -1.61313199E-04 -4.19279660E-07 -2.14967802E-03
  7.70292483E-02  2.81431945E-05  1.03595249E-04 -1.16137151E-05 -2.00805678E-05
  3.53256947E-04 -1.69683531E-03 -8.90278987E-06 -1.04157553E-04  9.15275810E-04
  1.07698525E-03  7.11681462E-04 -8.24396415E-06 -6.61189145E-02  5.21839860E-02
  1.08242728E-04 -3.47070244E-04  3.12404271E-05 -2.72822595E-05  1.72334995E-03
 -2.20455456E-03 -1.22108016E-04 -4.37199300E-04 -1.21893332E-03 -1.42733300E-03
 -9.76115600E-04 -3.95719565E-06 -6.75464214E-02 -7.24523476E-02 -7.46255566E-05
  4.21990635E-04 -5.29279138E-06 -2.50209246E-05  3.08515236E-04 -2.25264146E-03
  4.29515804E-03  1.46565050E-02 -2.73851833E-02  8.92838434E-03  3.66370336E-02
 -4.27749396E-05 -7.26108115E-03  9.11285271E-03 -6.08187803E-06  2.56887557E-03
  8.42911063E-06  1.69832117E-06  7.39752082E-03 -2.10381427E-02 -4.72052592E-05
 -1.50978257E-04  1.64585930E-04 -6.91614637E-04  2.39921411E-04 -2.99140685E-06
 -1.39506238E-03 -9.28961010E-03 -1.16168469E-04 -7.10852261E-05 -7.22987759E-05
 -1.55319747E-04  1.61925844E-04 -5.86186023E-04 -4.08667704E-04 -3.65839963E-03
 -2.80524049E-04 -1.19511232E-03  4.30877261E-04  1.73717479E-04  5.21748637E-03
  5.21375550E-05 -1.75518626E-03 -4.51169590E-04  5.39261558E-03  1.90529771E-02
 -7.81515946E-02 -1.06123357E-02 -2.99549418E-02 -1.68955467E-05 -1.62115755E-02
 -2.62393210E-02 -6.14859296E-06  7.95418831E-03  6.55673541E-07  1.86572348E-06
 -2.07107379E-06  4.66941218E-06  1.03562872E-06 -3.21044520E-03 -3.74443960E-05
  7.60903018E-05  8.52042126E-04  2.31675358E-08 -3.20081241E-03  2.23531674E-04
 -1.45653558E-05 -8.79243828E-06 -1.40799766E-06 -4.79972353E-06  1.49837475E-05
  6.64728184E-06 -8.32884957E-06 -3.17046551E-03 -2.91060789E-06  7.00923118E-05
 -7.79729190E-04 -6.55715904E-07  9.42275989E-04 -2.56320332E-04  2.32823081E-06
  5.51985994E-06  1.54873042E-06  4.34147730E-06  3.90931782E-06 -1.39843569E-05
 -8.40915671E-06  1.15282636E-03 -6.62573694E-05  1.13116371E-05  5.36366728E-04
  9.96168001E-06  6.49216755E-04  3.16451608E-04 -1.53380861E-06  1.91816491E-06
  2.05162233E-06  6.64360613E-06 -2.24000231E-05  9.83651874E-06  5.82842286E-06
  2.54270127E-03  1.92808697E-04 -5.38115030E-05  1.72525070E-04  2.68411948E-05
 -6.14747119E-04 -3.41243801E-05  3.21412211E-05 -3.67114869E-06  1.12538343E-06
  3.26976294E-06  4.94401918E-06 -5.34492811E-06  1.40649103E-07  8.00873454E-04
  2.53643295E-05 -6.85092849E-05  4.08686299E-04  1.08190282E-05  7.10742941E-04
 -3.42420232E-04 -2.34481142E-06 -4.33554793E-06 -3.85048419E-07 -1.49493587E-06
  6.86078433E-06  1.68071202E-06  1.08129219E-05 -3.77527069E-03  9.63229086E-05
  1.31082263E-05 -9.32172368E-04 -3.45662367E-06  8.68717021E-04  4.04974971E-04
 -4.55642503E-06 -8.21997226E-06  3.24496316E-06  1.09081253E-05 -2.01803343E-05
  1.15156754E-06  2.04758197E-05  2.86046710E-02 -2.06412427E-06 -1.68459111E-05
  1.17363436E-03  1.44107857E-06 -2.09231796E-03 -1.17908824E-03  1.65501109E-06
  4.93979616E-06 -1.19884883E-05 -4.30047181E-05  9.73775469E-05  9.16897363E-05
 -2.29975730E-05 -1.46882211E-03  2.50540938E-05 -1.08113536E-06 -7.04822109E-04
 -1.02189581E-05 -3.38520512E-04 -9.07817421E-07 -3.39199210E-05 -3.51882597E-06
 -8.66963723E-05 -3.05013473E-05  2.32723084E-05  4.23095631E-05 -1.22963429E-04
 -1.10503892E-04 -3.83588991E-05  2.52836426E-05 -4.16555327E-05 -1.22336042E-04
 -2.54953325E-06 -9.03826160E-06  4.03981795E-05 -1.96315920E-05 -1.29456668E-05
  2.53013599E-02 -4.22200250E-06 -5.30133532E-06  1.12447812E-02 -1.68577881E-06
  1.66654111E-03 -2.94876634E-06 -1.04379310E-05  3.16321206E-05  1.30169694E-05
 -1.50880520E-05  7.22939710E-03 -1.74971553E-06 -2.19213360E-04  1.12681607E-03
 -1.27879403E-05 -4.82792328E-03  1.36042041E-03 -2.32151365E-05 -9.85924322E-08
 -2.86827887E-06 -1.08284785E-05  4.12424596E-05 -2.38369917E-06  1.86228879E-05
 -1.13211002E-03  1.86193709E-04 -1.06674395E-04  2.53003590E-04  1.66496470E-07
  3.00274879E-06  1.31400048E-03 -1.16878196E-05  1.29928565E-06 -1.62780520E-06
 -5.36833098E-06 -4.70874357E-06 -7.74729475E-06 -8.31628948E-06 -3.14242360E-03
  2.97908181E-04 -1.40727429E-05  1.80872154E-04 -3.56688265E-05  9.51530637E-05
 -6.46768856E-05  2.95889191E-05  2.61809294E-05 -7.52991160E-06 -2.59594276E-05
  9.44590307E-05  8.94281045E-05 -4.80972761E-06 -1.19983773E-03 -3.79426065E-04
  1.97612225E-04 -1.09131229E-03 -2.64916625E-05  4.61013360E-04  1.36150149E-04
 -5.49797557E-06 -6.02887909E-06 -1.81911122E-06 -6.31748374E-06  2.55622263E-06
 -2.47868414E-05  1.13941158E-05 -2.45364506E-03 -3.67459374E-05  2.62169837E-04
 -3.43207698E-05 -3.55517221E-05  7.74319893E-05 -3.90044236E-05  3.62176739E-05
 -3.31070351E-05 -1.97114568E-06 -8.21794559E-06  2.99757872E-05  1.72017682E-05
  7.98584936E-06 -1.58063152E-03 -1.75459041E-04 -1.76329473E-04 -1.19197111E-04
  6.47198179E-06 -2.54274472E-05 -5.87979371E-04 -3.81267252E-06 -7.60392413E-06
  2.23395050E-06  7.62717583E-06 -1.65594469E-05  2.06970017E-05  5.40187644E-05
  4.81675570E-02 -9.35563997E-07  2.62975685E-05  4.37445098E-03 -1.90247890E-06
 -1.03454327E-03 -5.50501548E-03  6.33599440E-06 -2.95745166E-05  2.52595520E-05
  9.26365447E-05 -2.18236920E-04 -2.11777926E-04  6.49144463E-06  2.82874015E-03
 -1.16433977E-04 -1.56294743E-05  1.73001616E-03  8.02347373E-05  4.51689356E-05
  7.05105437E-09 -1.00627085E-05 -1.74805614E-06  9.15571342E-05 -4.19509292E-05
  3.07526788E-05 -4.06246150E-05  1.04741409E-04  1.05692038E-04 -2.53348946E-05
  3.78774804E-05  3.08677195E-05  7.93967028E-05  4.81092894E-06  1.69225246E-05
 -6.77326487E-05  4.78179692E-07 -2.28617890E-05  5.01067879E-02 -1.25816142E-05
 -2.01163105E-05  2.11739167E-02  6.70221490E-06  2.58874074E-03  4.70678549E-03
  2.57108426E-04  7.58561422E-04  1.04769833E-04 -1.26838196E-02 -2.19797171E-03
 -4.55455935E-06 -2.71955471E-02 -2.42459466E-02 -1.06868934E-04 -2.27975097E-03
 -1.66033113E-07 -1.04764314E-05 -4.32295554E-03  8.39392274E-04  1.04118056E-03
  3.37932150E-03 -9.05516789E-03 -4.96231772E-03 -5.74748326E-03  2.30662669E-06
  1.50841522E-02 -1.56509101E-02  1.50546571E-04  8.69881505E-04  1.04342017E-05
 -5.90407676E-06 -3.85282388E-03  4.20762178E-03  5.95995234E-04  1.97571528E-03
 -4.93129469E-03  5.17869373E-03  2.68002461E-04  1.89681386E-05  7.15263806E-03
  6.38352462E-03 -3.90049333E-04  1.45791020E-03 -8.71008213E-05 -9.61219024E-05
 -1.44993858E-03  1.01139216E-03 -1.90199809E-05 -1.44867664E-04  1.71752935E-03
 -1.17557866E-03 -1.29069953E-04  4.13132938E-05 -1.81661324E-02  1.89589431E-02
  8.63092530E-04  2.35880847E-03  9.88228550E-05  1.80328742E-06 -1.58778946E-03
 -2.00604296E-03 -1.80561661E-04 -7.43575539E-04  4.00263571E-03 -2.32428003E-03
 -4.88950988E-04  1.78973386E-05 -2.76560772E-02  2.06969179E-02 -3.36774358E-04
  1.02891098E-03 -7.07438693E-05  7.81859296E-05  1.00906411E-03 -2.49512881E-03
  1.93549653E-04  7.38064591E-04 -4.29400639E-03  4.60032582E-03  5.80519968E-03
  8.36998068E-06 -3.01621231E-02 -3.37524417E-02  1.13273988E-04  2.90349587E-04
  9.73869901E-06 -1.67646581E-05 -8.89546374E-04 -3.28262880E-03  4.97877654E-03
  1.70108001E-02 -2.97980566E-02  4.02834228E-02  7.08297521E-03 -3.29817253E-05
 -1.71592964E-02 -4.82425065E-05  2.22845051E-05  8.68750828E-03  8.46706926E-06
  1.08978953E-05  1.01676058E-02 -1.27799492E-02  1.08405539E-04  4.10656246E-04
 -1.23066472E-03  8.91319659E-04  2.26746805E-05  7.84227263E-06 -1.29254063E-02
 -1.57705527E-03 -1.76691150E-03  8.86122479E-04 -4.45553818E-04  1.42290282E-05
  9.74787908E-04 -2.94017096E-04 -6.30891314E-04  1.21327054E-02 -1.91728609E-03
  2.42419810E-03 -2.10746299E-04 -4.23366684E-04  1.37902904E-02 -1.54977675E-03
 -2.88228945E-03 -4.83664060E-04  4.03268391E-03  1.44874678E-02 -6.19758421E-02
  2.39092273E-02 -4.72773333E-02  1.18801887E-05  5.15563411E-03 -3.36801068E-02
  6.63212170E-06  4.77589536E-03 -1.23558262E-07  2.02738325E-06  8.58114454E-03
 -1.38027237E-03 -4.68457230E-03  1.24850428E-02 -1.76207245E-02  2.25355425E-03
  4.40914887E-05  1.87133294E-02 -2.59843754E-02  6.28108747E-05 -3.58057241E-03
 -3.03348852E-07 -1.21266063E-06  1.82686388E-02  9.31299926E-03  4.93200116E-04
  1.61321051E-03 -4.33288274E-03  9.09992894E-03  8.95303038E-04 -1.85736441E-05
  7.05345977E-03 -1.91820560E-02 -9.96257842E-05 -1.42440962E-03 -2.04893205E-05
 -3.51739760E-06  4.49636515E-03 -6.72159288E-03 -8.35323356E-04 -2.84525092E-03
  8.67188438E-03 -3.98222986E-03  8.22876685E-04 -4.28605469E-05  1.05325665E-02
  1.54597655E-02  2.71375934E-04 -3.89135539E-04  3.68756781E-05  7.15317322E-05
 -1.09097150E-03 -1.35997896E-03 -3.90515822E-04 -1.39359924E-03  3.98997678E-03
 -8.33009368E-04 -5.70501750E-04  5.84581967E-05  1.47326263E-02  1.23688393E-02
 -5.91869453E-04 -3.35418234E-03 -1.05810556E-05 -5.54435886E-06 -1.28243906E-03
  2.67801293E-04 -5.27830246E-04 -1.83541575E-03  5.39910523E-03 -3.45177817E-03
 -9.38041867E-04 -4.12581942E-05 -1.00756490E-02 -2.74405045E-03  3.14340339E-04
 -1.42759858E-03  3.90048173E-05 -7.79082974E-05 -3.39285885E-04  2.07648921E-03
 -4.85599229E-04 -1.78642953E-03  7.18295389E-03  2.46481924E-03 -8.13492066E-04
 -1.77811940E-05 -1.94494303E-02  3.95530574E-03 -1.26699591E-04 -1.17767164E-04
 -1.66082905E-05 -1.99149615E-06  5.70703456E-03  7.18400078E-03 -7.36947021E-03
 -2.50520382E-02  4.67232886E-02  8.32063807E-03 -4.83994677E-02  5.49911534E-05
  1.19330370E-02  1.72634173E-02 -1.16474920E-06 -4.08665384E-03  8.15848120E-06
 -4.74031805E-06 -4.25958592E-03  6.23961880E-03 -1.59171661E-04 -5.77301578E-04
  1.42656952E-03 -2.18247760E-03  8.24354467E-05  2.46538553E-04  7.18710425E-03
 -1.95632106E-03  1.33044749E-03 -7.98061945E-04  3.06114471E-04 -5.67486670E-05
  7.03955728E-04  1.04064423E-04  1.79410514E-04 -9.30729067E-03  7.59795856E-04
 -2.22724368E-03  2.36566868E-04  3.14645597E-04 -7.66644653E-03  6.60167738E-04
  1.72274323E-03  1.32156545E-04 -9.21406344E-04 -2.89996452E-03  4.98527717E-03
  4.49997826E-02  4.07946811E-02 -5.16215581E-05  2.33253529E-02  2.56784380E-02
 -2.79750563E-05 -5.29074930E-03 -4.10785828E-06 -1.17734485E-06 -3.45007173E-03
  9.97881736E-03 -4.35865118E-04 -1.40164819E-03  2.84467785E-03 -3.58172204E-03
 -1.02155269E-04  3.81408523E-06 -2.85170727E-02  1.25384461E-01 -8.39920113E-05
 -6.62396657E-03  1.49665498E-05  5.88472424E-06 -4.42337244E-03 -5.87592866E-03
  1.79298719E-05  1.49117076E-04 -2.91180483E-03  1.55135635E-03 -1.99283477E-03
 -2.37770886E-06 -1.00325048E-01  8.07679432E-02  8.57044750E-05  2.66095429E-03
  9.47789245E-06  1.90001632E-05  3.24738318E-04  4.34462502E-03 -9.39847208E-05
 -3.71294753E-04  2.86840618E-03 -5.30090329E-04  3.17923420E-04  8.94433155E-06
 -9.54878730E-02 -6.47551795E-02 -2.25241292E-04  2.83422194E-04 -2.39772412E-05
 -2.44742836E-05  1.79011301E-03  2.67240719E-03 -9.30764582E-05 -3.45558328E-04
  1.71605966E-03 -6.09826939E-04  2.42054797E-04  3.71418187E-05 -1.67241336E-02
 -9.86939888E-02  8.00526371E-04  1.59846477E-03  1.06869244E-04  2.21439079E-05
 -1.23461819E-03  2.21224417E-03 -3.11876485E-06 -1.76237306E-06  4.55276458E-04
  3.06124372E-04 -3.46040188E-04  1.00448523E-05  6.97158457E-02 -5.57913733E-02
 -5.06000628E-04  1.31617518E-03 -1.09942094E-04  1.14170196E-04 -1.84196815E-04
 -1.05665932E-03 -2.33319463E-04 -8.16995529E-04  3.75062677E-03 -4.65504356E-04
  2.04943510E-03 -2.42342160E-06  8.30258945E-02  7.30733736E-02  2.46377080E-04
 -3.21289215E-03  1.25202054E-05  4.48922368E-05 -8.58594981E-03 -4.27579301E-03
  6.73945703E-04  2.20438018E-03  1.98917437E-03  9.25546442E-03 -1.15884823E-02
  7.56542388E-06 -8.36260891E-03 -2.76826122E-02  4.59483346E-05  1.50411061E-02
 -3.40832513E-06  3.36702944E-05  2.11039232E-02  1.81524927E-02  8.26399236E-06
  5.34186736E-05 -5.47697120E-04  1.96708664E-04 -2.01722488E-04  3.92200372E-05
 -1.20014793E-02  1.24623678E-02 -1.62180865E-03  6.76331565E-04 -3.80260550E-04
  2.45918883E-04  1.06714744E-03  5.78470582E-04 -4.62880858E-05  1.78577350E-02
 -1.73807637E-03  4.23957230E-03 -8.75594704E-04 -7.66334414E-04  5.77408583E-03
 -1.82859432E-03 -5.25151923E-04  2.38433913E-04 -2.08924925E-04 -5.92131217E-04
 -1.46139073E-04 -5.95927555E-03  6.26601916E-03 -4.24354340E-06  4.60093370E-03
 -4.32699215E-04 -2.45314771E-07 -4.09094355E-03  2.95451940E-06 -8.36937075E-06
  1.09748268E-03 -7.91513862E-04  1.92142411E-01 -1.44281798E-03 -4.88822410E-03
  1.09744718E-02 -1.27737914E-02 -1.45663535E-04  1.41762014E-05 -1.13477002E-01
  4.38011884E-01 -3.06172151E-04 -2.37317686E-02  5.33523748E-05  2.12988533E-05
 -1.54560113E-02 -2.12146110E-02  8.35018926E-05  5.45514166E-04 -1.01744842E-02
  5.46212966E-03 -7.12338359E-03 -9.76730601E-06 -3.47806540E-01  2.87788178E-01
  3.12112802E-04  9.72382272E-03  3.28436802E-05  6.82439477E-05  4.54197746E-04
  1.58759465E-02 -3.14878949E-04 -1.36057620E-03  1.05529676E-02 -1.90297116E-03
  1.23330983E-03  3.35209440E-05 -3.33483169E-01 -2.27508128E-01 -8.48277003E-04
  8.50577033E-04 -1.00692218E-04 -1.02719030E-04  6.59618049E-03  9.69246641E-03
 -3.31337892E-04 -1.28258596E-03  6.41277457E-03 -2.32285516E-03  8.52610398E-04
  1.37686012E-04 -6.09941911E-02 -3.41977441E-01  2.95336564E-03  5.97578790E-03
  3.91379975E-04  8.13483473E-05 -4.55003879E-03  7.71975466E-03  1.21786645E-05
 -9.53955534E-06  1.85300744E-03  1.05135844E-03 -1.31752742E-03  3.61640087E-05
  2.38740987E-01 -1.93426942E-01 -1.82737440E-03  4.35061666E-03 -4.00410620E-04
  4.16345576E-04 -3.06957643E-04 -3.64069380E-03 -7.80387378E-04 -2.89898897E-03
  1.39649170E-02 -1.96610714E-03  7.34946235E-03 -8.62874611E-06  2.89237483E-01
  2.51826682E-01  8.74522527E-04 -1.10016795E-02  4.52935425E-05  1.59220891E-04
 -3.16609976E-02 -1.53720340E-02  2.27901108E-03  7.31134166E-03  7.95436812E-03
  3.20742555E-02 -3.95658421E-02  2.57901259E-05 -3.69915081E-02 -9.22549547E-02
  1.63660238E-04  5.18637464E-02 -9.22856222E-06  1.16003732E-04  7.33289072E-02
  6.11667710E-02  1.90840927E-05  1.74775724E-04 -1.98670525E-03  7.15060920E-04
 -6.97011601E-04  1.50475840E-04 -4.41674652E-02  4.30405263E-02 -5.94959650E-03
  2.47326310E-03 -1.39778522E-03  8.32113158E-04  4.06796511E-03  2.03077454E-03
 -2.23387194E-04  6.41763065E-02 -6.33141184E-03  1.51761598E-02 -3.10806446E-03
 -2.71181780E-03  2.24086200E-02 -6.71018774E-03 -2.27457386E-03  7.69409218E-04
 -5.92207611E-04 -1.75261845E-03 -9.68816669E-04 -2.08487110E-02  2.21998222E-02
 -1.52435745E-05  1.60234532E-02 -1.86800569E-03 -1.75921188E-06 -1.41181580E-02
  1.00975474E-05 -2.97983099E-05  4.05409376E-03 -2.72616652E-03  4.60529800E-01
  1.11737014E+00  5.28309846E-03  1.98856761E-02 -5.04232154E-02  6.22353026E-02
 -6.27634925E-03 -6.73132278E-05  5.98275102E-01 -1.82918238E+00  1.43750973E-03
  1.06528599E-01 -2.36252587E-04 -9.37011406E-05  5.85597340E-02  9.73171777E-02
 -9.39590633E-04 -3.93025663E-03  4.60605413E-02 -2.50785289E-02  3.63466879E-02
  5.04604187E-05  1.43437430E+00 -1.24329108E+00 -1.47788879E-03 -4.59270079E-02
 -1.39564168E-04 -3.00260726E-04  3.93207951E-03 -7.30298008E-02  1.30080953E-03
  6.39333245E-03 -4.85122846E-02  8.37180397E-03 -6.68080972E-03 -1.60177922E-04
  1.39407392E+00  9.59636528E-01  4.21800895E-03 -2.89707363E-03  6.01352447E-04
  6.07264996E-04 -2.95909324E-02 -4.36332061E-02  1.54514651E-03  6.29300074E-03
 -3.10369737E-02  1.23290312E-02 -3.84528070E-03 -6.55622421E-04  2.82663959E-01
  1.40181710E+00 -1.40392381E-02 -2.91474403E-02 -1.85406689E-03 -3.79320297E-04
  2.23552629E-02 -3.20821521E-02 -2.48856076E-04 -5.98255730E-05 -9.12725007E-03
 -5.60680218E-03  6.86411065E-03 -1.56054391E-04 -9.48562530E-01  7.91639258E-01
  8.29268796E-03 -1.65636624E-02  1.84002820E-03 -1.91708403E-03 -1.30461009E-03
  1.52593954E-02  2.99675158E-03  1.24760143E-02 -6.55443677E-02  1.32073916E-02
 -3.51225359E-02  3.47138972E-05 -1.19246499E+00 -1.01905584E+00 -3.83361432E-03
  4.31073516E-02 -2.10792451E-04 -6.83964627E-04  1.46385593E-01  6.83093843E-02
 -5.18820767E-03 -1.44957296E-02 -6.84380493E-02 -1.22944728E-01  1.33236715E-01
 -8.75450923E-05  2.20115576E-01  3.52889469E-01 -7.32301775E-04 -2.14488189E-01
  1.03610830E-05 -4.73563032E-04 -3.06449802E-01 -2.32272137E-01 -1.04465577E-04
 -9.68442252E-04  9.55079459E-03 -4.06799233E-03  2.93675560E-03 -7.41644133E-04
  2.08343733E-01 -1.75346337E-01  2.79901137E-02 -1.16249544E-02  6.56444520E-03
 -3.23414042E-03 -2.02885150E-02 -8.43155485E-03  1.51405858E-03 -2.88424582E-01
  2.94646140E-02 -6.73733451E-02  1.35396716E-02  1.17759806E-02 -1.17923512E-01
  3.14590366E-02  1.42833216E-02 -2.52717262E-03 -1.44230985E-04 -9.63301687E-04
  3.70944826E-02  8.83107985E-02 -1.03174730E-01  6.54705438E-05 -6.26736844E-02
  9.10691035E-03  1.70914606E-05  5.76493068E-02 -3.92116117E-05  1.30795100E-04
 -1.73078796E-02  1.07235859E-02 -1.36831828E-01 -5.00813263E-01  2.30321915E+00
  9.73765559E-03  3.39580726E-02 -1.09993610E-01  1.38690850E-01 -3.74912970E-02
  6.34956309E-05  1.00411517E-01  1.82556886E-01 -6.81871880E-05  1.67177916E-02
  7.45048898E-05 -5.36682901E-06 -7.91093865E-03 -4.11825703E-02 -4.01729509E-03
 -1.43824331E-02  5.29649462E-02 -3.88735753E-02  4.34006502E-02  9.78984666E-06
 -1.91150450E-01  1.65598498E-01  6.77883716E-05  1.93481277E-03  2.19217968E-05
  4.86069325E-05 -8.51186535E-03  3.75040066E-03  1.62229718E-03  5.60741025E-03
 -1.66685697E-02  2.37786592E-02 -3.04577529E-03 -4.08881022E-05 -1.25088330E-01
 -1.31042854E-01 -2.64277995E-04 -1.33352357E-03  2.43524767E-05 -7.36248155E-06
  3.62057297E-03 -3.73234158E-03  7.27531678E-04  2.57995363E-03 -1.02563196E-02
  6.69526798E-03 -1.78598710E-03  3.57993809E-06 -2.16087097E-02 -1.59189396E-01
  9.06500515E-04  3.02088475E-03  8.38631956E-05  2.84601205E-05  1.81246633E-03
 -9.49529464E-04 -1.16951385E-03 -4.13503544E-03  1.38297487E-02 -1.23149246E-02
 -9.81628656E-04  1.00048816E-04  1.36441335E-01 -9.56567691E-02 -7.69282695E-04
 -2.02692599E-03 -1.36141955E-04  1.54323048E-04 -3.04075751E-03  4.52500402E-03
  3.79320338E-03  1.30202793E-02 -3.22039414E-02  4.15474978E-02 -1.11517999E-02
 -1.27403101E-05  1.74989102E-01  2.09440342E-01  5.94889803E-04  2.78701356E-03
  2.44421941E-05  9.31168784E-05 -4.58558050E-03 -2.35838375E-02 -1.23114068E-02
 -4.30881026E-02  8.89887049E-02 -7.00000373E-02  2.29529415E-01 -1.61124601E-04
  5.37296906E-02 -5.14003944E-02  1.30501776E-04  8.70899576E-03 -4.16688361E-05
 -1.04856698E-04 -1.77998239E-01  9.70700872E-02 -7.74858955E-05 -2.40247162E-04
  5.62856259E-05 -2.83509917E-03  1.24901683E-03  6.72608110E-05 -1.37511966E-02
  1.89300754E-02 -1.81801942E-03  1.29627621E-03 -4.96594554E-04  3.18528418E-04
  4.59095817E-04  1.69559453E-03 -1.07010882E-03  1.88214204E-02 -7.36664475E-04
  5.86733416E-03 -1.03312501E-03  2.35227957E-04  6.53688035E-03 -3.09940521E-03
  2.04243851E-04  4.51453107E-04 -5.95259983E-03 -2.08246446E-02  8.81872983E-02
  3.42245639E-02  7.64559890E-02 -1.29770340E-05 -1.78336143E-02  1.20626489E-01
 -9.34090936E-05 -1.67663031E-02 -5.97283502E-06 -3.72468554E-05 -2.43144533E-02
 -9.25079680E-03  1.17379378E-02  4.19263898E-02 -2.02520716E-01  1.01036681E+00
 -6.73286731E-04 -2.11900516E-03  2.19730738E-02 -2.63740443E-02  8.80083113E-03
 -6.86577631E-05  9.57744818E-02 -4.86887336E-01  2.95018500E-04  2.18256899E-02
 -1.00222895E-04 -9.79016852E-05 -4.74391790E-03  8.97146558E-02  3.12999641E-04
  1.09805791E-03 -1.00186213E-02  6.39095992E-03 -9.38245267E-03 -9.09258212E-06
  2.43967805E-01 -1.04369773E-01 -2.30156540E-04 -2.56999863E-02 -7.23175768E-06
 -5.39790854E-05 -1.08202846E-02 -1.33945165E-02 -5.37613356E-06  1.74520917E-04
 -2.50580359E-03 -2.54689787E-03  1.54436967E-03 -2.17176486E-05  2.49793911E-01
  1.26994752E-01  3.89624586E-04  7.45830182E-03  9.81088164E-05  5.59030043E-05
 -1.84367468E-03  4.24476554E-03  3.71549080E-04  1.34093562E-03 -5.24421182E-03
  2.08248108E-03 -8.95658567E-03 -4.06914891E-05  3.46940362E-02  2.65588062E-01
 -1.80931174E-03 -4.55980943E-03 -3.53807022E-04 -1.16436300E-04  4.16746026E-03
 -3.38015527E-03 -1.07383600E-03 -3.69292936E-03  1.00812558E-02 -1.33055657E-02
  2.72304053E-03  1.20226088E-04 -1.86835098E-01  1.17290599E-01  1.25808000E-03
 -7.33151412E-03  2.09466118E-04 -2.19727826E-04 -1.91602970E-03  1.43478829E-02
  2.27369102E-03  8.16723356E-03 -3.09287193E-02  1.93104180E-02 -2.82298153E-02
 -1.14218621E-04 -2.16434490E-01 -1.08335043E-01 -5.70449622E-04  1.45330999E-02
  2.50083485E-06 -1.38064804E-04  4.04236269E-02  1.39090149E-02  2.62291577E-02
  9.31025089E-02 -2.09435543E-01  2.38150677E-01 -3.21670821E-01  4.61461017E-04
 -4.56231145E-03  2.27709240E-01 -1.89162165E-04 -3.36970134E-02 -1.12841889E-04
  9.47544494E-06 -8.00121348E-02  1.29657159E-01 -1.93600526E-04 -7.76171455E-04
  2.88585370E-03 -2.48947711E-03  6.76034323E-04  1.70452749E-05  2.40313978E-02
 -4.07920189E-02  3.66711855E-03 -1.23698490E-03  6.96243886E-04 -1.12389432E-03
 -1.65497673E-03  1.47474857E-03 -1.07824500E-03 -4.67459937E-02  5.95668306E-03
 -9.95168937E-03  2.07981834E-03  2.46010054E-03 -3.88757674E-03  1.67126998E-03
 -2.81385545E-04 -9.16316061E-04 -6.27365470E-03 -2.22268254E-02  1.03297711E-01
 -7.65784019E-02  1.84311395E-01 -3.19341018E-04 -9.32862248E-03  1.22239026E-01
 -1.39209777E-04 -4.43367174E-03  1.04068946E-05  1.24762093E-05  5.99922651E-03
  1.15704570E-02 -1.87646924E-02 -6.66859655E-02  3.22057001E-01  1.96437080E-01
  7.61521137E-01 -5.59560948E-06 -2.07829203E-05  9.26239335E-05  5.34827314E-05
 -1.63401161E-05 -1.47298017E-01 -8.27977898E-04  3.81442348E-03  1.23564274E-02
  1.27929605E-04 -3.88390345E-02 -3.66209697E-02 -4.14013638E-05 -1.24818835E-04
 -3.73547840E-06 -1.95326101E-05  9.14808793E-05 -2.40843337E-05 -6.90978342E-05
 -7.20476351E-02 -1.67677660E-03  1.77068665E-03 -2.53818782E-02 -2.23556939E-04
  2.50791233E-02 -2.66445400E-02  1.42054582E-04  1.76187672E-05  8.96449026E-06
  1.14810726E-05  6.24114701E-04  8.19592171E-05  1.32440866E-04  7.31103287E-02
 -5.60608976E-03  1.77463075E-03  9.31675216E-03  7.05050489E-04  1.56249517E-02
  9.58913234E-03 -5.21909940E-04 -3.50879641E-04  1.02351241E-04  3.41919088E-04
 -1.35172721E-03 -1.14445058E-03  6.68724504E-07  7.69757080E-02  1.21736641E-02
 -3.58051739E-03  1.83842238E-02  8.46834650E-04 -2.35210509E-02 -4.92037138E-03
  9.49416481E-04  1.47612433E-04  1.05248069E-05  1.82792772E-05  5.63520342E-04
  2.62504845E-05 -9.05297542E-05  4.42839827E-02  4.64490015E-04 -5.61382747E-03
  1.29873388E-02  6.88144980E-04  1.75455039E-02 -7.00268963E-03 -6.03612414E-04
  2.90064031E-04  2.61708319E-06  8.98011586E-07  8.45216828E-05  2.81726059E-05
  8.99534653E-05 -7.18378607E-02  4.64019815E-03  1.59553950E-03 -1.72400788E-02
 -2.94939254E-04  2.43094500E-02  7.75921757E-03  1.53755620E-04  6.20325715E-06
 -1.90277350E-05 -6.63925921E-05  1.26588556E-04 -2.43580633E-04  4.26251935E-04
  3.04537713E-01  2.21983533E-04 -4.79980370E-04 -9.93986096E-03 -1.50291006E-04
 -4.52713210E-02  1.41788242E-01 -7.71127809E-05 -1.69400311E-04 -7.27897280E-04
 -2.63002079E-03  6.01063642E-03  5.26930762E-03  1.34696860E-04 -8.20540245E-02
  3.18061646E-03  3.28769681E-04 -4.36211203E-02 -1.61001890E-03 -9.36723752E-03
  2.11058989E-05 -7.02084663E-04  8.05607952E-05 -4.00839586E-03 -1.16080687E-03
  2.91126354E-04  1.52549067E-03 -4.97853005E-03 -4.14141249E-03 -1.42174745E-03
  1.02065688E-04 -1.32300429E-03 -4.27485973E-03  1.27810308E-06  4.54658405E-06
 -3.29930655E-05  1.23956338E-04 -2.31995088E-04 -2.97763351E-01 -6.02711927E-06
 -8.05960444E-05 -9.56105769E-02  3.06058076E-06  1.56403353E-02  4.99734474E-03
 -2.37421581E-05 -3.16712431E-05  1.77076572E-05  6.25306290E-05 -2.87997951E-04
 -1.49681054E-04  9.82627527E-05  8.64348519E-01  2.94629716E-03  1.02000470E-02
 -3.12806753E-02  3.09865364E-02 -3.43073537E-02  9.89157293E-05  6.01637246E-02
 -1.33169161E-01 -1.20403122E-06  7.90629907E-03  3.58465328E-06 -2.26931982E-05
  9.03353520E-03 -1.71954432E-02 -2.54566226E-03 -8.96245526E-03  3.47200794E-02
 -2.58309427E-02  2.48484849E-02 -2.51607692E-05  8.15783656E-02 -8.08067079E-02
  2.10690318E-05 -3.67778680E-03 -7.22968735E-06 -8.92758166E-06 -5.67818478E-03
 -8.91858951E-03  8.66582620E-04  3.10589473E-03 -1.10524233E-02  1.23010321E-02
 -4.50715775E-03 -6.91683821E-05  1.01937734E-01  6.60188870E-02 -9.48104564E-05
 -4.60393797E-04 -4.21367096E-05 -4.52324340E-05 -6.74737250E-04 -7.69894934E-03
  4.75048528E-04  1.68958679E-03 -5.40481756E-03  4.26809554E-03  7.56358450E-04
  9.46056951E-05  2.00123740E-03  1.10058528E-01 -1.66267739E-04  1.15071224E-03
  1.93723279E-06 -4.24641796E-05  5.47546910E-04 -3.68184361E-03  4.39430728E-04
  1.38356323E-03 -1.87867650E-03 -2.83071930E-03 -1.63230081E-03 -1.46422200E-05
 -8.02622245E-02  7.23494002E-02  2.16742078E-04  5.56065885E-04  4.89794315E-05
 -6.48253651E-05 -2.00917987E-03 -1.21862559E-03  3.81470784E-03  1.29117471E-02
 -3.75758507E-02  1.79137182E-02  1.35878220E-02  4.01695969E-05 -8.81084103E-02
 -5.30437015E-02 -2.62324311E-05  7.56889995E-03 -1.85400802E-05 -4.89043509E-05
  9.08956923E-03 -6.66198367E-03 -7.39140227E-03 -2.51188657E-02  4.48472086E-02
 -8.66293441E-03  1.58020204E-01 -5.85251270E-05  2.89318876E-02  4.22825845E-03
  4.51125687E-05 -6.53224519E-03  1.63297681E-05 -6.26417249E-05 -7.39503993E-02
 -1.02072044E-03  6.43818967E-05  2.26105594E-04 -4.18032079E-04 -1.66050383E-03
  1.29306390E-03  3.48160548E-04  1.14583669E-03 -1.36554812E-02  3.08846692E-04
  2.52924200E-04 -5.31461471E-05 -2.37918470E-04 -6.52389073E-04 -6.11392061E-04
 -1.27193759E-03 -8.78987115E-03  3.95835598E-04 -2.48348847E-03  8.28001763E-04
  5.02250621E-04  6.89110097E-03 -4.84082823E-05 -1.85638507E-03 -5.98202833E-04
  4.60016422E-03  1.60201061E-02 -6.26594930E-02 -1.77441119E-02  9.18298261E-03
 -6.13209603E-05 -3.95030403E-02  2.87489038E-02 -6.67415144E-05  4.09600554E-03
 -7.93504303E-06  1.69085758E-06 -7.98533098E-03 -6.56817138E-03 -7.41786283E-03
 -2.72282266E-02  1.15081682E-01  3.87477224E-01  7.20061703E-02 -9.38538852E-05
  1.77078186E-01 -3.40792592E-04 -8.16905765E-04  6.26847013E-03 -2.62259352E-02
  4.99087317E-03 -5.20441969E-07 -6.64870729E-02 -5.09833711E-02 -1.50926366E-04
 -3.00328544E-03 -2.98835592E-05 -4.49670331E-05 -1.97373121E-02  3.41842622E-02
  6.08063920E-04  2.30996030E-03 -1.54199094E-02  3.40207121E-03 -1.87339162E-02
 -3.01324280E-05 -3.55770380E-02  9.49239930E-02  2.24549778E-04 -5.97490587E-03
  1.61366246E-05  1.62876264E-05 -1.11583546E-02  9.18561413E-03  2.80144783E-04
  7.51002731E-04  1.42210956E-03  1.28779020E-03 -7.87645886E-04 -5.41230044E-06
 -3.46193619E-02 -4.89824196E-02 -7.74176094E-04  5.83008091E-03 -1.15953264E-04
 -1.59573767E-04  2.99137538E-03  1.02608669E-02  2.16862565E-04  6.26792973E-04
 -4.95411541E-05  2.39722497E-03 -6.08601473E-03  1.61756004E-04 -4.16330277E-02
 -1.54347581E-02  1.73206294E-03  4.58733760E-03  1.34875092E-04 -2.62328887E-05
  1.40747977E-04  1.80632832E-03  4.23071355E-04  9.20099176E-04  1.49286493E-03
 -8.05697200E-03  1.47102480E-03  9.63652207E-05 -5.07156714E-03 -1.45463857E-02
 -7.52300930E-04  1.57284290E-04 -2.06846838E-04  2.18249387E-04  2.67751779E-04
  2.22399919E-03  1.08763049E-03  4.05333759E-03 -1.53629515E-02  1.05125213E-02
 -2.76604816E-03 -5.11172703E-05  1.28725690E-02  4.00789462E-02  3.02635434E-04
  5.25048839E-03  3.05631478E-05 -1.25405085E-05  7.54987273E-05 -8.47349800E-03
  1.93071276E-02  6.69271849E-02 -1.27022254E-01  1.27055133E-01 -1.68322988E-01
  2.50341230E-04 -5.01877105E-02  7.63005006E-02  3.51566338E-05  1.89751323E-02
 -4.20810009E-05  8.00608864E-05  2.65706500E-02  9.08800159E-02 -2.68936574E-05
 -8.85666344E-06 -8.48908931E-04 -1.71089938E-03  3.80506726E-04  3.23806689E-04
 -2.81601794E-02 -1.63094902E-03 -3.54566921E-03  2.11547049E-03 -1.04383690E-03
 -1.96134226E-04  2.00666050E-03  2.00574849E-03 -2.24563562E-03  2.55792155E-02
 -2.67406290E-03  6.01616881E-03 -8.16327950E-04 -9.98631867E-04  2.86092570E-02
 -5.01560193E-03 -5.28269109E-03 -5.90234666E-04  4.39487252E-04  1.89099789E-03
 -9.20143321E-03 -1.20805926E-01  1.22160549E-01 -1.87330904E-04 -2.88374207E-02
  5.08022499E-02 -7.90418606E-05 -4.97682675E-03  1.11572298E-05 -8.16901556E-06
  7.44303047E-03 -1.50250802E-03  8.18013143E-03  3.14044342E-02 -1.39794421E-01
  6.84439199E-02  3.32914508E-01  3.53215550E-05  3.07969409E-03  1.93889414E-01
 -2.17628283E-06 -9.88525671E-06  5.37163539E-05  2.47218893E-05 -1.06215174E-05
 -7.56285761E-02 -2.79823907E-04  1.23527785E-03  5.96374994E-03  7.97441341E-05
 -1.74362180E-02 -1.49210110E-02 -7.09060479E-06 -3.54482869E-05 -3.49283552E-06
 -1.71964377E-05  8.34214655E-05 -1.38807108E-05 -2.40887394E-05 -3.10357993E-02
 -2.29223762E-04  4.58438154E-04 -1.14843063E-02 -1.50550849E-04  1.32240625E-02
 -1.26719973E-02  9.35409646E-05 -1.02840765E-05  2.16520174E-06 -2.64765101E-06
  3.62217662E-04  4.25167536E-05  8.97783874E-05  4.16218530E-02 -2.45033062E-03
  1.50531196E-03  5.43694121E-03  3.92912258E-04  7.56048965E-03  4.73289854E-03
 -3.05138588E-04 -2.04709411E-04  5.68416288E-05  1.90955394E-04 -7.69320267E-04
 -6.65955087E-04 -1.67128227E-05  4.08051379E-02  6.96366397E-03 -1.21083415E-03
  1.06284483E-02  4.43751616E-04 -1.29186193E-02 -2.48027917E-03  5.27563425E-04
  6.77763638E-05  3.67715518E-06  1.85514472E-06  3.39595832E-04 -3.14946513E-05
 -4.80998933E-05  2.60171166E-02 -4.14976168E-04 -2.77564411E-03  6.18369032E-03
  3.79101740E-04  8.87698712E-03 -3.75460999E-03 -3.26212683E-04  1.68980926E-04
 -6.62881312E-06 -2.75221765E-05  1.23338260E-04  3.57695923E-05  8.10906232E-05
 -3.53378400E-02  1.86704441E-03  4.87041713E-04 -8.94147123E-03 -1.71651212E-04
  1.23372876E-02  5.22033734E-03  1.24908783E-04  1.82947178E-05 -1.33275676E-05
 -4.53525251E-05  6.44704139E-05 -1.24973497E-04  2.40584483E-04  1.33971514E-01
  1.75694767E-04 -1.47508010E-04 -6.80223356E-03 -1.07342081E-04 -2.23031917E-02
  5.55376965E-02 -9.00895768E-05 -1.24108261E-04 -4.08438692E-04 -1.47493734E-03
  3.37003616E-03  2.88903437E-03  1.12024249E-04 -4.61134770E-02  1.93318877E-03
  1.14189803E-04 -2.45490867E-02 -9.52383285E-04 -4.94252085E-03  1.23608220E-05
 -3.46974662E-04  4.10493970E-05 -2.24820729E-03 -7.62643502E-04  1.15597054E-04
  7.70854393E-04 -2.62608219E-03 -2.27156704E-03 -8.28734303E-04  2.98142458E-05
 -6.96971318E-04 -2.32170299E-03  3.15561372E-08 -6.75693080E-07  1.01382121E-05
  7.92604981E-05 -1.35151606E-04 -9.56031138E-02 -1.51724764E-05 -3.43202327E-05
 -2.74075508E-02  1.17991162E-05  7.46545410E-03  3.50952059E-03 -1.44436158E-05
 -1.37357212E-05 -1.91510164E-05 -7.07807145E-05  3.20561582E-04 -9.85529091E-05
  5.05116417E-05  3.59545480E-01 -2.01523536E-05 -4.53257310E-05  1.50894118E-01
 -9.29157906E-04 -2.86768154E-03  7.18511976E-03  6.74708362E-03  9.71433392E-04
 -2.49451997E-07 -1.26378432E-02  9.20391495E-02  1.91245490E-05 -5.66760282E-04
 -1.83132014E-06  9.54060236E-06 -9.57705847E-03  2.74282718E-05 -1.23273213E-04
 -4.41203889E-04 -1.20632368E-03 -1.42583057E-03  9.79640228E-04 -1.32433266E-05
 -6.74980281E-02  7.24948504E-02 -4.27816147E-05  4.20673364E-04 -1.73436660E-06
  1.74488201E-05  3.16215238E-04  2.25292543E-03 -9.51081760E-06 -1.06381625E-04
  9.19684804E-04  1.07398619E-03 -7.09719530E-04 -1.09127236E-05 -6.61346922E-02
 -5.21670148E-02  6.64684860E-05 -3.52693775E-04  3.77030883E-05  2.99341395E-05
  1.72189901E-03  2.20507805E-03 -1.03348361E-04 -3.59177288E-04  1.02444125E-03
  5.65831384E-04  1.62768894E-04  1.09170701E-06 -2.16399850E-03 -7.70400791E-02
  3.63895216E-05  1.01318914E-04 -1.39032745E-05  2.06389547E-05  3.56958095E-04
  1.69753988E-03 -3.19029747E-05 -1.53546272E-04  2.05176237E-04  1.21312447E-03
  1.60546260E-04  3.32750587E-06  6.30907540E-02 -4.92049674E-02 -1.49242167E-04
 -2.03780533E-04 -3.70396421E-05  4.51526611E-05 -5.01303174E-05  1.03985806E-03
 -5.37125934E-04 -1.77705191E-03  5.12818692E-03 -2.19258324E-03 -6.19905049E-03
 -1.84483332E-05  7.60815568E-02  6.16414820E-02  7.89915009E-05 -3.16040468E-03
  1.30029085E-06  3.47660582E-05 -6.07440769E-03 -1.02908908E-03  4.29637743E-03
  1.46604997E-02 -2.73901200E-02  8.96047981E-03 -3.66229637E-02  8.79582901E-05
 -7.28395850E-03 -9.10996238E-03  4.35372355E-06  2.56740862E-03 -1.34873091E-05
  2.05458786E-05  7.33555256E-03  2.10482512E-02 -4.74409317E-05 -1.51859499E-04
  1.66977557E-04 -6.94746433E-04 -2.39658716E-04 -1.31560299E-07 -1.37274716E-03
  9.29123566E-03 -1.11643131E-04 -7.32910467E-05 -7.08827237E-05  1.55021831E-04
  1.63073464E-04  5.85797646E-04  1.75395544E-04  5.19528093E-03  5.67363043E-05
  1.75231421E-03 -4.47653162E-04 -4.07613892E-04 -3.68079085E-03 -2.76405625E-04
  1.19784563E-03  4.34316873E-04 -4.09034283E-03 -1.41159422E-02  5.76388609E-02
 -1.67619578E-02  4.41421691E-03  8.96190920E-06  4.09536917E-03  4.96132364E-03
  9.46709160E-06 -3.51754870E-03  6.55985409E-06 -9.85004705E-07  7.00805387E-04
 -7.65549159E-04  5.38894248E-03  1.90398785E-02 -7.80951881E-02 -1.06427489E-02
  2.99525702E-02  5.11199569E-05 -1.62270635E-02  2.62452852E-02  3.48999317E-06
  7.95037118E-03  5.76764138E-07  1.39359118E-06 -7.32952650E-07 -1.50765564E-05
 -2.23515355E-05 -3.20240193E-03 -5.39737119E-06 -4.36830933E-05  8.53437685E-04
 -2.00898850E-07 -3.20661352E-03 -2.28936015E-04  3.87460277E-06 -9.11079395E-06
 -1.84511069E-06 -6.56145825E-06  2.55617588E-05  3.31678850E-07  4.85142815E-06
 -3.77371925E-03  8.07763575E-05 -3.79156035E-05 -9.35150704E-04 -4.40640244E-06
  8.68261278E-04 -4.05111765E-04  3.99876215E-06 -3.52525191E-06  1.66438046E-07
 -9.80503174E-08  1.46355387E-05 -6.82487346E-06  1.41270813E-06  7.98155329E-04
  2.02655915E-05  8.64870784E-05  4.10795956E-04  7.99473732E-06  7.10485558E-04
  3.42290602E-04 -2.58758794E-06 -1.05293576E-06  1.47471966E-06  4.53054071E-06
 -1.55791516E-05  9.84051997E-06 -7.21594243E-06  2.53943219E-03  2.12465501E-04
  4.15989408E-05  1.69864038E-04  2.26396841E-05 -6.13577260E-04  3.39104283E-05
  3.34509134E-05  4.33067565E-06  1.70784954E-06  4.68482922E-06  3.89915310E-06
 -2.27448507E-05  4.74288074E-06  1.14343462E-03 -4.65036001E-05 -7.34375632E-06
  5.34053134E-04  9.13456664E-06  6.49856391E-04 -3.16401313E-04 -2.01629151E-06
 -7.96354586E-06 -5.24607871E-07 -1.90728927E-06  7.36685874E-06  1.67346821E-05
  3.68295473E-05 -3.17884106E-03  1.03816804E-05 -7.32521710E-05 -7.76458867E-04
 -7.70060271E-07  9.41681139E-04  2.53992140E-04  8.67230362E-06 -5.46980893E-06
 -4.58713263E-06 -1.56929472E-05  2.71105600E-05  5.37678654E-06  7.73711796E-05
  2.86618031E-02  1.55678244E-05 -1.74628224E-06  1.17860386E-03 -1.06800100E-05
 -2.09499083E-03  1.18215178E-03 -1.43899964E-05 -2.87120423E-05 -1.22991335E-05
 -4.41061705E-05  9.99004561E-05  8.75975741E-05  2.42589172E-05 -1.46260491E-03
  3.74991388E-05  4.35951498E-06 -6.99334952E-04 -1.14359804E-05 -3.37725409E-04
  1.25057558E-06 -3.33888232E-05  3.14935998E-06 -1.09271247E-04 -5.11747960E-05
  2.61003280E-05  3.85245407E-05 -1.21842271E-04 -8.65076353E-05 -4.68334987E-05
  2.54173385E-05 -3.90584953E-05 -1.22388820E-04  2.66355807E-06  9.36817383E-06
 -3.79268915E-05 -9.88459695E-06 -1.79397734E-05  1.56500234E-02 -1.81704215E-05
 -7.17401561E-06  7.47136186E-03  4.35109415E-06  1.58812518E-03  2.21685951E-03
 -2.31962271E-06 -1.51464117E-06 -8.10212951E-06 -2.88189857E-05  1.21644529E-04
  2.47951349E-05 -1.70136870E-06  2.53559228E-02  2.75979750E-05 -1.91042071E-05
  1.12671299E-02 -6.01614862E-06  1.67256167E-03  2.92718833E-06  1.07180312E-05
 -3.09910371E-05 -1.94770713E-05 -3.31352139E-06 -7.23430466E-03 -2.00245712E-05
 -2.09907767E-04 -1.12666201E-03  1.19777813E-05  4.82499702E-03  1.36560029E-03
  4.67695639E-06  1.78099363E-05  3.38694530E-06  1.30430213E-05 -4.99711711E-05
 -1.29624658E-05 -7.61022644E-06  1.57683336E-03  1.46914351E-04 -1.06917104E-04
  1.23059880E-04 -5.88444422E-06  2.71893970E-05 -5.87287918E-04  1.56320745E-06
  1.32905051E-06  2.00368939E-06  7.10970243E-06 -4.00218548E-06  2.31891361E-05
  7.15148818E-06  2.45772711E-03  1.54825332E-05  2.17661517E-04  3.36385831E-05
  3.86330090E-05 -7.62136421E-05 -3.86388823E-05 -3.47759437E-05 -2.48209396E-05
  7.76519833E-06  2.68594518E-05 -9.69407536E-05 -8.73700403E-05 -2.66155721E-06
  1.20512237E-03  3.55895218E-04  1.75123768E-04  1.09090096E-03  2.99128405E-05
 -4.61806911E-04  1.35400016E-04  7.58037444E-06 -3.89782178E-06  2.44398458E-06
  8.05003483E-06 -3.19362569E-06  9.23300723E-06 -1.06924237E-05  3.14406755E-03
 -2.87048750E-04 -3.55147591E-05 -1.75157693E-04  3.73377740E-05 -9.49487401E-05
 -6.57718801E-05 -2.84116301E-05  2.67296736E-05  2.06457870E-06  7.83835840E-06
 -3.06274843E-05 -4.97893171E-06  1.86819370E-05  1.13039329E-03 -1.72739495E-04
 -6.67415358E-05 -2.64293895E-04 -1.08961905E-06 -1.06884019E-06  1.31551666E-03
  6.85486622E-06 -3.35257449E-06  1.13120310E-05  3.86464759E-05 -7.10157320E-05
  3.67776642E-05 -6.87326867E-05 -4.81428517E-02 -2.52785940E-05  3.84388660E-05
 -4.37225170E-03  1.89544674E-05  1.03932870E-03 -5.50166828E-03  1.09403941E-05
  1.41421737E-05 -2.52913082E-05 -9.27250516E-05  2.18070713E-04  2.12517524E-04
  8.16167789E-06 -2.83066430E-03  1.03399153E-04 -1.40843840E-05 -1.73253786E-03
 -7.90848868E-05 -4.64556923E-05 -8.47006407E-08  1.01891471E-05 -1.40609525E-06
 -1.05464233E-04  3.87974049E-05 -3.86500246E-05  3.45505985E-05 -8.01343474E-05
 -9.30422001E-05  5.59716173E-05 -3.32832101E-05 -4.31296949E-05 -1.04939920E-04
  3.40586073E-06  1.30873002E-05 -6.27718799E-05 -1.20118088E-05  5.10008676E-06
 -4.98256237E-03 -4.66401971E-06 -1.34850787E-05 -3.50141495E-03  4.47698777E-06
 -2.21174171E-03 -2.95335702E-03  1.13833071E-05 -6.14256605E-06  1.67024492E-06
  6.18184370E-06 -2.39457451E-05 -1.35241447E-05  4.62511161E-05 -5.00840323E-02
 -9.86296155E-06  3.52427046E-05 -2.11628217E-02 -3.40758783E-07 -2.59261036E-03
  4.70215150E-03  2.53075074E-04  7.45153778E-04  1.43024221E-04 -1.27347703E-02
  2.18872354E-03  1.76660174E-06 -2.71773252E-02  2.45269281E-02 -8.75603990E-05
 -2.29504440E-03 -2.55125444E-06 -6.47781506E-06 -4.27592486E-03 -8.60066066E-04
  1.93518489E-04  7.37750513E-04 -4.29013769E-03  4.59909272E-03 -5.80688041E-03
  1.00661234E-06 -3.04129609E-02  3.38498757E-02  1.20642652E-04  2.90304517E-04
  1.09855707E-05  1.13960082E-05 -8.75250089E-04  3.26296891E-03 -1.81276960E-04
 -7.45605112E-04  4.00573678E-03 -2.32530842E-03  4.84925410E-04  1.20947243E-05
 -2.79162973E-02 -2.08060081E-02 -3.53439433E-04  1.02780411E-03 -6.74832787E-05
 -7.63992946E-05  1.00444491E-03  2.48593623E-03 -1.89844510E-05 -1.44834568E-04
  1.71525087E-03 -1.17424925E-03  1.29339566E-04  3.58005984E-05 -1.81450805E-02
 -1.92431993E-02  8.65291593E-04  2.35071502E-03  9.92991523E-05 -1.47895203E-06
 -1.58732327E-03  2.00349825E-03  5.91301624E-04  1.95964474E-03 -4.88304457E-03
  5.13489900E-03 -2.68669208E-04  6.63076581E-06  7.39903373E-03 -6.54095425E-03
 -4.02589287E-04  1.45346168E-03 -8.69119683E-05  9.94461327E-05 -1.44386169E-03
 -1.01350308E-03  1.04017931E-03  3.37546607E-03 -9.03912805E-03 -4.90045000E-03
  5.75037784E-03  2.20493986E-07  1.53210548E-02  1.57547867E-02  1.67941940E-04
  8.67997853E-04  1.19755827E-05  6.12475456E-06 -3.84153183E-03 -4.19375139E-03
  4.96184712E-03  1.69526580E-02 -2.96816827E-02  4.03251462E-02 -6.90963680E-03
  3.56353550E-05 -1.71545299E-02 -1.46326759E-05  2.81631156E-05  8.68833402E-03
 -4.23298650E-06  2.35787230E-05  1.01454655E-02  1.27785554E-02  1.07970115E-04
  4.09085950E-04 -1.22656692E-03  8.86419738E-04 -2.32821500E-05  1.57746352E-05
 -1.29068984E-02  1.62284914E-03 -1.76046875E-03  8.85082843E-04 -4.43993298E-04
 -1.80750548E-05  9.76827320E-04  2.93807597E-04 -4.21432439E-04  1.37864393E-02
 -1.54539052E-03  2.88584616E-03 -4.81032756E-04 -6.30074661E-04  1.20979595E-02
 -1.91831222E-03 -2.41055382E-03 -2.10646287E-04  1.10048413E-03  4.06472527E-03
 -1.73546992E-02 -2.43267863E-02 -6.06225705E-03 -1.61678696E-05 -7.99848844E-03
 -7.46074629E-03 -5.63248555E-06  7.02127524E-04  3.67151410E-06 -1.57119932E-06
  4.26452849E-03 -3.32498961E-03  4.03246944E-03  1.44869051E-02 -6.19867284E-02
  2.39335965E-02  4.71787476E-02  2.19127128E-05  5.16654052E-03  3.36386361E-02
 -7.68210144E-06  4.76091180E-03 -2.70543709E-06  7.48449238E-06  8.56392241E-03
  1.38060880E-03  4.68556112E-03 -1.24827993E-02  1.75816692E-02  2.26529850E-03
 -4.17591951E-05 -1.88328463E-02 -2.56358150E-02 -6.25927900E-05  3.56677190E-03
 -8.57697184E-06 -4.55571472E-06 -1.82783879E-02  9.28959674E-03  4.88181372E-04
  1.79542520E-03 -7.22085553E-03 -2.45664088E-03 -8.37603032E-04  9.73117933E-06
  1.90931595E-02  4.17703883E-03  1.25916394E-04  1.22010919E-04  2.17672297E-05
 -1.87167339E-06 -5.69885753E-03  7.20062115E-03  5.28473882E-04  1.83761913E-03
 -5.40109041E-03  3.45469731E-03 -9.40671510E-04  4.23611150E-05  9.75835547E-03
 -2.95437063E-03 -3.13219216E-04  1.43611264E-03 -3.79740557E-05 -7.67775951E-05
  3.38641727E-04  2.07995851E-03  3.91614844E-04  1.39739667E-03 -3.99884367E-03
  8.33315476E-04 -5.76072168E-04 -5.69289111E-05 -1.48306901E-02  1.20653415E-02
  5.94793384E-04  3.36764136E-03  1.08412287E-05 -6.12473042E-06  1.27590614E-03
  2.72632707E-04  8.36997434E-04  2.85046344E-03 -8.67913232E-03  3.98145329E-03
  8.24557000E-04  3.51929923E-05 -1.03122886E-02  1.53221801E-02 -2.62529668E-04
  3.99233086E-04 -3.94269235E-05  7.43974992E-05  1.09068353E-03 -1.36331523E-03
 -4.89248557E-04 -1.59926137E-03  4.28808666E-03 -9.08584519E-03  8.86084464E-04
  1.29626905E-05 -6.81160104E-03 -1.90101725E-02  8.46253335E-05  1.42732549E-03
  1.78706407E-05 -6.28866606E-06 -4.52693498E-03 -6.73646711E-03  7.38120881E-03
  2.50919915E-02 -4.67808713E-02 -8.16571963E-03 -4.84336753E-02  3.10161203E-05
 -1.20156374E-02  1.72145534E-02 -8.62463853E-06  4.13734558E-03 -1.49491045E-05
  1.11188742E-05  4.30655967E-03  6.29979042E-03  1.59767677E-04  5.79548884E-04
 -1.43307990E-03  2.18748024E-03  8.11549879E-05 -2.44579448E-04 -7.26038332E-03
 -1.91393645E-03 -1.33936402E-03  8.04356772E-04 -3.09401519E-04 -5.89597711E-05
 -7.00110329E-04  1.08110071E-04 -3.17007964E-04  7.75987872E-03 -6.67477785E-04
  1.74633992E-03 -1.34967205E-04 -1.83017217E-04  9.36482756E-03 -7.73575876E-04
 -2.23343409E-03 -2.38450015E-04  7.99593092E-04  2.75504208E-03 -1.08508440E-02
  9.17856524E-03  1.15993834E-02  3.38317846E-05  6.55451551E-03 -1.50997438E-03
  2.23473563E-05  7.63073035E-04  3.93955403E-06  9.46645676E-07  3.33997659E-03
 -1.09806486E-03  9.45433587E-04  2.98623440E-03 -5.36225991E-03 -4.49626229E-02
  4.08246773E-02  3.99037559E-05 -2.33517157E-02  2.57462356E-02  1.31175009E-05
  5.30827758E-03 -5.36705233E-06  9.77632422E-06  3.45294875E-03  9.99694927E-03
  2.08247089E-03  7.92702395E-03 -4.26804600E-02 -1.97991293E-02  4.65555800E-02
  1.78988809E-04 -5.00121727E-02 -4.02414104E-02  3.00113202E-04 -1.50133242E-02
  3.31003398E-05 -8.21952256E-05 -7.37997821E-02  1.12505288E-02 -1.90534173E-02
 -6.64530503E-02  2.18003414E-01 -1.55450957E-01 -2.71638782E-01  4.91887056E-04
  6.75050472E-02  1.06999057E-01 -4.77134754E-04 -2.47555332E-02 -1.92634060E-04
 -1.24935269E-04 -3.19078665E-02  7.27629464E-02  2.44038005E-03  9.26577723E-03
 -4.74695931E-02  3.61794769E-02  1.88401133E-02 -2.86959329E-04  6.28400669E-03
 -8.91361342E-02  1.09487253E-03 -1.77390569E-02  1.57688056E-04  2.14935377E-04
  2.17765305E-02  6.82629078E-02 -3.00735906E-03 -1.05617385E-02  3.73498140E-02
 -2.12256410E-02 -3.06953235E-02  4.33311828E-05  1.52774784E-02  1.53805502E-02
 -2.33283335E-03  2.53483649E-03 -1.11615095E-04 -2.23987362E-04  9.22785052E-03
 -3.14144423E-03 -1.33434782E-03 -4.84486730E-03  1.67203847E-02 -7.33018863E-03
 -5.55573334E-03 -1.66109074E-04  1.23542068E-02  3.19663284E-03  1.15616588E-03
 -1.13109278E-02  1.15528752E-04 -2.57040266E-04  4.42155998E-03 -1.24060459E-02
 -2.25505628E-03 -7.82299158E-03  2.45018960E-02 -6.94795300E-03 -2.87214560E-02
 -1.47314509E-04  3.29782835E-02 -5.52872670E-03 -3.80411708E-04  2.21295543E-03
 -1.51515293E-04  3.22247305E-05  4.60284683E-03 -9.44799212E-03  7.83929421E-04
  2.91912483E-03 -7.97159602E-03 -2.25029314E-02  9.09215181E-03  5.26677111E-06
 -3.29765038E-03  1.84056704E-02 -5.61076994E-05  4.62121801E-04  2.65275774E-05
 -2.22086993E-06  2.54147304E-03  6.11715261E-03  4.89566924E-04  1.64946875E-03
 -3.10048592E-03  7.73851571E-03  3.93860876E-04 -1.19502792E-04  3.21757307E-02
 -8.99933609E-04  4.89766029E-03 -5.46872768E-03  1.07553908E-03  4.40203654E-04
  3.85124047E-04  6.41350542E-03 -1.01525496E-03 -3.40214171E-02  7.72453568E-03
 -3.88934977E-03  1.07997167E-03  5.65240550E-03 -3.31220029E-02  4.86553425E-03
  9.11469659E-03  7.05435697E-04  8.63993649E-05  2.52132752E-04 -1.38125159E-03
 -7.51466605E-03  1.27256013E-02 -8.25733293E-05  4.69721595E-04  8.27584146E-03
 -3.10874747E-05 -1.27047539E-03  1.02337337E-07  3.98479773E-06  5.62605632E-04
 -3.07765124E-03 -1.15075058E-03 -4.28335292E-03  1.97127701E-02  8.13859185E-03
  1.68688240E-03 -6.81886486E-05  3.67455934E-03 -8.31292631E-04 -1.86273124E-05
 -6.15890337E-05 -2.16343057E-06 -8.38809152E-06 -1.08525945E-03 -1.27719998E-03
  2.14880589E-01  2.29141249E-03  6.91458857E-03 -1.53054257E-02 -3.07030211E-02
 -3.42432532E-02 -1.47416973E-03 -3.65507282E-02  6.03705546E-01 -2.75108354E-05
 -5.19105222E-03 -3.88742963E-06 -2.55046568E-05 -2.97146276E-02 -5.64971073E-02
 -1.83051065E-02 -6.47640214E-02  2.19738610E-01 -1.04539725E-01 -1.64423691E-01
  6.82784992E-04 -3.65972680E-01  5.02612215E-01  7.28598202E-05  8.87345389E-03
  4.09551564E-04 -1.87186842E-05 -3.08469486E-03  3.53332277E-02  1.05776129E-02
  3.61208339E-02 -1.12386810E-01 -5.49276293E-02  3.94042359E-03  1.54897579E-03
 -3.02810801E-01 -3.49894769E-01 -8.94624092E-04  1.34321300E-03  3.39202010E-05
 -3.60937480E-04  5.36792777E-02  3.30320221E-02  1.02541511E-02  3.97472698E-02
 -1.37615754E-01  3.01735799E-02 -2.60386962E-02 -3.04151934E-04 -5.81022268E-02
 -3.88175580E-01  2.88880989E-03  4.53011747E-02 -1.00915518E-03 -2.19810333E-04
  3.18885697E-02  2.65655408E-02  1.19981088E-02  4.55883845E-02 -1.57205239E-01
  1.89261613E-02  4.12509834E-02  1.39064217E-03  4.39309196E-01 -2.20154588E-01
 -2.03960748E-03  2.76692433E-02 -2.31884899E-04  6.52750040E-04 -9.91439807E-03
  2.38416968E-02  8.96214705E-03  3.48741396E-02 -1.20623715E-01 -4.10496290E-02
 -1.06147013E-02 -1.86889973E-05  4.65481002E-01  3.82429206E-01  9.29105961E-04
  2.24979156E-02  4.17806702E-04  2.42140899E-04 -4.87354143E-02  1.80287226E-03
 -8.50302315E-04 -2.08428354E-03 -3.40810817E-03 -1.25816374E-02 -3.18086945E-02
 -5.16912346E-04  1.36878509E-03 -1.17311870E-01 -4.11210151E-04 -7.37458640E-03
 -4.00915568E-04  4.69233829E-05 -1.27602477E-02  7.16287410E-02  4.09743485E-03
  1.40662292E-02 -2.56838707E-02  3.03697533E-02 -5.27425041E-03 -4.86234133E-03
  1.29146643E-03  4.08317718E-02 -6.53461489E-03  9.37862216E-03 -1.00263012E-03
  8.40514887E-04 -2.05042871E-02  8.86916944E-03 -4.17247855E-03  5.28587553E-02
  5.65961708E-03  1.16699114E-02 -2.20201604E-03 -6.77636640E-03  6.42398702E-03
  3.74498164E-04  5.54782403E-03  2.32157321E-03 -2.78565303E-02 -9.67877332E-02
  3.97154549E-01 -9.73370942E-02 -1.47972211E-02  1.03357434E-03  1.14267010E-02
  3.35530189E-02  5.60760397E-04 -2.34624445E-02  5.24868291E-05 -4.38872936E-05
 -9.08140229E-03 -6.94096359E-03  1.69186318E-02  6.30485498E-02 -2.94927748E-01
  5.86585975E-02 -1.37592281E-02  9.66524405E-04 -1.31938876E-02  2.78362267E-02
  4.47764813E-04  2.01924927E-02  1.15183865E-05  8.15790658E-06  8.32301120E-03
 -7.07828212E-04  1.42255620E-01  3.16324307E-01  8.05929428E-03  2.72078260E-02
 -7.98959295E-02 -2.80222617E-02  1.00721765E-02 -1.10017255E-04  4.18772478E-02
  4.93942024E-01  1.26909150E-04  1.13927057E-02  1.03877501E-05  3.22884473E-05
  1.33470543E-02 -3.88802898E-02 -5.29720609E-03 -1.80916870E-02  5.31023862E-02
  6.77260150E-02 -5.59761527E-02  1.90208057E-04 -3.52792213E-01  3.30839863E-01
 -3.02552000E-04  9.18256433E-03  2.02905712E-05  1.24883555E-04  4.21167166E-02
  1.25346181E-02 -3.54578606E-03 -1.21272249E-02  3.56054136E-02 -7.96061063E-02
  1.94595964E-02  2.00314059E-04 -2.83277193E-01 -2.28589510E-01  5.63677704E-04
 -5.05020718E-03  1.72051978E-04  1.93324138E-04  2.10056088E-02  1.90698242E-02
  1.09550992E-03  4.15814484E-03 -1.64640803E-02  2.18026532E-03 -4.29113057E-03
 -6.23660679E-05 -2.15859628E-03 -3.32451059E-01 -2.86371808E-04 -7.95832836E-04
 -9.35553243E-05 -7.90598048E-05  1.42639047E-02  2.32129809E-02  2.20176825E-03
  8.62656743E-03 -3.27898309E-02  6.42729984E-03  9.21219569E-03  7.62258778E-05
  3.15785285E-01 -2.10973190E-01 -4.03976341E-04  7.14584282E-03 -6.25843439E-05
  6.58553545E-05 -1.31229390E-02  4.67715312E-03  4.13246576E-03  1.48215597E-02
 -3.99463706E-02 -7.92459311E-04  1.82947207E-02 -5.08497025E-05  3.41393068E-01
  3.25589737E-01  3.25666114E-04  1.12211664E-03  6.40054394E-06  1.23524924E-04
 -8.73958900E-03 -3.17102778E-03  9.42472433E-04  3.14891458E-03 -1.07830832E-02
 -2.98645508E-03 -3.03545374E-02  3.94562109E-05  3.36078732E-03 -9.30404697E-02
 -3.33869131E-05 -1.23947187E-02 -5.50993462E-05  6.07679515E-05 -2.64304043E-02
  6.55056933E-02 -8.19379193E-04 -2.86843730E-03  6.65685522E-03  2.22490436E-03
  5.77361904E-04  3.15026993E-04  1.08075458E-02  3.67359517E-02  1.01219413E-03
  7.14569035E-04  5.84003683E-04  6.57753819E-04 -1.87074047E-03  4.20789172E-03
  2.54662494E-03  1.22376989E-02  2.24427033E-03  4.39645153E-03 -2.02662975E-03
  1.51394871E-03 -2.63203652E-02 -7.04955058E-04  7.03076896E-03  1.91842545E-03
 -2.55985608E-02 -9.09466914E-02  3.93666537E-01 -8.19684673E-02 -3.25234065E-02
 -9.05788226E-05  9.55220486E-03  2.64880787E-02 -9.51015173E-06 -1.89054208E-02
  1.61943550E-05 -3.05824983E-05 -9.97419316E-03 -2.47201087E-03  1.30566538E-02
  4.62417589E-02 -1.95134494E-01  3.63139971E-02  8.41454451E-03  2.76730939E-04
 -1.82397177E-02  2.44523321E-02  8.02840568E-05  1.70862630E-02 -1.00552411E-05
 -1.52609083E-05  6.11124846E-03 -8.00117014E-04  2.13234133E-02  1.33383087E-01
  1.12466794E-01 -6.04034619E-03 -2.07717857E-02  5.88352364E-02  3.71368076E-02
 -6.08042475E-02 -1.70692414E-04 -6.96607651E-03 -5.53158710E-02  2.30525766E-04
 -1.14191071E-02 -4.19564017E-06  2.53124522E-07 -2.98055423E-02 -1.23072584E-02
 -1.07883157E-02 -3.83667350E-02  1.26918510E-01 -3.98760354E-02  2.26602597E-02
 -1.96414193E-05  9.67330746E-02 -1.63152075E-02 -3.22206524E-04 -1.61352162E-02
  7.86403877E-06 -7.32598997E-05 -1.34330145E-02 -7.19533422E-03  8.94261317E-04
  2.72256661E-03 -1.15099904E-02 -2.15697943E-02 -1.54590538E-02  1.36377018E-04
  7.33653218E-02  4.82493718E-02  6.64552431E-04 -7.57492956E-03  1.21633056E-04
  9.64269481E-05  2.04506608E-02 -2.56743199E-03  2.16715142E-03  8.36893433E-03
 -3.16402528E-02  1.28491257E-02  1.00671011E-02 -6.47448759E-05  3.33403081E-02
  7.32396412E-02 -1.84294003E-03  2.38843657E-03 -4.57864212E-04 -1.04859184E-05
  1.17726870E-02  6.42741193E-04  1.23418894E-03  4.98957973E-03 -1.88823720E-02
  1.53286254E-03  3.73119662E-03  1.76394031E-04 -2.23225883E-02  4.44824186E-02
  8.88787599E-04  1.36306251E-03  2.01007520E-04 -1.60225555E-04  5.17110351E-03
 -1.25529693E-03  2.17383026E-04  1.60267243E-03 -1.52198206E-02 -2.28639096E-03
 -1.86769162E-04  7.71416872E-05 -8.62334109E-03 -3.93292905E-02 -3.24893574E-04
 -8.83961785E-04 -1.18042883E-06  4.58991232E-05 -1.42441371E-02 -2.72054609E-03
  2.61686449E-04  1.13204886E-03 -4.68405337E-03 -1.81074980E-02  3.28799584E-03
 -7.00013037E-05  1.32526413E-02  4.70102496E-03 -1.20892303E-04 -4.05553176E-03
 -4.82561082E-05 -2.81992129E-05  7.23571951E-03 -1.57170345E-02  2.97880428E-04
  9.43752892E-04 -6.67576666E-04 -5.10757259E-04 -2.52753680E-03 -4.77977905E-04
  3.10456577E-02 -1.11097109E-02  3.62783203E-03 -1.12403437E-03  8.04698169E-04
 -3.25009728E-04 -5.22286299E-03 -1.27398634E-03  1.35016226E-03 -3.35777762E-02
  5.20189150E-03 -8.04861388E-03  1.45112652E-03 -1.79289659E-03 -2.29069145E-02
  4.48997220E-03  4.66520868E-03  4.86181506E-04  3.53959846E-03  1.23180414E-02
 -5.10134321E-02 -7.42130498E-03  2.07720587E-02  2.02869326E-04 -1.23445815E-02
  6.52010290E-03  9.93182639E-05  3.40259336E-03  3.41258853E-06  1.28037117E-05
 -1.64263023E-03 -4.29489905E-04 -3.76299407E-03 -1.30538129E-02  5.45857383E-02
  5.11837598E-03  6.40547672E-03 -1.42948629E-05  1.02512645E-02 -3.54275098E-03
  2.13753941E-05 -2.15078576E-03  7.73572833E-06 -6.61732742E-07 -2.33751229E-03
 -4.69196057E-04  2.77117242E-02  2.08943228E-02 -1.20505526E-02  2.67653347E-02
 -2.79744120E-05 -9.81134900E-05  2.79644428E-04  1.79096018E-04  4.63430377E-05
  2.48363119E-02  3.92150813E-04  1.22449683E-04  1.14425398E-03 -1.53502284E-05
  1.50102845E-03 -6.34399696E-03 -4.95034352E-05  2.43956432E-05 -2.20324533E-05
 -7.95858178E-05  2.26016781E-04  8.62908537E-05  1.94305416E-04  4.82615969E-02
  1.73840867E-04  4.27813165E-05  8.96312008E-03 -1.17216084E-04  4.09669184E-03
  2.31413779E-03  6.97331386E-05 -3.88858749E-05 -3.71458380E-05 -1.29539687E-04
  4.07198197E-04  1.20164934E-05  1.50585655E-04  4.29577276E-02 -4.64746444E-05
  1.16108325E-04  6.64185680E-03 -3.98378505E-05 -5.01171006E-03  4.75196630E-04
  2.59541398E-05 -6.27610977E-06 -1.13309964E-05 -3.94583508E-05  4.30279173E-05
  3.63680581E-05 -1.72158499E-04  1.14243115E-02  1.18313105E-03 -5.70424304E-05
  2.41277689E-03  5.76250845E-07 -2.77878714E-03 -6.69968367E-03  3.84917148E-05
  2.22129885E-04 -1.04822737E-05 -4.36398496E-05  1.66501239E-04 -2.49240972E-04
  1.62365197E-04 -9.40277790E-03 -3.56362317E-05 -6.27971327E-04 -1.91589860E-03
 -6.23918157E-05  1.88085026E-03 -9.41964965E-04 -1.12835763E-05  3.79386928E-05
 -3.61978264E-05 -1.37057991E-04  4.82620243E-04  1.20610559E-04 -9.31883728E-05
 -5.50109678E-03  3.99523197E-04  2.50370133E-04  8.91016393E-04 -1.27411628E-04
 -3.08492860E-03 -2.59594478E-03  7.12243501E-05  1.11598589E-04 -8.85927443E-06
 -2.92558463E-05  1.85006113E-06 -2.69424187E-05  4.42113077E-06  3.77263890E-03
  2.05515563E-04 -6.02754259E-06  3.07107082E-03 -1.36653559E-04  3.34586655E-03
 -2.78815346E-03 -9.04202561E-05  1.88195684E-05 -3.10300361E-05 -1.07580107E-04
  2.49109458E-04  2.39443864E-05  6.99112065E-04 -5.34163616E-03  5.04605850E-04
  8.44763137E-05 -2.30040470E-03 -1.72022397E-04 -1.35991283E-03  5.02651754E-05
  1.74602249E-05  1.48345297E-04 -6.05969015E-04 -5.53477820E-04  9.50565746E-05
 -1.93837004E-05 -1.07716623E-04 -1.98679013E-04 -3.84685996E-04 -6.92787328E-05
  3.50011578E-05  2.58688305E-04 -4.09734465E-05 -1.49013873E-04  6.90011930E-04
 -5.26549484E-05 -1.16761031E-04  8.11504884E-03  6.65445819E-06  6.26539970E-05
  2.81607296E-03 -4.19207155E-06 -4.94394009E-06  5.79427260E-04 -3.36378716E-05
  1.86654223E-05 -3.19017401E-05 -1.18832256E-04  5.76044050E-04 -4.26808347E-05
  7.52016798E-05 -1.54813274E-02 -6.74465350E-06 -7.24024538E-05 -5.95087673E-03
 -3.68106246E-07 -2.66314249E-04  3.83962050E-04 -3.42637172E-05 -1.94661294E-05
  3.82624559E-05 -6.02749230E-05  4.24098150E-05  4.11755844E-05  5.79691470E-03
 -2.78912383E-03 -9.79456433E-03  3.43265874E-02  2.08810311E-02 -2.98389374E-02
  1.73153013E-04  4.71189249E-02 -3.88968339E-03  1.82968756E-04  9.71970733E-03
  2.85957167E-05  4.79082542E-05  8.68063190E-04  2.50145266E-03  2.38532201E-03
  9.10552702E-03 -4.76806869E-02 -3.60643033E-02  2.06678676E-02 -1.15958080E-04
  2.29568681E-02 -1.25422951E-01  1.51113479E-05 -1.95648101E-02  5.43160780E-05
  1.47874059E-05  2.33281815E-02 -6.59115118E-02 -1.90399050E-02 -6.63439775E-02
  2.15402396E-01  1.51946233E-01 -2.66776193E-01 -3.46972201E-05 -3.44230364E-02
  1.37772251E-01  7.12943465E-04 -2.36900071E-02  4.12758947E-04  2.97572528E-04
 -3.18579738E-02 -6.93462279E-02  1.90275171E-03  7.31035634E-03 -4.08141084E-02
  1.73684748E-02  4.93029719E-02 -1.89854822E-04  1.08278236E-01 -1.12274961E-02
 -2.37208848E-03 -2.06063506E-02  2.05696400E-04  9.09160907E-06 -6.57298953E-02
 -5.83608650E-03 -2.40643442E-03 -8.43588360E-03  2.83274336E-02  8.92771060E-03
 -2.92710707E-02 -3.70935682E-04 -3.87139043E-02 -2.04393429E-02  1.09373238E-03
  3.49815161E-03  1.55082611E-04 -2.38380979E-04  1.56566500E-03  5.65491346E-03
 -1.34433715E-03 -4.89800525E-03  1.72185899E-02  7.44793722E-03 -5.92865977E-03
  6.45473010E-05 -1.79045649E-02  1.41513095E-02 -3.23776488E-04 -1.35178070E-02
 -9.61045942E-05  4.39314459E-05  5.91757715E-03  9.68188836E-03  6.76313450E-04
  2.44041726E-03 -7.38665925E-03 -1.17934624E-02 -1.28192482E-03  3.22033406E-05
  6.83610679E-03 -3.92152381E-03 -1.15211344E-05 -6.10161253E-03  3.15463339E-05
 -1.13505956E-05 -2.09686364E-04 -6.22955863E-03  1.11938690E-03  4.23067781E-03
 -9.32843499E-03  9.53472088E-03  1.67846913E-02 -8.73075461E-04  4.44560249E-02
  1.93578163E-02  4.55955433E-03 -1.45487421E-03  1.47798204E-03  4.16181625E-04
 -3.69066379E-03 -1.11733328E-03 -3.55565451E-04 -2.86473740E-02  2.28229189E-03
 -6.97243259E-03  2.56631577E-04  6.42925213E-03 -4.30555253E-02  8.39970963E-03
  8.40235074E-03  1.92057955E-03 -7.43919019E-04 -2.81591949E-03  1.41903281E-02
  1.47023184E-03 -3.66065453E-03 -6.93545568E-05 -2.55752439E-03  3.09856499E-03
 -3.36927158E-05  8.66951578E-04 -5.02207836E-06  7.06886220E-06 -1.16025190E-03
  1.16435916E-03 -7.11023497E-04 -2.58019814E-03  1.25668694E-02  8.66689243E-03
 -3.58613557E-04 -8.33876311E-05  5.59183950E-03 -2.57396789E-03 -3.96565955E-05
  7.72995899E-04 -3.68917894E-06 -4.91227922E-06 -1.28855586E-03 -6.96194456E-04
 -1.77404333E-02 -5.61822173E-02 -2.51179290E-02  3.33568534E-03  6.87871921E-05
  2.16291901E-01  8.87151683E-04  6.84254172E-03 -4.15562790E-02 -2.99066726E-02
 -3.23673151E-02 -3.15058670E-03 -4.55243136E-02 -5.74204524E-02 -5.87939437E-04
  6.97283229E-03  3.48817533E-04  2.95313795E-04  2.95975582E-02 -1.43977141E-02
  5.35495599E-03  1.63785261E-02 -4.61010580E-02  5.47881579E-02  1.85724252E-02
  2.34858026E-03  2.42040458E-02 -1.32710065E-01  3.13508441E-03 -1.34088886E-02
  1.42311072E-03 -4.31684338E-04  3.67439459E-02 -4.41736817E-02 -2.15628029E-02
 -7.64473925E-02  2.62666783E-01  8.34567246E-02 -1.82451571E-01  3.33368247E-03
 -1.56148434E-02  1.94206812E-01 -6.51022895E-03 -1.00174728E-02 -2.23487811E-04
 -1.99036652E-03 -2.02941179E-02 -5.52063560E-02  7.16388770E-03  2.28744653E-02
 -7.06443892E-02 -4.86821622E-03 -2.30246982E-02 -1.44010606E-02  3.90976943E-02
  1.22290169E-01  1.28659857E-02 -7.56344652E-03 -3.37125840E-03  2.77275505E-04
 -5.13987317E-02  2.28722255E-02  4.72010685E-03  2.04193521E-02 -8.12790022E-02
  1.90289444E-02 -3.07424525E-03  5.18686093E-03 -1.62941392E-01  7.70988544E-02
 -5.51128110E-03  2.93450142E-02 -6.08679736E-04  2.04384266E-03 -2.33150615E-02
  1.20055591E-02  7.07168411E-03  2.70631382E-02 -9.48387499E-02 -9.81192165E-03
  3.00432126E-02  4.68507171E-03 -1.42451946E-01 -3.23092558E-02  3.05339541E-03
  1.40421611E-02  1.58444554E-03  4.80357980E-04 -8.82935041E-03 -7.44847828E-03
  1.40465401E-03  4.53190141E-03  4.79073233E-03  1.67667174E-02  8.23617330E-03
 -3.27552347E-03 -4.25896281E-02  4.03882944E-03 -1.75391764E-03  3.20455872E-02
 -1.11926909E-03  1.42129677E-05  3.55456743E-02 -2.33685848E-02 -7.74009233E-03
 -2.65559749E-02  5.09894124E-02  8.07088123E-02 -1.03271157E-02 -3.70058260E-02
 -1.16730482E-02 -1.69662551E-02 -3.17229195E-02 -1.40113620E-03  3.29840890E-03
 -1.33886068E-03 -3.27766689E-03  5.81481469E-03  3.93722290E-02  6.52248344E-02
 -1.41790232E-02  1.82316676E-02 -5.89672518E-03  2.91936432E-02  5.55243450E-02
 -8.41847894E-03 -2.06068708E-02 -3.40264478E-03  1.36461760E-02  4.95025881E-02
 -2.25402965E-01  1.11399481E-02  2.93883380E-02  3.41317953E-03 -1.47237751E-02
 -1.85753901E-02  1.92285516E-03  5.72622396E-03  4.66502855E-05 -1.17969379E-04
  6.77106888E-03 -1.70099886E-03  5.74967489E-03  2.08549988E-02 -9.72990442E-02
 -3.14548202E-03 -2.50282888E-02  3.15664284E-03  4.12581356E-03  9.06683594E-03
  1.77006696E-03 -2.87163132E-03  4.67080965E-05  1.37566172E-04  6.63014163E-03
  2.39372996E-03 -4.64876302E-02 -5.55781617E-02 -2.94272563E-02 -3.31147462E-03
 -1.15194487E-04  1.59819699E-01  2.12524777E-01  7.66040786E-04  2.46670484E-03
 -4.18517238E-03 -3.74179589E-03  5.82888914E-04 -2.92223536E-04 -1.85371791E-02
  1.18896155E-01 -5.80590839E-05  4.11977099E-03  1.01080387E-05 -1.13061170E-04
 -1.03349281E-02  5.89642071E-03  4.98481174E-03  1.77270958E-02 -5.71765055E-02
 -8.41584655E-02 -2.06741678E-02 -2.36878581E-05 -1.10604047E-01  9.21242584E-02
 -3.91400222E-05  1.02721283E-02  6.78991725E-05 -5.16828413E-05 -1.24975953E-02
  1.89102356E-02  6.13818956E-03  2.13276734E-02 -6.73697900E-02  7.54748997E-02
  5.27884441E-02  5.61743025E-04 -1.18281979E-01 -1.11417392E-01  5.54070948E-04
  4.50762341E-03  1.65797071E-04  5.31574901E-04 -2.05607662E-02  1.60741050E-02
 -6.61145171E-03 -2.20918451E-02  6.67672943E-02 -3.85591691E-02 -1.25724374E-02
  3.68781000E-03 -1.75456055E-02 -1.35651110E-01  3.51556180E-04  7.64370544E-04
  1.40315851E-03 -9.60804345E-05 -1.18390697E-02 -9.76839332E-03 -2.52520363E-03
 -9.60428326E-03  3.31580337E-02  8.86794435E-03 -2.02267637E-02 -4.74133109E-05
  7.78068468E-02 -8.38858638E-02  1.81489940E-05 -6.20862950E-03  1.15600913E-04
 -4.45489125E-04 -7.64576828E-03 -6.11369614E-03 -1.90451935E-04 -1.39196118E-03
  9.13896724E-03  1.02086758E-03 -2.07544844E-03 -8.10828573E-04  9.07672865E-02
  7.13636607E-02  6.33925323E-05 -5.94240744E-03 -9.35674910E-06  7.62923518E-05
  1.00997053E-03 -4.25191848E-03  1.26694987E-03  4.34020223E-03 -8.48697890E-03
 -7.85189135E-03 -6.55640049E-03  1.66934733E-04 -4.51618465E-03 -2.22232151E-02
  1.26771486E-04  1.09577460E-03  5.14061377E-07  7.21445981E-05  5.06609871E-04
  1.97786930E-02 -1.05920563E-03 -3.30315189E-03  3.51650806E-03  1.85706873E-02
  3.06661558E-03  6.77599316E-03 -2.09388445E-02  2.10303893E-02  5.05784173E-04
 -3.11168530E-03 -4.22825733E-04  8.72663482E-04  5.69625080E-03  1.57192223E-03
  4.60169127E-03  2.82444148E-02 -2.53881453E-03  1.03695190E-02 -1.10990097E-03
  9.51825033E-03  1.27242005E-02 -2.67203338E-03 -2.83119289E-03 -3.60688463E-04
 -5.88150200E-03 -2.04126996E-02  8.34691723E-02 -1.39034952E-02 -1.11201220E-02
 -2.79464077E-04  7.12584274E-03  2.36744241E-03 -1.39500949E-04 -5.05410284E-03
  5.63670551E-06 -8.82043760E-06  4.78979347E-04 -1.99752833E-03  6.63919435E-03
  2.30897203E-02 -9.53553115E-02  1.14443222E-02 -1.34729174E-02  2.35344196E-04
 -7.57030033E-03  4.57333597E-03  5.38099368E-05  5.56352613E-03 -4.66347865E-07
 -1.65847481E-05  1.52882540E-03  6.40458616E-04  2.09143199E-02  2.52985812E-02
  1.22674901E-02 -1.04980758E-02  1.14965971E-05 -2.02445034E-02 -3.27957051E-02
  3.29676981E-02  1.95485725E-03  7.77844768E-03 -3.12001271E-02 -1.59932074E-02
  7.55109788E-03 -1.00444307E-04 -8.63842885E-03  9.42711324E-02 -6.35749176E-05
  3.11584273E-03  4.86930521E-05 -1.28747976E-05  7.57601519E-03 -8.29515038E-03
  1.28271402E-03  4.15025320E-03 -1.73456270E-02  1.96211446E-02 -1.55012626E-02
  1.67810542E-04 -8.44420047E-02  4.36973419E-02  1.86215753E-04 -6.01137394E-03
  6.54044749E-05  6.34511485E-06  2.19825712E-02  4.61773017E-03 -1.01696203E-02
 -3.60140869E-02  1.18090006E-01  4.06288157E-02  1.85891157E-02  1.47636914E-04
 -9.04033154E-02 -4.53505457E-03 -1.44844017E-04 -1.14761613E-02  8.33579839E-05
  9.01956025E-05 -8.60915837E-03  5.87291093E-03 -4.49499324E-03 -1.54546019E-02
  4.41648744E-02 -4.43932068E-02 -6.03434472E-02  2.46490240E-04  6.63252309E-03
 -3.38501965E-02  7.85641229E-04 -8.63481643E-03  6.03985839E-04 -3.00809671E-04
 -3.03720603E-02  2.12082292E-02  6.86986183E-04  3.21924471E-03 -1.76671984E-02
  5.32000632E-03  2.35091939E-03  1.77697653E-04  3.26892795E-03 -3.28357169E-02
 -1.18809924E-04  4.42868501E-04 -8.05372358E-05 -9.83628545E-05 -1.95338032E-02
  3.55599998E-03  1.98356526E-03  7.51792936E-03 -2.55629550E-02 -3.70376467E-03
  6.06576228E-03  5.47083003E-05  2.75294959E-02  7.11010316E-02  2.48759625E-04
  2.98366410E-04  3.73731199E-05  7.77417540E-05 -1.19615623E-03 -2.41607905E-03
  3.46135576E-04  1.06496921E-03  1.76834123E-03  7.13329612E-03 -3.69526275E-03
 -8.42018828E-05 -1.32216653E-02 -1.75071622E-02 -1.43499133E-05  8.94114984E-03
 -2.83879087E-05  4.46249657E-05  8.79145207E-03  9.36652345E-03  1.44560078E-03
  5.06597649E-03 -1.05660123E-02  1.93472674E-02  2.52436751E-03 -1.07563065E-03
 -6.70299588E-03  2.57907421E-03 -7.83258575E-04 -1.36611205E-03  3.70703149E-04
  3.34843872E-04  5.58338846E-03  1.01944230E-02 -9.65537163E-04  1.40191334E-02
  6.52473325E-05  4.07829721E-03 -1.56925574E-03  6.93415793E-03 -3.28376177E-03
  5.11676654E-04  1.02262072E-03  1.37118740E-04 -1.24487273E-03 -3.78530031E-03
  1.00546049E-02 -4.69141060E-03 -6.89705348E-04  1.20177895E-05  1.91267511E-03
 -7.72714286E-04  2.40432787E-05 -2.54604948E-03  1.84710364E-06 -1.15995443E-05
  4.69240798E-04 -9.69810059E-05  5.88865329E-03  2.08339390E-02 -8.99482006E-02
  8.60289627E-03 -1.09718406E-02  2.39641499E-04 -4.61988752E-03  6.28241373E-03
  9.66692342E-05  3.15495748E-03 -1.32654423E-06 -1.42610595E-06  3.20871170E-03
 -3.10034078E-04  1.02413643E-03 -1.48850588E-03  1.32248720E-02 -8.40824541E-03
  2.10666056E-05  2.74765892E-02  4.00176049E-02  3.54089870E-03  2.57908261E-02
  3.94495588E-05  1.40647204E-04 -4.22167256E-04 -8.70345680E-05  5.64769240E-05
 -2.50459397E-03 -1.01816332E-04  1.47020707E-03  1.80038801E-03  2.04128535E-04
  1.74046586E-03 -7.42075938E-03  2.32367474E-04 -4.52832766E-05  2.51487006E-05
  1.17274021E-04 -5.76187425E-04 -9.14964631E-05 -5.33923079E-05  4.26921047E-02
 -1.07239679E-03  4.29690455E-04  6.44775074E-03 -8.69036653E-05  8.01424697E-03
 -1.34478799E-03  2.42554205E-04 -7.14729025E-05  9.17641421E-06  1.79789971E-06
  4.62057320E-04  4.26828511E-04  2.43511580E-05  5.85668636E-02 -3.15834164E-03
  1.21827133E-03  8.39662949E-03  4.70107742E-04 -2.92357497E-03  1.82867185E-03
 -6.65885238E-04 -4.68414919E-04  1.96800843E-04  5.92805211E-04 -1.57316305E-03
 -2.05027840E-03  3.39775695E-05  2.56980933E-02  5.31821963E-03 -1.35534146E-03
  7.30840514E-03  2.11924809E-04 -7.42107986E-03 -6.85917715E-03 -1.52339678E-04
 -2.94421687E-04 -7.29048812E-06 -3.66088830E-05  4.29386547E-04  2.43421926E-04
 -5.07673022E-04  4.88323654E-03 -8.94608116E-04 -2.72127592E-03 -1.60084954E-04
  4.74694605E-04  4.09546137E-03 -2.21145850E-03 -5.93193318E-04  3.37928251E-04
  2.97585503E-05  1.03799181E-04 -2.84482230E-04 -4.82766830E-05 -2.32792998E-05
 -1.15947400E-02  9.82694806E-04  1.34517406E-03 -1.48749343E-03 -1.69979428E-04
  7.42015680E-04  5.33540047E-04  1.42207915E-04  3.70476827E-06  2.44396657E-05
  8.27293734E-05 -1.29213272E-04 -1.19325566E-04 -9.67579266E-05 -8.27067190E-03
 -7.22172809E-05 -2.82031383E-04 -3.33324299E-03  8.89331961E-05 -1.74829179E-03
  1.11977733E-03 -1.46942102E-05  1.83748719E-04 -4.94723651E-04 -1.77183868E-03
  3.86410821E-03  5.06585274E-03 -1.84371339E-03 -2.32671950E-02  1.65544111E-03
 -6.21104182E-04 -1.23904103E-02 -7.76199250E-04 -2.85181963E-03 -8.14534844E-05
 -2.52003483E-04 -1.81270922E-04  1.43362928E-03  9.35070108E-04 -2.63011231E-04
  9.12063968E-04 -1.16188960E-03 -4.97323362E-04  7.48418035E-04 -2.61499521E-04
 -8.74473163E-04 -6.37563744E-04 -3.81589029E-05 -1.30431877E-04  5.06896374E-04
 -3.93196770E-05 -6.09185462E-05  9.76595405E-04  6.55522097E-05 -1.62558811E-07
  1.31220218E-03 -5.20653524E-05  1.90557145E-05 -5.23089503E-04  1.17778427E-05
 -3.96656297E-05  8.85206145E-05  3.11709572E-04 -1.32940041E-03  1.62487079E-04
 -1.67251041E-04  9.40713809E-03 -9.57218769E-05  7.92896840E-05  5.09096133E-03
  5.53474344E-05  2.28565516E-05  2.44017779E-04  4.10319327E-05  3.33238450E-05
 -7.86255870E-05  4.43702889E-04  2.38360150E-04 -1.14159587E-04  5.22895338E-03
  1.60057784E-04  1.78390250E-03  2.59616062E-04  2.23515629E-04  7.06325357E-03
 -2.78902181E-03 -9.79406770E-03  3.43206100E-02  2.08704896E-02  2.98289891E-02
  1.94540011E-04  4.71288147E-02  3.70991336E-03  1.85219799E-04  9.71715406E-03
  3.51381381E-05 -5.40298873E-05  8.79433576E-04 -2.50717555E-03 -1.34343710E-03
 -4.89472226E-03  1.72020255E-02  7.44737946E-03  5.92716319E-03  4.42671727E-05
 -1.78033491E-02 -1.41733279E-02 -3.50273772E-04 -1.35181936E-02 -8.74919290E-05
 -2.49653342E-05  5.91588203E-03 -9.66448744E-03 -2.40476678E-03 -8.43009401E-03
  2.83089699E-02  8.92845176E-03  2.92716444E-02 -3.76656557E-04 -3.85463631E-02
  2.04473681E-02  1.08255034E-03  3.50497600E-03  1.57374765E-04  2.35953998E-04
  1.56944779E-03 -5.64689516E-03  1.90468015E-03  7.31662386E-03 -4.08348751E-02
  1.73549267E-02 -4.93308089E-02 -1.73638999E-04  1.08233437E-01  1.13717321E-02
 -2.35027060E-03 -2.06082395E-02  1.96672809E-04  4.77926739E-06 -6.57117289E-02
  5.90857704E-03 -1.90419811E-02 -6.63512037E-02  2.15434723E-01  1.51957547E-01
  2.66762126E-01  4.74234099E-05 -3.45995828E-02 -1.37680253E-01  6.62417649E-04
 -2.36917239E-02  4.46397572E-04 -2.86602168E-04 -3.18710806E-02  6.93425394E-02
  2.38524550E-03  9.10552921E-03 -4.76830932E-02 -3.60571339E-02 -2.06520169E-02
 -1.18150674E-04  2.28239799E-02  1.25316219E-01  9.48145517E-05 -1.95599755E-02
  8.00839105E-05 -2.63022814E-05  2.33728240E-02  6.59061820E-02  6.76150361E-04
  2.43987308E-03 -7.38481760E-03 -1.17983140E-02  1.26485539E-03  4.58211633E-05
  6.82289455E-03  3.95156814E-03  1.36481086E-06 -6.10021779E-03  3.50833513E-05
 -5.42292632E-06 -2.17040170E-04  6.22081143E-03  1.11874118E-03  4.22799421E-03
 -9.31912801E-03  9.51365108E-03 -1.67763389E-02 -8.84800444E-04  4.44184180E-02
 -1.94209622E-02  4.54611089E-03 -1.44747629E-03  1.47534573E-03 -4.03360642E-04
 -3.68836612E-03  1.12186307E-03  6.41914990E-03 -4.30720179E-02  8.39098840E-03
 -8.41765288E-03  1.90930043E-03 -3.53422629E-04 -2.85989533E-02  2.29329677E-03
  6.93718903E-03  2.57984797E-04 -7.11671180E-04 -2.58258817E-03  1.25787466E-02
  8.65989371E-03  3.65709803E-04 -1.03051851E-04  5.58539167E-03  2.57993240E-03
 -5.58916843E-05  7.70859047E-04 -6.81236071E-06  3.63068982E-06 -1.29162927E-03
  6.89567838E-04 -7.42482030E-04 -2.81051319E-03  1.41626412E-02  1.45983650E-03
  3.64905582E-03 -8.12091109E-05 -2.55240757E-03 -3.09568018E-03 -4.19930421E-05
  8.67819391E-04 -9.10100291E-06 -1.03534287E-05 -1.15986124E-03 -1.17070740E-03
  6.53655629E-03 -1.75534327E-02 -1.83211511E-03 -1.49915162E-03  8.34793419E-05
 -7.18298044E-03 -2.36462545E-02  2.54748041E-03  2.07385155E-03 -1.34384837E-04
  2.16283529E-01  8.92632252E-04  6.86007042E-03 -4.15964784E-02 -2.98627066E-02
  3.23554839E-02 -3.09257925E-03 -4.54410891E-02  5.86730118E-02 -5.62442237E-04
  6.98532403E-03  3.84522889E-04 -3.80923778E-04  2.96216776E-02  1.43798539E-02
  7.06790344E-03  2.70501390E-02 -9.47902450E-02 -9.81224257E-03 -3.00540671E-02
  4.68143363E-03 -1.43578953E-01  3.29583310E-02  3.02363633E-03  1.40290870E-02
  1.58207262E-03 -4.98650989E-04 -8.81360227E-03  7.42696491E-03  4.71698658E-03
  2.04096334E-02 -8.12505411E-02  1.90069308E-02  3.01948016E-03  5.21607683E-03
 -1.64139466E-01 -7.76784144E-02 -5.57520273E-03  2.93456342E-02 -6.11328672E-04
 -2.03731084E-03 -2.33500332E-02 -1.20085319E-02  7.16179547E-03  2.28684602E-02
 -7.06509258E-02 -4.82688348E-03  2.30590069E-02 -1.44088416E-02  3.91182563E-02
 -1.23676770E-01  1.28986470E-02 -7.59249996E-03 -3.39572075E-03 -2.66295964E-04
 -5.14017951E-02 -2.28057101E-02 -2.15679703E-02 -7.64656224E-02  2.62733205E-01
  8.34490132E-02  1.82425466E-01  3.43978184E-03 -1.44417704E-02 -1.94855987E-01
 -6.58920146E-03 -1.00242789E-02 -2.00970309E-04  2.00527604E-03 -2.02858150E-02
  5.51827530E-02  5.35419664E-03  1.63770018E-02 -4.60958079E-02  5.48245849E-02
 -1.86222321E-02  2.37318393E-03  2.54149913E-02  1.33241046E-01  3.24702516E-03
 -1.34002981E-02  1.45147119E-03  3.89217371E-04  3.68031177E-02  4.41324386E-02
  1.40882210E-03  4.54577409E-03  4.75685477E-03  1.67290991E-02 -8.17797257E-03
 -3.27823120E-03 -4.26015756E-02 -4.13717933E-03 -1.72801075E-03  3.20210357E-02
 -1.12741814E-03  7.44491921E-05  3.54393211E-02  2.34027298E-02 -7.75095906E-03
 -2.65941714E-02  5.10690693E-02  8.07097580E-02  1.03207852E-02 -3.71192811E-02
 -1.16299287E-02  1.71630389E-02 -3.17878350E-02 -1.40808245E-03  3.30308902E-03
  1.33660678E-03 -3.28083502E-03 -5.81077622E-03  2.92165235E-02  5.55458154E-02
 -8.39998211E-03  2.06533087E-02 -3.39477987E-03  3.93804920E-02  6.51162129E-02
 -1.41894518E-02 -1.82045451E-02 -5.91514257E-03  5.74855211E-03  2.08512419E-02
 -9.72808392E-02 -3.11731150E-03  2.49572268E-02  3.16479672E-03  4.14170216E-03
 -9.05416751E-03  1.78992395E-03 -2.86016803E-03  4.67205480E-05 -1.39167317E-04
  6.62972875E-03 -2.36103974E-03  1.36308998E-02  4.94446060E-02 -2.25123693E-01
  1.11739869E-02 -2.93713505E-02  3.35228058E-03 -1.46901079E-02  1.86085616E-02
  1.84643115E-03  5.70600725E-03  2.86350643E-05  1.30725411E-04  6.76981770E-03
  1.74805893E-03 -9.73268658E-03 -9.53570128E-03 -7.67931186E-04 -2.25227761E-02
  1.53561666E-04 -2.36128984E-02 -1.29347498E-03  2.33786591E-02 -1.57587012E-03
  1.77421226E-03  1.59818749E-01  2.12486193E-01  7.55635445E-04  2.42917705E-03
 -4.08144695E-03 -3.69926486E-03 -5.75630481E-04 -2.55169341E-04 -1.82111585E-02
 -1.18732302E-01 -9.81256481E-05  4.12674995E-03 -1.15579071E-05  1.16593387E-04
 -1.03724150E-02 -5.89365342E-03 -2.06047413E-04 -1.44743408E-03  9.30722172E-03
  1.04289754E-03  2.09099538E-03 -7.98854952E-04  9.06774345E-02 -7.13969438E-02
  3.16651514E-05 -5.99415630E-03 -1.52465841E-05 -5.82725246E-05  1.05203336E-03
  4.22597638E-03 -2.53447812E-03 -9.63737885E-03  3.32496869E-02  8.83403350E-03
  2.02721977E-02 -6.21602318E-05  7.78069261E-02  8.38509715E-02  8.21314274E-05
 -6.23944545E-03  1.10261968E-04  4.45321380E-04 -7.60790265E-03  6.15889195E-03
 -6.62694893E-03 -2.21441865E-02  6.69029739E-02 -3.84819727E-02  1.25451729E-02
  3.67622651E-03 -1.72229977E-02  1.35506048E-01  3.13037925E-04  6.85704255E-04
  1.41349690E-03  9.39615758E-05 -1.17659314E-02  9.77931743E-03  6.12384119E-03
  2.12776331E-02 -6.72379528E-02  7.53761792E-02 -5.27775068E-02  5.02142633E-04
 -1.17992831E-01  1.11279027E-01  6.27995019E-04  4.46661476E-03  1.55944449E-04
 -5.23928576E-04 -2.05311173E-02 -1.60803243E-02  4.96645890E-03  1.76627703E-02
 -5.69947072E-02 -8.40831563E-02  2.06809638E-02  2.79946310E-05 -1.10432244E-01
 -9.18855916E-02 -7.24166843E-05  1.02141744E-02  5.47192816E-05  4.86762067E-05
 -1.24671142E-02 -1.88614906E-02  1.25648972E-03  4.30648850E-03 -8.47217427E-03
 -7.84702161E-03  6.54501506E-03  1.18856857E-04 -4.35384029E-03  2.22094614E-02
  1.13677148E-04  9.88424477E-04  2.84808542E-05 -6.86402717E-05  4.58706444E-04
 -1.97668638E-02 -1.07036305E-03 -3.34188562E-03  3.59453137E-03  1.84511348E-02
 -3.10314045E-03  6.83584421E-03 -2.07648047E-02 -2.10080324E-02  5.68169670E-04
 -3.13756569E-03 -4.18857417E-04 -8.77284942E-04  5.70628137E-03 -1.57557982E-03
  9.53185770E-03  1.25056913E-02 -2.65270615E-03  2.79214280E-03 -3.51878691E-04
  4.60284754E-03  2.80045414E-02 -2.53278998E-03 -1.03044824E-02 -1.11082256E-03
  6.60571569E-03  2.29708336E-02 -9.48296303E-02  1.13926861E-02  1.33973337E-02
  1.82021904E-04 -7.56806766E-03 -4.49766482E-03  4.69614844E-05  5.56118837E-03
  1.14779208E-06  2.01071221E-05  1.50824916E-03 -6.14493231E-04 -5.91303891E-03
 -2.05246431E-02  8.39692899E-02 -1.39173009E-02  1.12199489E-02 -3.53713426E-04
  7.12484233E-03 -2.42405071E-03 -1.62875366E-04 -5.05188644E-03  5.29078617E-06
  8.20068221E-06  4.46955837E-04  1.97498299E-03  7.93722611E-04 -2.33281535E-02
 -1.90908261E-02  3.77327584E-03 -8.86973973E-05  2.55655911E-03  2.32716303E-02
 -4.95542475E-03  5.22562839E-03  5.91218214E-05 -2.02056228E-02 -3.28791175E-02
  3.29193153E-02 -1.95156341E-03 -7.76606717E-03  3.11672670E-02  1.59716861E-02
  7.54172099E-03  6.07041514E-05  8.44577426E-03  9.42402972E-02  9.10768480E-05
 -3.12683452E-03 -4.41197616E-05  1.00252613E-05 -7.56265530E-03 -8.30522397E-03
 -1.97576766E-03 -7.48987006E-03  2.54733849E-02  3.69181628E-03  6.06375354E-03
 -6.34724147E-05 -2.74358340E-02  7.11357528E-02 -1.91269236E-04 -2.61208671E-04
 -3.09902330E-05  6.46742952E-05  1.17699331E-03 -2.40667676E-03 -6.81628883E-04
 -3.19996939E-03  1.76097158E-02 -5.29995419E-03  2.31892365E-03 -1.59569710E-04
 -3.23344983E-03 -3.28337090E-02  8.22109238E-05 -4.31856132E-04  8.74421723E-05
 -1.02810793E-04  1.95239795E-02  3.51833117E-03  4.50682171E-03  1.54940379E-02
 -4.42628389E-02  4.43462236E-02 -6.03570281E-02 -2.35859293E-04 -6.79899920E-03
 -3.37564192E-02 -7.54557037E-04  8.68607945E-03 -6.12722084E-04 -3.06860365E-04
  3.03716777E-02  2.11732941E-02  1.01777305E-02  3.60429707E-02 -1.18179184E-01
 -4.06057722E-02  1.85993354E-02 -1.21231591E-04  9.02604494E-02 -4.44835576E-03
  1.13082337E-04  1.15005899E-02 -7.52476900E-05  8.15084046E-05  8.61620999E-03
  5.88060771E-03 -1.27495103E-03 -4.12331661E-03  1.72667480E-02 -1.96373044E-02
 -1.54854530E-02 -1.87042913E-04  8.43605040E-02  4.35715616E-02 -1.83614431E-04
  6.03291228E-03 -4.93439348E-05  1.89606470E-05 -2.20083112E-02  4.60822105E-03
 -3.42238821E-04 -1.05282783E-03 -1.76118618E-03 -7.12830946E-03 -3.70912508E-03
  1.00974926E-04  1.31454951E-02 -1.75410120E-02  1.30634610E-05 -8.87921222E-03
  1.14084722E-05  2.84236457E-05 -8.75539251E-03  9.35709287E-03 -1.43563564E-03
 -5.03169262E-03  1.04996615E-02 -1.93090285E-02  2.54131910E-03  1.04137175E-03
  6.61165445E-03  2.57314100E-03  7.52699852E-04  1.38437673E-03 -3.72087450E-04
  3.36722136E-04 -5.57963576E-03  1.02027407E-02 -6.95738553E-03  3.40413623E-03
 -5.18344147E-04  1.04195051E-03 -1.39080437E-04  9.48362466E-04 -1.39110611E-02
 -6.97287132E-05  4.06273986E-03  1.57166608E-03 -5.87559127E-03 -2.07874453E-02
  8.97372540E-02 -8.58857194E-03 -1.09338679E-02 -2.12192174E-04  4.61975524E-03
  6.23462925E-03 -9.53618683E-05 -3.15946393E-03  1.21253350E-06 -3.88573434E-06
 -3.19869549E-03 -3.32875789E-04  1.26987247E-03  3.87423510E-03 -1.04461364E-02
  4.70895197E-03 -7.66363309E-04  4.08481179E-05 -1.92924243E-03 -7.53885753E-04
 -4.09555658E-08  2.55201440E-03  3.24821753E-07 -1.12813293E-05 -4.60451551E-04
 -9.24979476E-05  2.95756066E-03  4.43274376E-02  1.93825060E-02  4.98436841E-03
  2.21490078E-05 -2.08033437E-03  1.62365030E-03 -5.23092346E-03  9.54052714E-04
 -1.10413218E-04 -2.75018382E-02 -3.99737540E-02 -3.53028013E-03  2.57944720E-02
  3.87930993E-05  1.38043235E-04 -4.12240860E-04 -7.46196680E-05 -4.33532941E-05
 -2.51374268E-03 -7.73164059E-05 -1.26165243E-03  1.80140320E-03  2.10129505E-04
  1.74279876E-03  7.42021650E-03  2.42638009E-04  4.16081659E-05  2.93446890E-05
  1.02528031E-04 -2.84746526E-04 -3.99057132E-05  2.64985092E-05 -1.15969867E-02
  8.36234685E-04 -1.21142458E-03 -1.48546967E-03 -1.65299306E-04  7.43676207E-04
 -5.35063589E-04  1.48204617E-04 -2.41449344E-06 -7.88846054E-06 -3.92967111E-05
  4.42749212E-04  2.42402791E-04  5.18642849E-04  4.88633678E-03 -1.01526682E-03
  2.61369885E-03 -1.58171886E-04  4.73333461E-04  4.09863995E-03  2.21156020E-03
 -5.87380113E-04 -3.34074249E-04  1.97383760E-04  5.95204334E-04 -1.58261349E-03
 -2.04049418E-03 -5.94945466E-05  2.57142868E-02  5.32723784E-03  1.18223360E-03
  7.30266087E-03  2.13972542E-04 -7.41565125E-03  6.86184026E-03 -1.40464014E-04
  3.13582131E-04  1.36710287E-05  1.76080784E-05  4.07526224E-04  4.08574863E-04
 -3.77992105E-05  5.85648113E-02 -2.99629061E-03 -1.32813348E-03  8.40483709E-03
  4.76246250E-04 -2.92307409E-03 -1.83080184E-03 -6.65309582E-04  4.81118265E-04
  2.34995722E-05  1.12118674E-04 -5.60286508E-04 -6.92495619E-05  2.48200840E-06
  4.26828258E-02 -9.08544534E-04 -2.97154258E-04  6.44109404E-03 -9.32623336E-05
  8.01330059E-03  1.34497370E-03  2.35328202E-04  7.88783332E-05  2.35066769E-05
  7.96129662E-05 -1.26201090E-04 -1.17291579E-04  8.33069099E-05 -8.26275611E-03
 -6.13524927E-05  2.47241815E-04 -3.32998137E-03  8.27235116E-05 -1.74887027E-03
 -1.11791716E-03 -2.69902514E-05 -1.62938918E-04 -4.94429502E-04 -1.77108824E-03
  3.86386279E-03  5.05843527E-03  1.86812898E-03 -2.32426104E-02  1.66199883E-03
  6.53583806E-04 -1.23762778E-02 -7.75291016E-04 -2.85346244E-03  8.49676898E-05
 -2.53779340E-04  1.86406343E-04 -4.97286592E-04  7.50484321E-04 -2.58399605E-04
  8.77571413E-04 -6.36681124E-04  1.43279447E-03  9.14012461E-04 -2.63049912E-04
 -9.03553942E-04 -1.15926949E-03  7.95009603E-05  2.80068788E-04 -1.19533217E-03
  1.56431830E-04  1.57305117E-04  9.40226840E-03 -8.19817874E-05 -6.76787022E-05
  5.09053592E-03  4.97651466E-05  2.35096302E-05 -2.43530603E-04  3.84691108E-05
 -3.31040120E-05 -3.42959102E-05 -1.16866254E-04  4.50909611E-04 -1.34798244E-05
  6.49066625E-05  9.95305276E-04  6.28830400E-05  4.53790779E-06  1.31874922E-03
 -4.78602782E-05  1.81299996E-05  5.22377307E-04  1.06183693E-05  3.72330082E-05
 -9.01815655E-05 -6.24938905E-05 -1.55394382E-04 -2.28642962E-05 -4.67796242E-04
 -1.37293094E-04  1.75681836E-03  6.82226656E-05  1.16704753E-04  1.05802421E-03
  1.48576284E-04  1.77596695E-03  2.47071874E-04 -2.08097748E-04  7.06189448E-03
  2.08376770E-03  7.93149929E-03 -4.26979755E-02 -1.98134064E-02 -4.65710596E-02
  1.51342869E-04 -4.99988995E-02  3.97450451E-02  3.52502502E-04 -1.50163601E-02
  4.35377037E-05  1.53405329E-04 -7.37918983E-02 -1.12017150E-02 -2.25573099E-03
 -7.82540133E-03  2.45037958E-02 -6.93282317E-03  2.87424382E-02 -1.42035702E-04
  3.34098589E-02  5.29605052E-03 -3.88698175E-04  2.21005486E-03 -1.44999667E-04
 -2.71961473E-05  4.60773255E-03  9.45628787E-03 -1.33538375E-03 -4.84866982E-03
  1.67349861E-02 -7.32474006E-03  5.56512801E-03 -1.85964914E-04  1.28190384E-02
 -2.96784789E-03  1.16506689E-03 -1.13120748E-02  1.27042113E-04  2.59798328E-04
  4.44850860E-03  1.24183362E-02 -3.00857749E-03 -1.05659302E-02  3.73634400E-02
 -2.12053799E-02  3.07035384E-02  2.59259842E-05  1.52916217E-02 -1.48621172E-02
 -2.35315043E-03  2.52915286E-03 -9.83360239E-05  2.32911565E-04  9.22159553E-03
  3.12627217E-03  2.43729550E-03  9.25537235E-03 -4.74383968E-02  3.61525215E-02
 -1.88688076E-02 -2.93789918E-04  5.86373752E-03  8.93256465E-02  1.15912367E-03
 -1.77396039E-02  1.03333673E-04 -2.01672017E-04  2.17224116E-02 -6.82610349E-02
 -1.90534165E-02 -6.64525908E-02  2.18006462E-01 -1.55283183E-01  2.71730711E-01
  7.63312502E-04  6.70467205E-02 -1.07191281E-01 -5.75851477E-04 -2.47599904E-02
 -2.57199427E-04  2.25464617E-04 -3.19963033E-02 -7.27111565E-02  7.80203337E-04
  2.90583319E-03 -7.94014925E-03 -2.24630657E-02 -9.08912124E-03 -3.09632983E-05
 -3.28140101E-03 -1.83232771E-02 -9.46543574E-05  4.63675074E-04  2.66325008E-05
 -1.81970442E-05  2.53508341E-03 -6.09289262E-03  4.89607643E-04  1.64970762E-03
 -3.10145652E-03  7.73060352E-03 -3.98978963E-04 -1.03285026E-04  3.21910766E-02
  8.16914008E-04  4.90861335E-03 -5.47262493E-03  1.07227155E-03 -4.28696481E-04
  3.81075909E-04 -6.41652226E-03  5.65191822E-03 -3.31609496E-02  4.85566688E-03
 -9.13705267E-03  7.01623141E-04 -1.01262416E-03 -3.40061710E-02  7.72837878E-03
  3.88164892E-03  1.08814867E-03 -1.15215393E-03 -4.28842902E-03  1.97390969E-02
  8.12744640E-03 -1.68198799E-03 -4.34948929E-05  3.66779654E-03  8.43486929E-04
  3.40691299E-06 -6.57973130E-05 -1.22223200E-06  8.05167061E-06 -1.08347026E-03
  1.27014216E-03  8.73765917E-05  2.54496840E-04 -1.37051243E-03 -7.43104564E-03
 -1.27155659E-02 -7.02436137E-05  4.88985162E-04 -8.28645086E-03 -1.71730233E-06
 -1.25896810E-03  1.00989466E-05 -1.93082371E-06  5.49527147E-04  3.04654518E-03
 -7.63637224E-03 -3.33062935E-02 -3.68646123E-03  2.18990454E-03  5.82827966E-05
  6.54020682E-03 -9.74198481E-03  7.42552815E-04 -2.98468881E-03 -9.69852300E-05
 -1.77442835E-02 -4.64860778E-02  2.09448341E-02 -1.05441443E-03 -8.41368662E-05
  2.14892614E-01  2.28557337E-03  6.89518512E-03 -1.52930279E-02 -3.06873658E-02
  3.42417276E-02 -1.39742920E-03 -3.63305424E-02 -6.03068609E-01 -2.07489811E-04
 -5.16862854E-03 -5.97886520E-05  7.01243254E-05 -2.97666915E-02  5.64634322E-02
  8.95446836E-03  3.48479214E-02 -1.20548211E-01 -4.10214620E-02  1.06513694E-02
 -9.21092455E-06  4.64739720E-01 -3.82517497E-01  7.54283694E-04  2.24750330E-02
  3.83485679E-04 -2.17810251E-04 -4.87331149E-02 -1.81775672E-03  1.19974708E-02
  4.55856838E-02 -1.57177934E-01  1.88656886E-02 -4.12568659E-02  1.35478713E-03
  4.39007036E-01  2.19874129E-01 -1.80363487E-03  2.76802265E-02 -2.75364337E-04
 -6.65034982E-04 -9.92183596E-03 -2.38590274E-02  1.02597395E-02  3.97647694E-02
 -1.37652107E-01  3.02022442E-02  2.60267502E-02 -3.12787963E-04 -5.79922386E-02
  3.87782276E-01  2.78437584E-03  4.53046162E-02 -9.72444013E-04  2.04859574E-04
  3.18572849E-02 -2.65789925E-02  1.05851042E-02  3.61473509E-02 -1.12466125E-01
 -5.48873355E-02 -3.92007575E-03  1.52609458E-03 -3.02312177E-01  3.49793744E-01
 -5.87349670E-04  1.38536891E-03 -3.29877512E-05  3.61776214E-04  5.36992133E-02
 -3.30616219E-02 -1.83017203E-02 -6.47537039E-02  2.19694447E-01 -1.04507410E-01
  1.64473596E-01  8.68206033E-04 -3.65957333E-01 -5.02019339E-01 -2.78991166E-04
  8.81818812E-03  3.64850141E-04 -1.80037661E-05 -3.16450320E-03 -3.53375454E-02
 -8.30369218E-04 -2.01515440E-03 -3.57142610E-03 -1.25307538E-02  3.17925381E-02
 -5.66367334E-04  1.45250923E-03  1.17164043E-01 -4.71472347E-04 -7.40391707E-03
 -3.16268692E-04 -1.87485409E-05 -1.25708894E-02 -7.16249481E-02  4.09829983E-03
  1.40697728E-02 -2.56950162E-02  3.03787709E-02  5.26748643E-03 -4.75897848E-03
  1.22175563E-03 -4.07787680E-02 -6.48095274E-03  9.38651623E-03 -1.01510886E-03
 -8.49589677E-04 -2.05183908E-02 -8.83603136E-03 -6.77464470E-03  6.52778222E-03
  3.73429662E-04 -5.51424796E-03  2.30662090E-03 -4.16855076E-03  5.28860309E-02
  5.63024976E-03 -1.16496826E-02 -2.20759715E-03  1.69003561E-02  6.29851795E-02
 -2.94649490E-01  5.85253841E-02  1.36805559E-02  7.89091653E-04 -1.32052310E-02
 -2.78034269E-02  4.44093490E-04  2.02061872E-02  2.16030155E-05  1.38308191E-05
  8.34810169E-03  7.33570676E-04 -2.78576137E-02 -9.67856607E-02  3.97131474E-01
 -9.73702440E-02  1.48341686E-02  1.11188708E-03  1.13895979E-02 -3.36280453E-02
  6.56026132E-04 -2.34283777E-02  6.74458402E-05  1.78900560E-05 -9.07113317E-03
  6.89357060E-03 -3.33077329E-02 -1.07890637E-01 -1.03513146E-01  2.60519685E-03
 -6.93610720E-05 -1.75683127E-02 -9.50774573E-03 -2.32955060E-02 -4.42733890E-02
 -1.04780168E-04 -5.61773759E-02 -5.55756083E-02  2.52454838E-02  1.50905339E-03
  4.11853228E-04  1.42245536E-01  3.16225935E-01  8.04123268E-03  2.71447069E-02
 -7.97452745E-02 -2.80339035E-02 -1.00308370E-02  9.22164206E-06  4.21673515E-02
 -4.93677907E-01 -4.05248109E-05  1.13827797E-02 -4.25331114E-05 -9.42799480E-06
  1.33392115E-02  3.88200784E-02  4.11707558E-03  1.47666503E-02 -3.97911054E-02
 -7.46899986E-04 -1.82902191E-02 -1.76103151E-05  3.41032621E-01 -3.25636419E-01
  1.79819585E-04  1.07037904E-03 -5.34124052E-06 -7.64680132E-05 -8.68799014E-03
  3.14608665E-03  2.19208383E-03  8.59107725E-03 -3.26746487E-02  6.35514852E-03
 -9.17302838E-03  1.76004044E-05  3.15828949E-01  2.10843410E-01 -2.13077016E-04
  7.12689463E-03 -9.45738557E-05 -7.64870784E-05 -1.30885837E-02 -4.63810825E-03
  1.08212208E-03  4.11166799E-03 -1.63303703E-02  2.19397713E-03  4.28459837E-03
 -1.00480168E-04 -1.89563566E-03  3.32404761E-01 -3.74358125E-04 -8.56056219E-04
 -6.40409601E-05  8.01678806E-05  1.42595026E-02 -2.32169496E-02 -3.55267576E-03
 -1.21517529E-02  3.56860762E-02 -7.96171306E-02 -1.94653820E-02  1.73104785E-04
 -2.83181379E-01  2.28460852E-01  7.81056337E-04 -5.05045669E-03  1.25919269E-04
 -1.89943908E-04  2.10091087E-02 -1.90653364E-02 -5.30111380E-03 -1.81068344E-02
  5.31408897E-02  6.77803547E-02  5.58277339E-02  2.52509982E-04 -3.52951755E-01
 -3.30209952E-01 -4.97836889E-04  9.10627484E-03 -2.78280270E-05 -1.92277052E-04
  4.20868972E-02 -1.25072083E-02  9.27951343E-04  3.10225011E-03 -1.07372586E-02
 -2.88907926E-03  3.02914183E-02 -1.36970170E-05  3.50638421E-03  9.29203597E-02
 -5.93777219E-05 -1.24485641E-02  2.83454142E-05 -1.19872157E-04 -2.62734147E-02
 -6.54291919E-02 -8.26639403E-04 -2.89319447E-03  6.70231226E-03  2.15338658E-03
 -5.88566196E-04  4.12455577E-04  1.08353205E-02 -3.67369850E-02  1.08215180E-03
  7.01725483E-04  5.84308907E-04 -6.54975448E-04 -1.85921556E-03 -4.20316939E-03
  1.52590704E-03 -2.63970044E-02 -7.07798413E-04 -7.04810150E-03  1.91122601E-03
  2.55135145E-03  1.21420964E-02  2.24149272E-03 -4.37574107E-03 -2.03112265E-03
  1.30157759E-02  4.60966176E-02 -1.94501339E-01  3.62259364E-02 -8.41779210E-03
  2.57048537E-04 -1.81973390E-02 -2.43322153E-02  1.01036702E-04  1.70600084E-02
 -6.21166188E-06  3.85761247E-05  6.10179049E-03  8.34642355E-04 -2.55798347E-02
 -9.08777579E-02  3.93362631E-01 -8.18241955E-02  3.25621892E-02 -2.55322083E-04
  9.56051736E-03 -2.65579840E-02 -1.64408527E-05 -1.88661123E-02  2.56570855E-05
  1.62436147E-05 -9.96012303E-03  2.39663679E-03 -3.65184475E-03 -1.03449176E-01
 -6.90903130E-02  2.66203377E-03  2.21082266E-05 -1.83205884E-03 -8.34697421E-04
 -1.91044166E-02 -1.93597368E-02 -1.90060182E-04 -2.50857995E-02 -2.93966990E-02
  1.22572112E-02 -1.32455493E-02  2.11282272E-04  2.12766238E-02  1.33072855E-01
  1.12176709E-01  6.02960633E-03  2.07342827E-02 -5.87257279E-02 -3.71184256E-02
 -6.07812247E-02  1.68677613E-04  7.12143689E-03 -5.47473040E-02 -2.48637534E-04
  1.14206025E-02 -1.87638851E-05 -3.42511847E-05  2.97843551E-02 -1.23500820E-02
 -2.26624703E-04 -1.63575419E-03  1.53210387E-02  2.29404341E-03 -1.72481395E-04
 -5.51141048E-05  8.23382126E-03 -3.90666929E-02  3.10762866E-04  8.62942259E-04
 -1.41546186E-06  3.99370434E-05  1.42627580E-02 -2.75681800E-03 -1.23886293E-03
 -5.00667224E-03  1.89315271E-02 -1.55751979E-03  3.75603282E-03 -1.93781126E-04
  2.19676127E-02  4.42629313E-02 -8.60884819E-04 -1.38314625E-03 -2.07326187E-04
 -1.61424100E-04 -5.15699204E-03 -1.23912708E-03 -2.17497272E-03 -8.39552546E-03
  3.17124769E-02 -1.28369521E-02  1.00717145E-02  4.12175616E-05 -3.31730686E-02
  7.27788420E-02  1.82001949E-03 -2.42353089E-03  4.70089733E-04 -1.59493000E-05
 -1.17512794E-02  6.64459370E-04 -8.98351947E-04 -2.73703060E-03  1.15470144E-02
  2.15749947E-02 -1.54769713E-02 -2.08190704E-04 -7.28747609E-02  4.79551918E-02
 -6.36024029E-04  7.55874330E-03 -1.16818322E-04  1.03189936E-04 -2.04413544E-02
 -2.55675107E-03  1.07847330E-02  3.83540175E-02 -1.26892728E-01  3.98718461E-02
  2.25657314E-02 -1.55819395E-05 -9.62620080E-02 -1.58957357E-02  3.29921844E-04
  1.61062431E-02 -2.16245974E-05 -1.06451786E-04  1.34256962E-02 -7.18074718E-03
 -2.73753952E-04 -1.17148048E-03  4.73045495E-03  1.81089139E-02  3.30420775E-03
  7.52413113E-05 -1.31610372E-02  4.59319382E-03  1.16059239E-04  4.00062657E-03
  5.89638403E-05 -1.83784202E-05 -7.24052710E-03 -1.57021343E-02 -3.01365273E-04
 -9.55727349E-04  6.91140241E-04  4.72420370E-04 -2.53415298E-03  5.40110204E-04
 -3.09579464E-02 -1.10363823E-02 -3.58031297E-03  1.11206970E-03 -7.98670844E-04
 -3.34555936E-04  5.22394769E-03 -1.27783506E-03  1.80407827E-03  2.28168499E-02
 -4.47266787E-03  4.65547400E-03 -4.80029796E-04 -1.34661310E-03  3.34416594E-02
 -5.19932848E-03 -8.00841370E-03 -1.45444979E-03  3.73729437E-03  1.29625961E-02
 -5.41896560E-02 -5.14556126E-03  6.34448842E-03 -5.66738821E-06 -1.02295146E-02
 -3.50359939E-03 -2.20207881E-05  2.14084922E-03 -4.81117166E-06  4.86451341E-06
  2.31994159E-03 -4.47615537E-04 -3.54344252E-03 -1.23333494E-02  5.10966594E-02
  7.39985633E-03  2.07724343E-02 -2.35416324E-04  1.23190843E-02  6.47845188E-03
 -1.11353883E-04 -3.39823609E-03 -5.26039790E-07  1.06741524E-05  1.63131795E-03
 -4.39134110E-04 -2.16292072E-03 -2.55686628E-03 -2.60292319E-03  9.10757085E-04
 -8.53504398E-05  1.50337898E-03  2.24643773E-02 -3.74373657E-03  4.99878328E-03
  1.78493064E-05 -3.31605407E-03  3.27548073E-03  1.04562337E-02 -8.38756840E-03
  9.89003757E-05 -2.77236372E-02 -2.10006338E-02  1.19837744E-02  2.67319960E-02
 -2.42418211E-05 -8.42435681E-05  2.37653389E-04  1.75022467E-04 -9.58888171E-05
  2.48490605E-02  3.85911637E-04 -2.47016916E-04  1.14435968E-03  7.97352377E-06
  1.50618516E-03  6.34377901E-03 -2.24822574E-05 -3.24140640E-05 -3.49265286E-05
 -1.33508288E-04  4.82055300E-04  1.22726981E-04  1.04419530E-04 -5.48911439E-03
  4.79167937E-04 -3.27571884E-04  8.95737591E-04 -1.22848825E-04 -3.08435815E-03
  2.59826659E-03  7.51865111E-05 -1.10484330E-04 -9.42129462E-06 -4.09663053E-05
  1.63176523E-04 -2.45510516E-04 -1.46334733E-04 -9.40448231E-03  4.51885972E-05
  6.98585224E-04 -1.91842589E-03 -6.07383342E-05  1.87878117E-03  9.39798245E-04
 -1.70430994E-05 -4.46909572E-05 -1.08957874E-05 -3.93574511E-05  5.36968908E-05
  2.18217876E-05  1.72372077E-04  1.14166119E-02  1.14967767E-03  1.86229481E-04
  2.41235509E-03  6.51570737E-06 -2.77208015E-03  6.69903653E-03  2.29239785E-05
 -2.17324952E-04 -3.58843202E-05 -1.24323874E-04  3.90845290E-04  5.85014582E-05
 -1.61595910E-04  4.29377346E-02 -1.59936924E-04 -5.00965626E-05  6.63915753E-03
 -2.64586981E-05 -5.01153674E-03 -4.73172826E-04  1.21038291E-07  2.36361890E-05
 -1.01622655E-05 -3.70376767E-05  8.17403622E-05  1.24111781E-04 -2.44615834E-04
  4.82550237E-02  4.06386690E-05 -1.08263385E-04  8.96671226E-03 -1.02183781E-04
  4.08957793E-03 -2.31503943E-03  7.66862381E-05  4.27700573E-05 -4.11329425E-06
 -1.32567658E-05 -2.69661444E-05 -3.79994494E-05  6.88933477E-06  3.76360004E-03
  1.88681727E-04  2.08424582E-05  3.07618793E-03 -1.39949320E-04  3.34524574E-03
  2.77786258E-03 -9.09094466E-05 -5.01775920E-05 -2.95197315E-05 -1.02208584E-04
  2.37023995E-04  3.14909692E-05 -6.98153969E-04 -5.32933373E-03  4.70084964E-04
 -1.01695596E-04 -2.29866243E-03 -1.68681083E-04 -1.36058105E-03 -4.96598097E-05
  1.83208433E-05 -1.48799012E-04 -1.96968535E-04 -3.58655064E-04 -7.16987427E-05
 -3.03599929E-05  2.59370559E-04 -6.09286731E-04 -5.09435201E-04  9.01581857E-05
  1.05289871E-05 -1.07727345E-04 -2.52400778E-05 -9.64585444E-05  4.91185284E-04
 -6.20564638E-05 -1.00029028E-04 -1.54485947E-02 -2.75937860E-05  4.30745585E-05
 -5.94190882E-03  8.13643240E-06 -2.66830314E-04 -3.83410354E-04 -2.87633423E-05
  1.40062694E-05 -4.62218518E-05 -1.69021028E-04  7.89773977E-04 -1.23779242E-04
  1.19375321E-04  8.05140362E-03 -5.76355948E-06 -6.33478303E-05  2.79043988E-03
 -6.87322348E-06 -6.52340117E-06 -5.76147060E-04 -3.50902302E-05 -1.42610563E-05
  5.32152894E-05 -7.45386732E-05  5.30549856E-06  8.84622744E-05 -4.95442951E-04
  7.65950462E-05  1.67154056E-04 -9.52134670E-05 -2.26172898E-05 -4.67941822E-04
  7.60475648E-05 -1.02329262E-04  2.61209456E-05 -2.89585330E-05  5.22686406E-03
 -5.19993282E-06 -6.32698703E-05  6.51300320E-05 -2.04332383E-05  5.79251418E-03
QEq coupling tensors                       R   N=          96
 -2.92327202E-01 -2.83786796E-05  2.08038066E-01  1.19082650E-04  1.42804919E-05
  8.42891362E-02  1.91308671E-01  4.84672072E-02  1.53190950E-01 -8.82038266E-04
 -5.59626585E-04 -3.44499621E-01  9.83979864E-02 -3.70774146E-02  4.94659982E-02
 -1.67036540E-03 -9.48269972E-04 -1.47863985E-01  3.79366255E-02  1.15867886E-04
  3.09566171E-01  1.50742525E-02  4.96360556E-05 -3.47502797E-01  9.83450440E-02
  3.70675744E-02  4.95216738E-02 -1.73547024E-03  1.10193466E-03 -1.47866718E-01
  1.91198494E-01 -4.84697412E-02  1.53165688E-01 -9.73821416E-04  9.78080293E-04
 -3.44364183E-01  3.55496662E-01  4.37103695E-04 -3.54973044E-01  5.67528277E-04
  2.15958930E-04 -5.23617433E-04 -6.77888092E-01  1.75140054E-04 -4.51586439E-01
 -1.33405586E-01 -9.51683712E-04  1.12947453E+00  2.88568043E-02  2.85296008E-01
 -2.77520481E-01 -5.70302959E-02  8.55129867E-02  2.48663677E-01  2.85447766E-02
 -2.85344038E-01 -2.76981475E-01 -5.73828830E-02 -8.60437811E-02  2.48436698E-01
  1.21064362E+00 -1.82054322E+00 -1.03461391E+00  1.24430611E-03 -1.01484749E-04
 -1.76029709E-01  1.20629760E+00  1.82292330E+00 -1.03029110E+00 -1.35113124E-03
  9.02182913E-04 -1.76006499E-01  4.42018047E-02 -2.19466175E-01 -2.13902448E-01
  3.63134387E-04  7.62983084E-04  1.69700643E-01  3.27494000E-02  2.14445399E-01
 -2.11805107E-01 -5.86553675E-04 -4.30942230E-05  1.79055707E-01  3.28129714E-02
 -2.14427922E-01 -2.11874810E-01 -6.53370469E-04 -8.25058552E-05  1.79061838E-01
  4.44770773E-02  2.19320672E-01 -2.14210862E-01  6.42609562E-04 -1.20280549E-03
  1.69733784E-01
Mulliken Charges                           R   N=          16
  8.95824364E-01 -6.34427142E-02  8.09621847E-02  2.00681714E-01  7.99413574E-02
 -6.53664228E-02  7.69538302E-02 -1.82227554E-02  2.25377735E-01  2.25531350E-01
 -6.00947850E-01 -6.00929017E-01 -4.41505346E-02 -1.73992566E-01 -1.73962428E-01
 -4.42582468E-02
ONIOM Charges                              I   N=          16
           0           0           0           0           0           0
           0           0           0           0           0           0
           0           0           0           0
ONIOM Multiplicities                       I   N=          16
           1           0           0           0           0           0
           0           0           0           0           0           0
           0           0           0           0
Atom Layers                                I   N=          16
           1           1           1           1           1           1
           1           1           1           1           1           1
           1           1           1           1
Atom Modifiers                             I   N=          16
           0           0           0           0           0           0
           0           0           0           0           0           0
           0           0           0           0
Force Field                                I                0
Int Atom Modified Types                    I   N=          16
           0           0           0           0           0           0
           0           0           0           0           0           0
           0           0           0           0
Link Atoms                                 I   N=          16
           0           0           0           0           0           0
           0           0           0           0           0           0
           0           0           0           0
Atom Modified MM Charges                   R   N=          16
  0.00000000E+00  0.00000000E+00  0.00000000E+00  0.00000000E+00  0.00000000E+00
  0.00000000E+00  0.00000000E+00  0.00000000E+00  0.00000000E+00  0.00000000E+00
  0.00000000E+00  0.00000000E+00  0.00000000E+00  0.00000000E+00  0.00000000E+00
  0.00000000E+00
Link Distances                             R   N=          64
  0.00000000E+00  0.00000000E+00  0.00000000E+00  0.00000000E+00  0.00000000E+00
  0.00000000E+00  0.00000000E+00  0.00000000E+00  0.00000000E+00  0.00000000E+00
  0.00000000E+00  0.00000000E+00  0.00000000E+00  0.00000000E+00  0.00000000E+00
  0.00000000E+00  0.00000000E+00  0.00000000E+00  0.00000000E+00  0.00000000E+00
  0.00000000E+00  0.00000000E+00  0.00000000E+00  0.00000000E+00  0.00000000E+00
  0.00000000E+00  0.00000000E+00  0.00000000E+00  0.00000000E+00  0.00000000E+00
  0.00000000E+00  0.00000000E+00  0.00000000E+00  0.00000000E+00  0.00000000E+00
  0.00000000E+00  0.00000000E+00  0.00000000E+00  0.00000000E+00  0.00000000E+00
  0.00000000E+00  0.00000000E+00  0.00000000E+00  0.00000000E+00  0.00000000E+00
  0.00000000E+00  0.00000000E+00  0.00000000E+00  0.00000000E+00  0.00000000E+00
  0.00000000E+00  0.00000000E+00  0.00000000E+00  0.00000000E+00  0.00000000E+00
  0.00000000E+00  0.00000000E+00  0.00000000E+00  0.00000000E+00  0.00000000E+00
  0.00000000E+00  0.00000000E+00  0.00000000E+00  0.00000000E+00
Cartesian Gradient                         R   N=          48
  0.00000000E+00  0.00000000E+00  0.00000000E+00  0.00000000E+00  0.00000000E+00
  0.00000000E+00  0.00000000E+00  0.00000000E+00  0.00000000E+00  0.00000000E+00
  0.00000000E+00  0.00000000E+00  0.00000000E+00  0.00000000E+00  0.00000000E+00
  0.00000000E+00  0.00000000E+00  0.00000000E+00  0.00000000E+00  0.00000000E+00
  0.00000000E+00  0.00000000E+00  0.00000000E+00  0.00000000E+00  0.00000000E+00
  0.00000000E+00  0.00000000E+00  0.00000000E+00  0.00000000E+00  0.00000000E+00
  0.00000000E+00  0.00000000E+00  0.00000000E+00  0.00000000E+00  0.00000000E+00
  0.00000000E+00  0.00000000E+00  0.00000000E+00  0.00000000E+00  0.00000000E+00
  0.00000000E+00  0.00000000E+00  0.00000000E+00  0.00000000E+00  0.00000000E+00
  0.00000000E+00  0.00000000E+00  0.00000000E+00
Dipole Moment                              R   N=           3
  4.93693409E+00  3.70544040E-04  2.03336422E-01
Polarizability                             R   N=           6
  2.59552115E+02 -3.69302834E-03  1.29025280E+02 -1.04367143E+00 -1.44385385E-03
  6.57375309E+01
HyperPolarizability                        R   N=          10
 -5.86188838E+03 -1.76592571E-01  5.57500154E+02  1.71686471E-01  6.48882631E+01
 -2.14835856E-02  1.86002715E+00  9.94112458E+01  2.48511523E-02  5.46233276E+00
Quadrupole Moment                          R   N=           6
 -1.47893979E+00  3.23293683E+00 -1.75399705E+00 -1.32004143E-03  1.56423511E+00
  6.62072395E-03
NFreq for FD properties                    I                2
Frequencies for FD properties              R   N=           2
  0.00000000E+00  2.38926862E-02
Alpha(-w,w)                                R   N=          18
  2.59552115E+02 -3.69302834E-03 -1.04367143E+00 -3.69302834E-03  1.29025280E+02
 -1.44385385E-03 -1.04367143E+00 -1.44385385E-03  6.57375309E+01  2.09199030E+02
 -3.22054652E-03 -6.96245865E-01 -3.22054652E-03  1.06452195E+02 -5.42542379E-04
 -6.96245865E-01 -5.42542379E-04  5.46228919E+01
Beta(-w,w,0)                               R   N=          36
 -5.86188838E+03 -1.76592571E-01  5.57500154E+02  6.48882631E+01 -2.14835856E-02
  9.94112458E+01 -1.76592571E-01  5.57500154E+02  1.71686471E-01 -2.14835856E-02
  1.86002715E+00  2.48511523E-02  6.48882631E+01 -2.14835856E-02  1.86002715E+00
  9.94112458E+01  2.48511523E-02  5.46233276E+00 -3.83891354E+03 -1.17915499E-01
  3.84108243E+02  4.25565652E+01 -1.38497276E-02  7.64177187E+01 -1.22496858E-01
  3.87131900E+02  1.26279221E-01 -9.63622729E-03  1.86090934E+00  1.86740191E-02
  4.48113189E+01 -1.07538411E-02  1.71342919E+00  7.25274457E+01  1.87287088E-02
  4.03546556E+00
NFreq for DFD properties                   I                2
NDeriv for DFD properties                  I                3
Frequencies for DFD properties             R   N=           2
  0.00000000E+00  2.38926862E-02
Derivative Alpha(-w,w)                     R   N=          54
 -5.86153339E+03 -1.72820202E-01  6.49224276E+01 -1.72820202E-01  5.57493816E+02
 -2.17458432E-02  6.49224276E+01 -2.17458432E-02  9.97218725E+01 -1.92543450E-01
  5.57500273E+02 -2.13740665E-02  5.57500273E+02  1.72317292E-01  1.84531358E+00
 -2.13740665E-02  1.84531358E+00  2.59682903E-02  6.49630089E+01 -1.61357132E-02
  9.97198687E+01 -1.61357132E-02  1.85386618E+00  2.52548149E-02  9.97198687E+01
  2.52548149E-02  5.47055583E+00 -6.30750325E+03 -1.91475853E-01  6.86106023E+01
 -1.91475853E-01  5.63906930E+02 -2.21612021E-02  6.86106023E+01 -2.21612021E-02
  1.00189233E+02 -2.00650001E-01  5.85559694E+02 -2.09035657E-02  5.85559694E+02
  1.77804969E-01  1.69969214E+00 -2.09035657E-02  1.69969214E+00  2.61187525E-02
  6.90710466E+01 -1.58033481E-02  1.03466048E+02 -1.58033481E-02  1.85392966E+00
  2.57710398E-02  1.03466048E+02  2.57710398E-02  5.48648897E+00
