84

Au         2.64680        2.16490        5.89050
Se         2.57090       -0.17300        6.45750
N          3.58020       -0.04960        9.13210
N          1.43570        0.40190        9.01760
N          3.19070        4.77610        4.39430
N          2.49510        5.11020        6.38080
C          2.52950        0.10440        8.33580
C          3.19600        0.15400       10.53480
H          3.72930        0.87950       10.94620
H          3.31850       -0.67600       11.06190
C          1.72730        0.53500       10.45050
H          1.16680       -0.07570       10.98900
H          1.58160        1.46420       10.76000
C          4.95380       -0.29230        8.77230
H          5.04330       -0.27930        7.79610
H          5.23160       -1.16920        9.11320
H          5.52130        0.40450        9.16360
C          0.14350        0.74640        8.46410
H         -0.04890        0.16700        7.69790
H          0.15220        1.68080        8.17100
H         -0.54800        0.62380        9.14850
C          2.76650        4.14190        5.51270
C          3.17170        6.14890        4.58050
H          3.43170        6.80920        3.94770
C          2.71860        6.36550        5.81840
H          2.57780        7.20850        6.23360
C          3.60860        4.12100        3.15260
C          4.97990        4.05840        2.86830
C          5.33920        3.44510        1.66560
H          6.25470        3.39030        1.42160
C          4.38150        2.91530        0.82900
H          4.65350        2.49510        0.02140
C          3.04250        2.97790        1.13480
H          2.40640        2.58380        0.54980
C          2.60710        3.62780        2.31350
C          6.02600        4.61430        3.84210
H          5.66300        5.45990        4.23460
C          6.26060        3.62250        4.98560
H          6.65960        2.80300        4.62960
H          5.40560        3.41110        5.41460
H          6.86670        4.02190        5.64480
C          7.34950        4.94320        3.15890
H          7.94570        5.38680        3.79800
H          7.18580        5.53820        2.39780
H          7.76810        4.11580        2.84320
C          1.11620        3.73480        2.58280
H          1.00000        4.24110        3.43700
C          0.40230        4.52030        1.47690
H          0.38080        3.98530        0.65670
H          0.88420        5.35810        1.30840
H         -0.51390        4.72130        1.76000
C          0.47810        2.36720        2.76770
H         -0.45970        2.47940        3.02940
H          0.95680        1.87650        3.46720
H          0.52510        1.86870        1.92610
C          1.92680        4.87270        7.69920
C          2.81390        4.70560        8.77110
C          2.21770        4.43420       10.01780
H          2.76960        4.32720       10.78390
C          0.85530        4.32720       10.14990
H          0.48580        4.12890       11.00280
C          0.01010        4.50210        9.07550
H         -0.92970        4.42640        9.19000
C          0.54500        4.79440        7.80990
C          4.31540        4.75000        8.62510
H          4.52360        5.19370        7.75330
C          4.98790        5.57470        9.74480
H          4.92560        5.08670       10.59140
H          4.53330        6.43860        9.83030
H          5.93040        5.72350        9.52080
C          4.91790        3.34330        8.59120
H          5.89020        3.40590        8.49300
H          4.54480        2.84740        7.83260
H          4.70270        2.87350        9.42520
C         -0.40000        4.96400        6.61480
H          0.12900        5.36600        5.86620
C         -0.92730        3.60690        6.13800
H         -1.46320        3.19710        6.84880
H         -0.17270        3.02230        5.91910
H         -1.48430        3.73480        5.34160
C         -1.55350        5.91400        6.92430
H         -2.07870        6.06800        6.11160
H         -1.19650        6.76750        7.24760
H         -2.12720        5.51730        7.61370
