Polar                                                                   
SP        RB3LYP                                                      Gen                 
Number of atoms                            I               16
Info1-9                                    I   N=           9
         125         123           0           0           0         110
           1          18        -502
Charge                                     I                0
Multiplicity                               I                1
Number of electrons                        I               72
Number of alpha electrons                  I               36
Number of beta electrons                   I               36
Number of basis functions                  I              170
Number of independent functions            I              170
Number of point charges in /Mol/           I                0
Number of translation vectors              I                0
Atomic numbers                             I   N=          16
           6           6           6           6           6           6
           7           7           1           1           8           8
           1           1           1           1
Nuclear charges                            R   N=          16
  6.00000000E+00  6.00000000E+00  6.00000000E+00  6.00000000E+00  6.00000000E+00
  6.00000000E+00  7.00000000E+00  7.00000000E+00  1.00000000E+00  1.00000000E+00
  8.00000000E+00  8.00000000E+00  1.00000000E+00  1.00000000E+00  1.00000000E+00
  1.00000000E+00
Current cartesian coordinates              R   N=          48
 -1.34381938E+00  8.21720526E-04  2.61159356E-04 -2.77911747E-02 -2.28696630E+00
  1.68493597E-03  2.56210006E+00 -2.29055533E+00  1.25731370E-03  3.92838544E+00
 -7.33421153E-05 -2.28454201E-03  2.56326380E+00  2.29109135E+00  1.49030750E-03
 -2.68539917E-02  2.28817910E+00  2.75444839E-03 -4.04632551E+00  6.02137296E-05
  5.71100436E-04  6.47690702E+00 -8.15294836E-04 -6.93185161E-02  7.43836574E+00
 -1.61331354E+00  2.13064713E-01  7.43923395E+00  1.61090973E+00  2.14890460E-01
 -5.17845518E+00 -2.05880276E+00  1.31351438E-03 -5.18075892E+00  2.05755682E+00
 -9.43914809E-04 -1.05726844E+00 -4.04554698E+00  5.28676577E-03  3.58089886E+00
 -4.06166211E+00  2.35423654E-03  3.58171468E+00  4.06237023E+00  3.17313237E-03
 -1.05501107E+00  4.04751254E+00  8.52406840E-03
Force Field                                I                0
Int Atom Types                             I   N=          16
           0           0           0           0           0           0
           0           0           0           0           0           0
           0           0           0           0
MM charges                                 R   N=          16
  0.00000000E+00  0.00000000E+00  0.00000000E+00  0.00000000E+00  0.00000000E+00
  0.00000000E+00  0.00000000E+00  0.00000000E+00  0.00000000E+00  0.00000000E+00
  0.00000000E+00  0.00000000E+00  0.00000000E+00  0.00000000E+00  0.00000000E+00
  0.00000000E+00
Integer atomic weights                     I   N=          16
          12          12          12          12          12          12
          14          14           1           1          16          16
           1           1           1           1
Real atomic weights                        R   N=          16
  1.20000000E+01  1.20000000E+01  1.20000000E+01  1.20000000E+01  1.20000000E+01
  1.20000000E+01  1.40030740E+01  1.40030740E+01  1.00782504E+00  1.00782504E+00
  1.59949146E+01  1.59949146E+01  1.00782504E+00  1.00782504E+00  1.00782504E+00
  1.00782504E+00
Atom fragment info                         I   N=          16
           0           0           0           0           0           0
           0           0           0           0           0           0
           0           0           0           0
Atom residue num                           I   N=          16
           0           0           0           0           0           0
           0           0           0           0           0           0
           0           0           0           0
Nuclear spins                              I   N=          16
           0           0           0           0           0           0
           2           2           1           1           0           0
           1           1           1           1
Nuclear ZEff                               R   N=          16
 -3.60000000E+00 -3.60000000E+00 -3.60000000E+00 -3.60000000E+00 -3.60000000E+00
 -3.60000000E+00 -4.55000000E+00 -4.55000000E+00 -1.00000000E+00 -1.00000000E+00
 -5.60000000E+00 -5.60000000E+00 -1.00000000E+00 -1.00000000E+00 -1.00000000E+00
 -1.00000000E+00
Nuclear QMom                               R   N=          16
  0.00000000E+00  0.00000000E+00  0.00000000E+00  0.00000000E+00  0.00000000E+00
  0.00000000E+00  2.04400000E+00  2.04400000E+00  0.00000000E+00  0.00000000E+00
  0.00000000E+00  0.00000000E+00  0.00000000E+00  0.00000000E+00  0.00000000E+00
  0.00000000E+00
Nuclear GFac                               R   N=          16
  0.00000000E+00  0.00000000E+00  0.00000000E+00  0.00000000E+00  0.00000000E+00
  0.00000000E+00  4.03761000E-01  4.03761000E-01  2.79284600E+00  2.79284600E+00
  0.00000000E+00  0.00000000E+00  2.79284600E+00  2.79284600E+00  2.79284600E+00
  2.79284600E+00
MicOpt                                     I   N=          16
          -1          -1          -1          -1          -1          -1
          -1          -1          -1          -1          -1          -1
          -1          -1          -1          -1
Number of contracted shells                I               78
Number of primitive shells                 I              232
Pure/Cartesian d shells                    I                0
Pure/Cartesian f shells                    I                0
Highest angular momentum                   I                2
Largest degree of contraction              I                5
Shell types                                I   N=          78
           0           0           0           1           1          -2
           0           0           0           1           1          -2
           0           0           0           1           1          -2
           0           0           0           1           1          -2
           0           0           0           1           1          -2
           0           0           0           1           1          -2
           0           0           0           1           1          -2
           0           0           0           1           1          -2
           0           0           1           0           0           1
           0           0           0           1           1          -2
           0           0           0           1           1          -2
           0           0           1           0           0           1
           0           0           1           0           0           1
Number of primitives per shell             I   N=          78
           5           3           3           4           2           2
           5           3           3           4           2           2
           5           3           3           4           2           2
           5           3           3           4           2           2
           5           3           3           4           2           2
           5           3           3           4           2           2
           5           3           3           4           2           2
           5           3           3           4           2           2
           3           2           2           3           2           2
           5           3           3           4           2           2
           5           3           3           4           2           2
           3           2           2           3           2           2
           3           2           2           3           2           2
Shell to atom map                          I   N=          78
           1           1           1           1           1           1
           2           2           2           2           2           2
           3           3           3           3           3           3
           4           4           4           4           4           4
           5           5           5           5           5           5
           6           6           6           6           6           6
           7           7           7           7           7           7
           8           8           8           8           8           8
           9           9           9          10          10          10
          11          11          11          11          11          11
          12          12          12          12          12          12
          13          13          13          14          14          14
          15          15          15          16          16          16
Primitive exponents                        R   N=         232
  6.77990000E+03  1.01720000E+03  2.31570000E+02  6.55470000E+01  7.53390000E+00
  2.12530000E+01  7.53390000E+00  2.80310000E+00  5.21510000E-01  1.59570000E-01
  4.88250000E-02  1.87340000E+01  4.13620000E+00  1.20040000E+00  3.83460000E-01
  1.21290000E-01  3.83650000E-02  4.16900000E-01  1.08560900E-01  6.77990000E+03
  1.01720000E+03  2.31570000E+02  6.55470000E+01  7.53390000E+00  2.12530000E+01
  7.53390000E+00  2.80310000E+00  5.21510000E-01  1.59570000E-01  4.88250000E-02
  1.87340000E+01  4.13620000E+00  1.20040000E+00  3.83460000E-01  1.21290000E-01
  3.83650000E-02  4.16900000E-01  1.08560900E-01  6.77990000E+03  1.01720000E+03
  2.31570000E+02  6.55470000E+01  7.53390000E+00  2.12530000E+01  7.53390000E+00
  2.80310000E+00  5.21510000E-01  1.59570000E-01  4.88250000E-02  1.87340000E+01
  4.13620000E+00  1.20040000E+00  3.83460000E-01  1.21290000E-01  3.83650000E-02
  4.16900000E-01  1.08560900E-01  6.77990000E+03  1.01720000E+03  2.31570000E+02
  6.55470000E+01  7.53390000E+00  2.12530000E+01  7.53390000E+00  2.80310000E+00
  5.21510000E-01  1.59570000E-01  4.88250000E-02  1.87340000E+01  4.13620000E+00
  1.20040000E+00  3.83460000E-01  1.21290000E-01  3.83650000E-02  4.16900000E-01
  1.08560900E-01  6.77990000E+03  1.01720000E+03  2.31570000E+02  6.55470000E+01
  7.53390000E+00  2.12530000E+01  7.53390000E+00  2.80310000E+00  5.21510000E-01
  1.59570000E-01  4.88250000E-02  1.87340000E+01  4.13620000E+00  1.20040000E+00
  3.83460000E-01  1.21290000E-01  3.83650000E-02  4.16900000E-01  1.08560900E-01
  6.77990000E+03  1.01720000E+03  2.31570000E+02  6.55470000E+01  7.53390000E+00
  2.12530000E+01  7.53390000E+00  2.80310000E+00  5.21510000E-01  1.59570000E-01
  4.88250000E-02  1.87340000E+01  4.13620000E+00  1.20040000E+00  3.83460000E-01
  1.21290000E-01  3.83650000E-02  4.16900000E-01  1.08560900E-01  9.15560000E+03
  1.37360000E+03  3.12730000E+02  8.85470000E+01  1.02460000E+01  2.87560000E+01
  1.02460000E+01  3.84430000E+00  7.46500000E-01  2.24750000E-01  6.76660000E-02
  2.66670000E+01  5.95570000E+00  1.74400000E+00  5.56290000E-01  1.73150000E-01
  5.38940000E-02  6.67104000E-01  1.48097000E-01  9.15560000E+03  1.37360000E+03
  3.12730000E+02  8.85470000E+01  1.02460000E+01  2.87560000E+01  1.02460000E+01
  3.84430000E+00  7.46500000E-01  2.24750000E-01  6.76660000E-02  2.66670000E+01
  5.95570000E+00  1.74400000E+00  5.56290000E-01  1.73150000E-01  5.38940000E-02
  6.67104000E-01  1.48097000E-01  1.87358400E+01  2.82571200E+00  6.40137000E-01
  1.75608000E-01  4.81740000E-02  6.05839000E-01  1.25177000E-01  1.87358400E+01
  2.82571200E+00  6.40137000E-01  1.75608000E-01  4.81740000E-02  6.05839000E-01
  1.25177000E-01  1.18520000E+04  1.77820000E+03  4.04860000E+02  1.14660000E+02
  1.33340000E+01  3.72790000E+01  1.33340000E+01  5.03850000E+00  1.01360000E+00
  3.02500000E-01  9.02780000E-02  3.44930000E+01  7.75620000E+00  2.28200000E+00
  7.16910000E-01  2.14610000E-01  6.42440000E-02  1.37401000E+00  2.28450000E-01
  1.18520000E+04  1.77820000E+03  4.04860000E+02  1.14660000E+02  1.33340000E+01
  3.72790000E+01  1.33340000E+01  5.03850000E+00  1.01360000E+00  3.02500000E-01
  9.02780000E-02  3.44930000E+01  7.75620000E+00  2.28200000E+00  7.16910000E-01
  2.14610000E-01  6.42440000E-02  1.37401000E+00  2.28450000E-01  1.87358400E+01
  2.82571200E+00  6.40137000E-01  1.75608000E-01  4.81740000E-02  6.05839000E-01
  1.25177000E-01  1.87358400E+01  2.82571200E+00  6.40137000E-01  1.75608000E-01
  4.81740000E-02  6.05839000E-01  1.25177000E-01  1.87358400E+01  2.82571200E+00
  6.40137000E-01  1.75608000E-01  4.81740000E-02  6.05839000E-01  1.25177000E-01
  1.87358400E+01  2.82571200E+00  6.40137000E-01  1.75608000E-01  4.81740000E-02
  6.05839000E-01  1.25177000E-01
Contraction coefficients                   R   N=         232
  2.26362740E-03  1.73766691E-02  8.85810663E-02  3.34916989E-01  7.49227380E-01
  4.89058686E-01  1.34849886E-01  5.11182216E-01  5.06672273E-01  1.61744167E-01
  5.00681748E-01  1.85607174E-02  1.16521571E-01  3.80385846E-01  6.42426708E-01
  9.25948446E-01  1.05230571E-01  3.43790816E-01  7.89056784E-01  2.26362740E-03
  1.73766691E-02  8.85810663E-02  3.34916989E-01  7.49227380E-01  4.89058686E-01
  1.34849886E-01  5.11182216E-01  5.06672273E-01  1.61744167E-01  5.00681748E-01
  1.85607174E-02  1.16521571E-01  3.80385846E-01  6.42426708E-01  9.25948446E-01
  1.05230571E-01  3.43790816E-01  7.89056784E-01  2.26362740E-03  1.73766691E-02
  8.85810663E-02  3.34916989E-01  7.49227380E-01  4.89058686E-01  1.34849886E-01
  5.11182216E-01  5.06672273E-01  1.61744167E-01  5.00681748E-01  1.85607174E-02
  1.16521571E-01  3.80385846E-01  6.42426708E-01  9.25948446E-01  1.05230571E-01
  3.43790816E-01  7.89056784E-01  2.26362740E-03  1.73766691E-02  8.85810663E-02
  3.34916989E-01  7.49227380E-01  4.89058686E-01  1.34849886E-01  5.11182216E-01
  5.06672273E-01  1.61744167E-01  5.00681748E-01  1.85607174E-02  1.16521571E-01
  3.80385846E-01  6.42426708E-01  9.25948446E-01  1.05230571E-01  3.43790816E-01
  7.89056784E-01  2.26362740E-03  1.73766691E-02  8.85810663E-02  3.34916989E-01
  7.49227380E-01  4.89058686E-01  1.34849886E-01  5.11182216E-01  5.06672273E-01
  1.61744167E-01  5.00681748E-01  1.85607174E-02  1.16521571E-01  3.80385846E-01
  6.42426708E-01  9.25948446E-01  1.05230571E-01  3.43790816E-01  7.89056784E-01
  2.26362740E-03  1.73766691E-02  8.85810663E-02  3.34916989E-01  7.49227380E-01
  4.89058686E-01  1.34849886E-01  5.11182216E-01  5.06672273E-01  1.61744167E-01
  5.00681748E-01  1.85607174E-02  1.16521571E-01  3.80385846E-01  6.42426708E-01
  9.25948446E-01  1.05230571E-01  3.43790816E-01  7.89056784E-01  2.28777817E-03
  1.76059450E-02  8.97206917E-02  3.39055356E-01  7.44522591E-01  4.93471575E-01
  1.43060213E-01  4.96278419E-01  9.88246542E-01  8.02516465E-03  1.31721057E-02
  2.57651181E-02  1.62851962E-01  3.55251732E-01  6.38239802E-01  9.34869210E-01
  9.38504545E-02  2.92752760E-01  8.45538853E-01  2.28777817E-03  1.76059450E-02
  8.97206917E-02  3.39055356E-01  7.44522591E-01  4.93471575E-01  1.43060213E-01
  4.96278419E-01  9.88246542E-01  8.02516465E-03  1.31721057E-02  2.57651181E-02
  1.62851962E-01  3.55251732E-01  6.38239802E-01  9.34869210E-01  9.38504545E-02
  2.92752760E-01  8.45538853E-01  2.90966555E-02  2.09264994E-01  8.36043900E-01
  8.81146894E-01  1.52516984E-01  1.14643488E-01  9.38523049E-01  2.90966555E-02
  2.09264994E-01  8.36043900E-01  8.81146894E-01  1.52516984E-01  1.14643488E-01
  9.38523049E-01  2.30589061E-03  1.77882990E-02  9.06873835E-02  3.42622403E-01
  7.40520298E-01  5.00852235E-01  1.46856961E-01  4.83494475E-01  4.99340042E-01
  1.29877306E-01  5.48846215E-01  2.03245889E-02  1.28155678E-01  3.94358849E-01
  6.23519234E-01  9.48976657E-01  7.58447981E-02  2.47638038E-01  9.00635960E-01
  2.30589061E-03  1.77882990E-02  9.06873835E-02  3.42622403E-01  7.40520298E-01
  5.00852235E-01  1.46856961E-01  4.83494475E-01  4.99340042E-01  1.29877306E-01
  5.48846215E-01  2.03245889E-02  1.28155678E-01  3.94358849E-01  6.23519234E-01
  9.48976657E-01  7.58447981E-02  2.47638038E-01  9.00635960E-01  2.90966555E-02
  2.09264994E-01  8.36043900E-01  8.81146894E-01  1.52516984E-01  1.14643488E-01
  9.38523049E-01  2.90966555E-02  2.09264994E-01  8.36043900E-01  8.81146894E-01
  1.52516984E-01  1.14643488E-01  9.38523049E-01  2.90966555E-02  2.09264994E-01
  8.36043900E-01  8.81146894E-01  1.52516984E-01  1.14643488E-01  9.38523049E-01
  2.90966555E-02  2.09264994E-01  8.36043900E-01  8.81146894E-01  1.52516984E-01
  1.14643488E-01  9.38523049E-01
Coordinates of each shell                  R   N=         234
 -1.34381938E+00  8.21720526E-04  2.61159356E-04 -1.34381938E+00  8.21720526E-04
  2.61159356E-04 -1.34381938E+00  8.21720526E-04  2.61159356E-04 -1.34381938E+00
  8.21720526E-04  2.61159356E-04 -1.34381938E+00  8.21720526E-04  2.61159356E-04
 -1.34381938E+00  8.21720526E-04  2.61159356E-04 -2.77911747E-02 -2.28696630E+00
  1.68493597E-03 -2.77911747E-02 -2.28696630E+00  1.68493597E-03 -2.77911747E-02
 -2.28696630E+00  1.68493597E-03 -2.77911747E-02 -2.28696630E+00  1.68493597E-03
 -2.77911747E-02 -2.28696630E+00  1.68493597E-03 -2.77911747E-02 -2.28696630E+00
  1.68493597E-03  2.56210006E+00 -2.29055533E+00  1.25731370E-03  2.56210006E+00
 -2.29055533E+00  1.25731370E-03  2.56210006E+00 -2.29055533E+00  1.25731370E-03
  2.56210006E+00 -2.29055533E+00  1.25731370E-03  2.56210006E+00 -2.29055533E+00
  1.25731370E-03  2.56210006E+00 -2.29055533E+00  1.25731370E-03  3.92838544E+00
 -7.33421153E-05 -2.28454201E-03  3.92838544E+00 -7.33421153E-05 -2.28454201E-03
  3.92838544E+00 -7.33421153E-05 -2.28454201E-03  3.92838544E+00 -7.33421153E-05
 -2.28454201E-03  3.92838544E+00 -7.33421153E-05 -2.28454201E-03  3.92838544E+00
 -7.33421153E-05 -2.28454201E-03  2.56326380E+00  2.29109135E+00  1.49030750E-03
  2.56326380E+00  2.29109135E+00  1.49030750E-03  2.56326380E+00  2.29109135E+00
  1.49030750E-03  2.56326380E+00  2.29109135E+00  1.49030750E-03  2.56326380E+00
  2.29109135E+00  1.49030750E-03  2.56326380E+00  2.29109135E+00  1.49030750E-03
 -2.68539917E-02  2.28817910E+00  2.75444839E-03 -2.68539917E-02  2.28817910E+00
  2.75444839E-03 -2.68539917E-02  2.28817910E+00  2.75444839E-03 -2.68539917E-02
  2.28817910E+00  2.75444839E-03 -2.68539917E-02  2.28817910E+00  2.75444839E-03
 -2.68539917E-02  2.28817910E+00  2.75444839E-03 -4.04632551E+00  6.02137296E-05
  5.71100436E-04 -4.04632551E+00  6.02137296E-05  5.71100436E-04 -4.04632551E+00
  6.02137296E-05  5.71100436E-04 -4.04632551E+00  6.02137296E-05  5.71100436E-04
 -4.04632551E+00  6.02137296E-05  5.71100436E-04 -4.04632551E+00  6.02137296E-05
  5.71100436E-04  6.47690702E+00 -8.15294836E-04 -6.93185161E-02  6.47690702E+00
 -8.15294836E-04 -6.93185161E-02  6.47690702E+00 -8.15294836E-04 -6.93185161E-02
  6.47690702E+00 -8.15294836E-04 -6.93185161E-02  6.47690702E+00 -8.15294836E-04
 -6.93185161E-02  6.47690702E+00 -8.15294836E-04 -6.93185161E-02  7.43836574E+00
 -1.61331354E+00  2.13064713E-01  7.43836574E+00 -1.61331354E+00  2.13064713E-01
  7.43836574E+00 -1.61331354E+00  2.13064713E-01  7.43923395E+00  1.61090973E+00
  2.14890460E-01  7.43923395E+00  1.61090973E+00  2.14890460E-01  7.43923395E+00
  1.61090973E+00  2.14890460E-01 -5.17845518E+00 -2.05880276E+00  1.31351438E-03
 -5.17845518E+00 -2.05880276E+00  1.31351438E-03 -5.17845518E+00 -2.05880276E+00
  1.31351438E-03 -5.17845518E+00 -2.05880276E+00  1.31351438E-03 -5.17845518E+00
 -2.05880276E+00  1.31351438E-03 -5.17845518E+00 -2.05880276E+00  1.31351438E-03
 -5.18075892E+00  2.05755682E+00 -9.43914809E-04 -5.18075892E+00  2.05755682E+00
 -9.43914809E-04 -5.18075892E+00  2.05755682E+00 -9.43914809E-04 -5.18075892E+00
  2.05755682E+00 -9.43914809E-04 -5.18075892E+00  2.05755682E+00 -9.43914809E-04
 -5.18075892E+00  2.05755682E+00 -9.43914809E-04 -1.05726844E+00 -4.04554698E+00
  5.28676577E-03 -1.05726844E+00 -4.04554698E+00  5.28676577E-03 -1.05726844E+00
 -4.04554698E+00  5.28676577E-03  3.58089886E+00 -4.06166211E+00  2.35423654E-03
  3.58089886E+00 -4.06166211E+00  2.35423654E-03  3.58089886E+00 -4.06166211E+00
  2.35423654E-03  3.58171468E+00  4.06237023E+00  3.17313237E-03  3.58171468E+00
  4.06237023E+00  3.17313237E-03  3.58171468E+00  4.06237023E+00  3.17313237E-03
 -1.05501107E+00  4.04751254E+00  8.52406840E-03 -1.05501107E+00  4.04751254E+00
  8.52406840E-03 -1.05501107E+00  4.04751254E+00  8.52406840E-03
Constraint Structure                       R   N=          48
 -1.34381938E+00  8.21720526E-04  2.61159356E-04 -2.77911747E-02 -2.28696630E+00
  1.68493597E-03  2.56210006E+00 -2.29055533E+00  1.25731370E-03  3.92838544E+00
 -7.33421153E-05 -2.28454201E-03  2.56326380E+00  2.29109135E+00  1.49030750E-03
 -2.68539917E-02  2.28817910E+00  2.75444839E-03 -4.04632551E+00  6.02137296E-05
  5.71100436E-04  6.47690702E+00 -8.15294836E-04 -6.93185161E-02  7.43836574E+00
 -1.61331354E+00  2.13064713E-01  7.43923395E+00  1.61090973E+00  2.14890460E-01
 -5.17845518E+00 -2.05880276E+00  1.31351438E-03 -5.18075892E+00  2.05755682E+00
 -9.43914809E-04 -1.05726844E+00 -4.04554698E+00  5.28676577E-03  3.58089886E+00
 -4.06166211E+00  2.35423654E-03  3.58171468E+00  4.06237023E+00  3.17313237E-03
 -1.05501107E+00  4.04751254E+00  8.52406840E-03
Num ILSW                                   I              100
ILSW                                       I   N=         100
           0           0           0           0           2           0
           0           0           0           0         402          -1
           0           0           0           0           0           0
           0           0           0           0           0           0
           1           0           0           0           0           0
           0           0      100000           0          -1           0
           0           0           0           0           0           0
           0           0           0           1           0           0
           0           0           1           0           0           0
           0           0           4          40           0           0
           0           0           5           0           0           0
           0           0           0          16           0           0
           0           0           0           0           0           0
           0           0           0           0           0           0
           0           0           0           0           0           0
           0           0           0           0           0           0
           0           0           0           0
Num RLSW                                   I               40
RLSW                                       R   N=          40
  8.00000000E-01  7.20000000E-01  1.00000000E+00  8.10000000E-01  2.00000000E-01
  0.00000000E+00  0.00000000E+00  1.00000000E+00  0.00000000E+00  0.00000000E+00
  0.00000000E+00  0.00000000E+00  1.00000000E+00  0.00000000E+00  0.00000000E+00
  0.00000000E+00  0.00000000E+00  1.00000000E+00  0.00000000E+00  0.00000000E+00
  0.00000000E+00  0.00000000E+00  1.00000000E+00  0.00000000E+00  0.00000000E+00
  0.00000000E+00  0.00000000E+00  1.00000000E+00  0.00000000E+00  0.00000000E+00
  0.00000000E+00  0.00000000E+00  1.00000000E+00  0.00000000E+00  0.00000000E+00
  0.00000000E+00  0.00000000E+00  0.00000000E+00  1.00000000E+00  1.00000000E+00
MxBond                                     I                3
NBond                                      I   N=          16
           3           3           3           3           3           3
           3           3           1           1           1           1
           1           1           1           1
IBond                                      I   N=          48
           2           6           7           1           3          13
           2           4          14           3           5           8
           4           6          15           1           5          16
           1          11          12           4           9          10
           8           0           0           8           0           0
           7           0           0           7           0           0
           2           0           0           3           0           0
           5           0           0           6           0           0
RBond                                      R   N=          48
  1.50000000E+00  1.50000000E+00  1.00000000E+00  1.50000000E+00  1.50000000E+00
  1.00000000E+00  1.50000000E+00  1.50000000E+00  1.00000000E+00  1.50000000E+00
  1.50000000E+00  1.50000000E+00  1.50000000E+00  1.50000000E+00  1.00000000E+00
  1.50000000E+00  1.50000000E+00  1.00000000E+00  1.00000000E+00  2.00000000E+00
  2.00000000E+00  1.50000000E+00  1.00000000E+00  1.00000000E+00  1.00000000E+00
  0.00000000E+00  0.00000000E+00  1.00000000E+00  0.00000000E+00  0.00000000E+00
  2.00000000E+00  0.00000000E+00  0.00000000E+00  2.00000000E+00  0.00000000E+00
  0.00000000E+00  1.00000000E+00  0.00000000E+00  0.00000000E+00  1.00000000E+00
  0.00000000E+00  0.00000000E+00  1.00000000E+00  0.00000000E+00  0.00000000E+00
  1.00000000E+00  0.00000000E+00  0.00000000E+00
Virial Ratio                               R      1.950927674246103E+00
SCF Energy                                 R     -4.902759740171846E+02
Total Energy                               R     -4.902759740171846E+02
RMS Density                                R      5.146315438640792E-09
External E-field                           R   N=          35
  0.00000000E+00  0.00000000E+00  0.00000000E+00  0.00000000E+00  0.00000000E+00
  0.00000000E+00  0.00000000E+00  0.00000000E+00  0.00000000E+00  0.00000000E+00
  0.00000000E+00  0.00000000E+00  0.00000000E+00  0.00000000E+00  0.00000000E+00
  0.00000000E+00  0.00000000E+00  0.00000000E+00  0.00000000E+00  0.00000000E+00
  0.00000000E+00  0.00000000E+00  0.00000000E+00  0.00000000E+00  0.00000000E+00
  0.00000000E+00  0.00000000E+00  0.00000000E+00  0.00000000E+00  0.00000000E+00
  0.00000000E+00  0.00000000E+00  0.00000000E+00  0.00000000E+00  0.00000000E+00
IOpCl                                      I                0
IROHF                                      I                0
Alpha Orbital Energies                     R   N=         170
 -1.90234545E+01 -1.90233826E+01 -1.44387112E+01 -1.42032993E+01 -1.01761099E+01
 -1.01541477E+01 -1.01261117E+01 -1.01260427E+01 -1.01139698E+01 -1.01139179E+01
 -1.20850141E+00 -1.02889707E+00 -9.41110472E-01 -8.71236568E-01 -7.94773173E-01
 -7.66530196E-01 -6.92828503E-01 -6.47068135E-01 -6.02903117E-01 -5.73954795E-01
 -5.64341885E-01 -5.62074085E-01 -5.52673708E-01 -5.23970183E-01 -4.75767842E-01
 -4.69216758E-01 -4.59762188E-01 -4.41211336E-01 -4.31381801E-01 -3.80307979E-01
 -3.61675777E-01 -3.51889369E-01 -3.51765863E-01 -3.29755977E-01 -2.97202422E-01
 -2.50438536E-01 -1.22544191E-01 -4.23922468E-02 -1.05791469E-02  5.35740331E-02
  6.40941737E-02  7.14060733E-02  9.80169333E-02  1.05933462E-01  1.14644945E-01
  1.27224825E-01  1.49373647E-01  1.56027550E-01  1.72420496E-01  1.85021735E-01
  1.99384021E-01  2.05171175E-01  2.06335632E-01  2.16775175E-01  2.23070018E-01
  2.39025407E-01  2.56804815E-01  2.64321502E-01  2.66830615E-01  2.77377169E-01
  2.81212550E-01  2.96804527E-01  3.09951496E-01  3.20251354E-01  3.25242747E-01
  3.36350337E-01  3.52075433E-01  3.74113222E-01  3.89644973E-01  3.91933614E-01
  3.98545248E-01  4.22596912E-01  4.38932504E-01  4.43187101E-01  4.72495028E-01
  4.76774214E-01  4.82542153E-01  5.06222053E-01  5.23341971E-01  5.43961538E-01
  5.45920323E-01  5.46149548E-01  5.47360185E-01  5.71940245E-01  5.72256147E-01
  6.10087466E-01  6.16123114E-01  6.17352201E-01  6.23065478E-01  6.30292771E-01
  6.36217235E-01  6.62335047E-01  6.71419103E-01  6.87963573E-01  6.89505301E-01
  7.08640354E-01  7.22171298E-01  7.28749254E-01  7.30976248E-01  7.34088662E-01
  7.53040950E-01  7.70480704E-01  7.71508501E-01  7.94411054E-01  8.15550632E-01
  8.19341816E-01  8.42522849E-01  8.60867161E-01  8.65483519E-01  8.94971288E-01
  9.07715045E-01  9.12821477E-01  9.24496126E-01  9.25885846E-01  9.70766579E-01
  1.01061972E+00  1.02886362E+00  1.05039489E+00  1.06878923E+00  1.11376078E+00
  1.13512823E+00  1.16946167E+00  1.17002473E+00  1.22523600E+00  1.24696631E+00
  1.25436151E+00  1.29692083E+00  1.30200152E+00  1.30444938E+00  1.32450173E+00
  1.34981100E+00  1.36161047E+00  1.37503819E+00  1.41477648E+00  1.41514093E+00
  1.47904275E+00  1.50763547E+00  1.55695783E+00  1.57458896E+00  1.60107163E+00
  1.67881427E+00  1.68416570E+00  1.68663419E+00  1.71691303E+00  1.75641988E+00
  1.75747993E+00  1.82707365E+00  1.84478214E+00  1.91644410E+00  1.92060782E+00
  1.95026915E+00  1.97914273E+00  1.97927793E+00  2.05268764E+00  2.21207427E+00
  2.25901201E+00  2.34653208E+00  2.40866787E+00  2.66871859E+00  2.72477222E+00
  1.06125683E+02  1.16721743E+02  1.17683561E+02  1.21571122E+02  1.22255340E+02
  1.25985862E+02  1.63619044E+02  1.68063679E+02  2.13408340E+02  2.16098120E+02
Alpha MO coefficients                      R   N=       28900
 -2.40418260E-05  9.20429379E-05 -9.41979126E-04  1.27125868E-04 -9.04748397E-05
 -4.97181603E-08  1.00947192E-02  8.61690988E-03  9.02676007E-06  2.28165404E-04
 -8.12182271E-07  6.30774539E-07 -5.69447847E-05  5.09960913E-04  1.53328430E-06
 -9.83968947E-06  1.81733512E-04 -6.29159745E-07 -3.74564131E-05  1.66451029E-06
 -1.02296969E-02 -8.00621415E-04 -6.85625994E-06 -2.09044798E-04  8.70514193E-07
 -1.17989011E-06  2.49602266E-04 -5.11700036E-04 -1.19689698E-05  4.31791115E-05
 -2.66911287E-04  1.79460008E-05 -5.91572180E-05 -2.53147093E-06 -8.35310888E-03
 -2.98219553E-03  4.51838359E-05  2.08563411E-05  1.45064967E-05  1.43676275E-05
 -2.19438665E-04 -3.75833332E-04 -5.06961396E-06  1.66510885E-05 -1.25392453E-04
  8.16231166E-05  1.16287939E-05 -5.00666035E-06  1.46190966E-03 -1.14016047E-02
 -9.63774839E-05 -2.76206696E-04 -9.26818735E-06 -5.32890630E-06  1.15315895E-04
  1.75098544E-04 -5.72223510E-06  2.19934115E-05 -1.56956467E-04  1.52039120E-04
  1.98564154E-05 -7.36448401E-07  1.10645229E-02 -4.87971020E-03  2.44745307E-05
  3.10367132E-04  7.68616640E-06 -9.15359205E-06 -3.13855533E-04 -3.14241372E-04
 -2.08565204E-05  7.79470797E-05 -7.72751006E-04  2.00952785E-04 -1.78407786E-05
 -2.98087724E-07  7.97963408E-03  6.31736398E-03 -2.55926473E-06 -2.99140845E-04
 -1.76101538E-06 -1.16026893E-06  1.35982997E-03  3.36884623E-05 -8.67810975E-06
  5.65106194E-05 -1.79099246E-05 -4.00744157E-06 -1.84564944E-04  3.44849943E-07
  6.02189774E-03 -1.04131315E-02  1.37509078E-06  1.08180002E-03 -3.70623083E-06
  3.64906619E-06  9.48670366E-04  4.76041223E-03  1.41960699E-06 -7.79039132E-06
  5.73519263E-05 -1.49024769E-05 -3.14450366E-05 -8.00844804E-06  1.34296395E-03
  1.70799024E-03  1.68213436E-04 -7.31122674E-05  4.26944810E-05  6.39171158E-05
 -2.14881638E-04  1.18107299E-05  8.56715926E-05 -3.78234866E-04  1.03562825E-04
 -4.87388261E-05 -1.71980519E-05 -1.72865314E-05 -1.98558030E-03  2.22298332E-04
  4.17558225E-04  8.28460990E-05 -1.08043893E-01 -2.52144553E-01 -9.25146681E-03
 -3.04082738E-04 -6.66687324E-04  2.34942121E-07 -6.30540994E-04 -1.25127083E-03
  1.49284051E-06 -3.21280817E-04  3.83498474E-07  3.35012820E-07 -1.36634096E-04
 -3.07553133E-05  2.81811153E-01  6.57897864E-01  2.25494455E-02  6.69521105E-04
 -1.48954683E-03  9.36926921E-07  1.92588689E-03 -4.10692046E-03  4.23836323E-06
 -5.32338696E-05  4.95236028E-07 -1.25045073E-07 -3.27953889E-04  1.64723716E-04
  2.67089171E-04 -3.74674268E-03 -6.45495939E-04 -4.13989778E-04  5.58512397E-06
  8.87676987E-06  7.74933331E-05  5.98802942E-04  2.77166151E-04  3.15757273E-06
  2.08530774E-04 -1.41775999E-03 -5.68254545E-04  7.30904430E-04 -5.28047418E-06
  5.71213845E-05 -2.28747453E-04  8.40090630E-04 -3.69677548E-04  3.48037700E-06
 -5.38787225E-05  2.06298931E-04 -2.11207209E-03  2.85298385E-04  3.98111157E-05
  2.85246250E-08  2.26347080E-02 -3.83323108E-03  9.45826430E-06  5.12113313E-04
  1.19144424E-06 -3.50646437E-06 -1.27574208E-04 -2.28048003E-04 -2.66647107E-05
  9.59928641E-05 -8.77297522E-04  2.69814948E-04 -9.24913604E-06  1.13401070E-06
  1.53014354E-03 -9.20165113E-03 -1.36119358E-05 -5.89938358E-04 -4.87933042E-07
 -1.85444215E-06  2.05579181E-03 -5.04545881E-04 -1.84378161E-05  6.83466002E-05
 -4.51803615E-04  2.21081903E-04 -7.98509757E-05 -3.37207447E-06  7.37316773E-03
  3.86445077E-03  7.82234284E-05  4.35533427E-04  2.13252076E-05  2.46129967E-05
 -6.18227659E-04  8.64769926E-05 -1.13663091E-05  3.73384929E-05 -2.81467721E-04
  1.83495027E-04 -5.23659695E-06 -1.11108048E-05  3.28540562E-03  5.07619594E-03
 -2.14678640E-04 -6.19137418E-04 -2.13788180E-05  2.33312558E-06  2.60421476E-04
 -7.80741021E-05 -2.12351871E-05  7.78335467E-05 -5.00778907E-04  1.61294825E-04
  9.73191983E-05 -4.20112423E-06 -1.27799219E-03 -3.71487360E-04  8.50983254E-05
  3.07069645E-04  2.57304157E-05 -2.69543714E-05 -5.77458802E-04  2.21767791E-04
 -1.66859194E-05  5.68519363E-05 -4.51607840E-04  1.80220270E-04  3.39901215E-05
  2.15304276E-06 -6.57565466E-03  6.75828482E-03 -6.19228545E-06 -5.50929550E-04
 -1.43543890E-08  9.51147973E-07  1.56011955E-03  7.16894843E-04 -1.94259391E-05
  1.26532223E-04 -3.88073252E-05 -9.20674016E-06  8.18018454E-05  3.30569887E-07
  1.34902968E-02  4.65068509E-03 -5.96248059E-06  2.42715961E-03  2.29116161E-07
  1.67282234E-06  2.14185071E-03 -2.11887158E-03  3.17964524E-06 -1.74488105E-05
  1.28458144E-04 -3.32789778E-05  1.40040441E-05 -1.80387805E-05  3.01228804E-03
 -7.61230522E-04  3.77039746E-04 -1.64449197E-04  9.52369678E-05 -2.78052746E-05
 -4.83144965E-04 -4.91119781E-06  5.34215026E-05 -3.00880797E-03  3.91392445E-04
 -6.05377092E-04  9.52913458E-05  9.92564312E-05 -2.29409839E-03  3.39278271E-04
  4.40761195E-04  5.13461715E-05  2.81804063E-01  6.57960196E-01  2.20034102E-02
  6.24456801E-04  1.40510085E-03 -5.06037613E-07  2.01715174E-03  4.39623831E-03
 -1.34465437E-06 -3.60629989E-04  8.48085496E-08 -8.77345036E-09 -5.64147788E-04
 -2.51897149E-04  1.08025492E-01  2.52307171E-01  7.82796925E-03  1.91704514E-04
 -4.43333129E-04  4.55049997E-07  8.82043474E-04 -2.00664670E-03  2.46845252E-06
 -4.80051008E-04  7.58150386E-08 -1.74480976E-06 -4.78671591E-04  1.90041132E-04
  3.15714001E-04 -3.66368569E-03  5.55402210E-04  1.27433837E-04  7.98882967E-06
  2.88592851E-04 -1.84370603E-03 -2.25670297E-04 -7.34412318E-04 -4.45742837E-06
  1.99397827E-04 -1.17294870E-03  2.95055081E-04  2.84323926E-04 -9.07862202E-07
  4.09858442E-04 -5.24145712E-03 -1.09492654E-04  2.24146552E-04  1.15768338E-05
  2.75879864E-06 -9.01897488E-06  4.66601668E-04 -1.56380007E-04 -2.55756122E-07
 -3.30043801E-08  1.33355607E-04  1.10214979E-05 -4.37884772E-06  3.15161792E-04
 -2.03196252E-06  2.14746036E-07 -3.26488748E-03 -2.67594552E-06 -8.74089329E-06
  4.75195310E-05 -7.44258832E-04  2.12622004E-04 -7.11097936E-05  4.36665023E-07
  8.55295890E-04  1.46300769E-03  8.91082070E-06 -4.14391665E-04  2.07448086E-07
  5.78210314E-07 -5.19980746E-04  1.22706218E-03 -1.10819222E-07  1.09276989E-07
  7.90008631E-06  4.02538894E-05 -6.02243180E-05 -2.24170627E-07  5.19270272E-04
 -1.54342006E-03 -9.14481097E-06  1.21193292E-04  3.04762059E-06 -4.60021833E-08
  2.25239551E-04  6.44978907E-04  9.22029484E-07 -3.77909037E-06  2.89122868E-05
  8.01975539E-07 -3.73726210E-08 -2.65344416E-06 -1.44693878E-03 -9.40451095E-06
  3.04226440E-06  5.68155845E-05 -3.64997641E-06 -4.43516507E-08  4.75595073E-04
 -2.29664037E-07 -1.03242266E-07  6.16644164E-08  8.99352432E-06  3.97450164E-05
  6.02404110E-05 -1.53285543E-07  5.35287611E-04  1.53364347E-03 -7.84464613E-06
  1.21309555E-04  2.62981126E-06 -1.74542377E-08  2.25364279E-04 -6.46243934E-04
 -8.73872658E-06  4.74872149E-05 -7.42824579E-04  2.12430593E-04  7.02822225E-05
  4.70375835E-07  8.76293173E-04 -1.45905382E-03  8.03411906E-06 -4.13992368E-04
 -1.20850245E-06 -1.39474108E-07 -5.25421643E-04 -1.22746998E-03  3.00246052E-01
  7.05975520E-01  1.49079581E-02 -8.01819347E-04 -5.07216746E-07 -8.42647688E-07
  1.76909715E-03 -7.98189408E-07  7.05867873E-08  9.87258411E-04 -9.62132794E-07
  5.68883521E-07 -1.10041537E-04 -4.89423414E-07 -7.82987261E-07  2.18563764E-06
 -2.73032311E-05  3.21446799E-05 -1.24148039E-08 -2.09740453E-06 -3.54776234E-04
  1.43905806E-06 -2.61277972E-05  1.82404918E-05 -2.16912089E-05  2.72608967E-08
 -4.84300873E-05  5.98715637E-08 -1.96944599E-06  2.38146703E-04  1.69565846E-05
  1.25207461E-04 -7.81019932E-06 -2.04496330E-06  2.36887581E-04  1.68248839E-05
 -1.24729585E-04 -7.77467630E-06 -2.02761753E-05 -6.21766367E-05  6.79185077E-04
  2.37342422E-05  7.08341442E-05 -5.15806423E-08 -9.43122489E-04 -1.01170076E-03
  2.10032128E-07  6.18598391E-04  7.24350067E-07  3.65661633E-07  5.06198670E-04
 -1.27243333E-03 -2.02820715E-05 -6.21604289E-05  6.79232129E-04  2.38273597E-05
 -7.04630097E-05 -1.35303862E-08 -9.44283000E-04  1.00925609E-03 -5.12227853E-07
  6.18641064E-04 -4.93860694E-07  1.54609321E-06  5.03572309E-04  1.27293136E-03
 -9.39233265E-05 -9.69275474E-04  5.82589460E-04 -1.72561627E-04  4.89512304E-07
  9.22779683E-05 -2.90548499E-04  2.25667944E-04 -2.77448943E-05  3.96727368E-06
  9.23052792E-05 -2.88534445E-04  2.24034401E-04  2.80530171E-05  3.89513715E-06
 -9.43883554E-05 -9.64957536E-04  5.79055816E-04  1.69679001E-04  1.45133641E-06
  7.89047577E-06 -3.62715522E-05  3.34258026E-04  2.89437910E-05 -1.89478461E-08
 -2.94669175E-07  6.26133514E-04  8.39144789E-06 -3.19168641E-05 -4.23973984E-05
  1.05108293E-05  1.64253478E-07  5.56605846E-04 -1.38212095E-07  6.92571491E-07
 -5.73225166E-07 -7.93268451E-05 -1.23936108E-04 -6.96345439E-05 -8.32020211E-06
  3.45640992E-04 -1.17882792E-03  1.65670268E-05  4.47157420E-04 -3.54953783E-06
  7.54622089E-06  2.28324417E-04 -8.20522044E-04 -6.29242940E-06  3.99202560E-05
 -9.58019408E-04 -3.91619229E-04  1.20660193E-05  1.00180131E-05 -8.67979522E-04
  1.80582337E-03 -9.74035847E-05 -1.20950670E-03 -6.38658005E-05 -3.82653130E-05
 -8.51987461E-04 -1.81764803E-03  6.91006297E-06 -1.33218874E-05  1.66020189E-03
  2.97994025E-05 -2.19289503E-08 -6.15696423E-06  5.04911569E-04 -7.19275443E-06
  3.26676019E-04  1.47283524E-03  1.11881717E-04 -5.60750907E-08 -5.49323062E-03
  3.49514386E-06 -6.29241604E-06  3.99161632E-05 -9.57809783E-04 -3.91485776E-04
 -1.18296233E-05  1.00657250E-05 -8.55811033E-04 -1.81169755E-03 -9.82549543E-05
 -1.20932707E-03 -6.32277645E-05  3.83379619E-05 -8.50855128E-04  1.81805227E-03
  6.85066500E-07 -5.34841323E-07 -7.99447376E-05 -1.23918037E-04  6.96826954E-05
 -8.20286216E-06  3.59920630E-04  1.18553347E-03  1.63218970E-05  4.46694010E-04
 -2.49446640E-06 -8.18627035E-06  2.28973534E-04  8.19709504E-04 -3.02934869E-07
  7.24302592E-06 -4.07866109E-05 -5.04854892E-05 -1.40117919E-09 -6.48885759E-07
  1.33546273E-04 -1.02654815E-06  1.80986438E-05 -3.26840403E-05  3.38351045E-06
  1.75179623E-07 -8.84718255E-05 -1.71776337E-07  3.00060985E-01  7.05983399E-01
  1.46759580E-02 -1.02725411E-03  7.65883697E-09  4.44866781E-04  2.03256232E-03
 -4.73938558E-07 -3.56130986E-04  8.69464143E-04 -2.34963769E-06 -1.25335138E-07
 -5.15944493E-04  1.26681186E-07 -1.01368134E-04 -1.48576546E-04  4.57928351E-04
 -6.56331472E-04  1.56631011E-04 -1.01448305E-04 -1.46794603E-04  4.57843901E-04
  6.55500261E-04  1.56891824E-04  2.52116022E-07 -6.96474332E-06  1.63062199E-05
 -8.65107948E-06 -3.21215360E-06 -1.77133328E-07 -6.05153385E-07  9.95080258E-06
 -1.52364059E-06 -1.20641466E-05 -4.17488752E-07 -1.70660648E-06  1.89279723E-05
 -2.90124419E-05  2.53071195E-07 -6.98137052E-06  1.65210459E-05 -8.61619724E-06
  3.20471416E-06 -1.85972282E-07 -8.27085445E-07 -1.02071765E-05 -1.71809693E-06
 -1.20986952E-05 -4.87661254E-07  1.73064116E-06  1.88161715E-05  2.91133220E-05
  4.71860887E-05  7.50623200E-04 -1.86915639E-04  4.51040431E-05 -1.00207792E-05
 -3.68876059E-04 -1.40304102E-03 -5.19351882E-04  1.48250294E-04 -1.11023853E-05
 -3.68571152E-04 -1.40420423E-03 -5.21492047E-04 -1.46222539E-04 -1.07062956E-05
  4.70287362E-05  7.50368917E-04 -1.88561564E-04 -4.60193893E-05 -9.81537602E-06
 -3.29486965E-04 -5.53914923E-04 -1.74439555E-03 -1.68878873E-04  1.84504026E-07
  2.66920875E-06  5.92605621E-03 -8.02530231E-06  2.87388477E-06  7.54272871E-04
  1.06187508E-06 -1.56471570E-06  1.92567127E-03  1.35635651E-07 -1.28634912E-04
 -1.19648188E-04 -1.69231301E-03 -2.65007568E-04 -1.04089146E-04  7.28526805E-06
 -7.18243988E-03 -9.19073190E-03  8.02874310E-05 -2.01372124E-03  4.01092797E-05
 -2.65729884E-05  1.08177944E-03 -2.10085768E-03  9.84344994E-04  2.66633686E-03
 -2.12509899E-03  7.45380530E-05 -3.25443485E-04 -1.79051763E-07 -8.38002380E-03
  6.10795213E-03  1.45754864E-04  5.50593010E-04  1.25456912E-04  2.05568526E-04
  1.48518727E-03 -3.35291597E-03  2.99499728E-01  7.06812796E-01  3.04820795E-02
  7.16663205E-04 -3.18320480E-07 -4.87015886E-05  6.84233673E-03  2.99011189E-06
 -4.61270451E-04 -1.81011666E-03  2.40632605E-04 -7.28933015E-07 -1.80540799E-03
  7.27959180E-07  9.84682912E-04  2.66711561E-03 -2.12452365E-03  7.45384646E-05
  3.25641851E-04 -2.60061751E-07 -8.38737104E-03 -6.10019487E-03  1.45663442E-04
  5.50009122E-04  1.26541127E-04 -2.07003044E-04  1.48745121E-03  3.35181875E-03
 -1.28721774E-04 -1.19867401E-04 -1.69173450E-03 -2.65168712E-04  1.04205155E-04
  7.67237474E-06 -7.18571526E-03  9.18719664E-03  8.90495530E-05 -2.01253836E-03
  3.94361296E-05  2.70471970E-05  1.08225444E-03  2.10044842E-03  5.24239492E-07
 -7.18900786E-06  5.22215338E-05  8.09731390E-05 -1.80731990E-07 -1.22581827E-06
 -5.77746096E-04  3.01652050E-06  6.47480205E-06  2.12634764E-04  4.47483199E-06
 -7.46935506E-07  1.89020223E-04  5.55026387E-07 -3.42904724E-05 -1.83070721E-04
  5.73002860E-04 -7.04600251E-05  4.95662261E-08 -9.99442899E-05  6.98195061E-03
 -4.13682312E-06  1.04305829E-03 -5.68626025E-04  6.12259605E-04  2.45502592E-06
 -2.50560564E-03  1.02892832E-06  6.08513921E-05 -6.69419178E-03  4.88330243E-04
 -4.12852380E-04 -1.28045663E-04  6.08222242E-05 -6.69180618E-03  4.88550804E-04
  4.11424981E-04 -1.28845946E-04  6.50359908E-07  1.85876830E-05 -4.25497129E-05
  6.20760368E-05 -6.47402160E-06  1.31565180E-07 -4.23820330E-05  1.13301845E-04
 -5.74122873E-07  9.99745974E-06 -4.33306101E-08  3.03519464E-07 -2.15064840E-05
  1.78585107E-04  6.49317744E-07  1.86256278E-05 -4.31627880E-05  6.20170184E-05
  6.54491613E-06  2.11605751E-07 -4.18410755E-05 -1.12475770E-04  1.41210491E-07
  1.02694922E-05  2.91778418E-07 -6.26613534E-07 -2.10531168E-05 -1.79298815E-04
  5.03294799E-04 -7.94444663E-03 -5.98217411E-04 -1.12129213E-03  8.56654597E-06
 -1.01336298E-04  2.87997198E-03 -1.35674843E-03  9.39392200E-05  1.30146737E-04
 -1.00985231E-04  2.87923242E-03 -1.35559645E-03 -9.36308958E-05  1.29614557E-04
  5.03452302E-04 -7.94266941E-03 -5.96250098E-04  1.12205605E-03  1.03190867E-05
  2.99454598E-01  7.06689581E-01  3.13544289E-02 -6.15867157E-04 -6.10059795E-07
  1.91508893E-06  2.56317400E-03 -4.81621319E-05  4.17128499E-05 -8.18428079E-04
 -1.30074419E-06  2.17738084E-06 -3.16597937E-03  3.57400187E-06  2.55634677E-03
  6.35898189E-03 -1.88787574E-03  1.00111560E-05 -3.02916713E-04  3.47928580E-06
  9.97821827E-03  2.27686934E-03 -5.00979059E-05  1.56192197E-04 -9.59918660E-06
 -3.83431930E-06  2.00678272E-03  4.10568753E-03 -1.81338356E-04 -1.92017537E-04
 -2.10781739E-03  3.78375136E-04 -1.87793371E-04 -7.00416566E-06  8.76576362E-03
 -5.72622003E-03  1.64012188E-04 -1.74384908E-03  3.26510442E-05  3.92990823E-05
  7.74198799E-04  2.69939557E-03  2.89572094E-04  9.05745154E-04 -1.64614835E-03
  4.44331986E-04  4.96608459E-08 -2.50757897E-05  3.05693228E-03  4.27803513E-05
 -3.82844919E-04 -1.93024979E-04 -4.26876936E-05  7.80307359E-07  3.08189374E-03
 -1.88497597E-06 -1.81379638E-04 -1.92141254E-04 -2.10682358E-03  3.78768864E-04
  1.87567832E-04 -6.95491588E-06  8.68895516E-03  5.76259439E-03  1.63861885E-04
 -1.74263211E-03  3.10060559E-05 -3.74399484E-05  7.69781214E-04 -2.69831690E-03
  2.55932809E-03  6.36604054E-03 -1.88757726E-03  1.07518927E-05  3.03040988E-04
  3.60109731E-06  9.89817385E-03 -2.32032178E-03 -5.31803034E-05  1.55863791E-04
 -1.28939875E-05  5.02888145E-06  2.00574596E-03 -4.10408303E-03 -2.26224993E-05
 -8.96007919E-05  2.02120778E-04  1.82483305E-04 -2.32261848E-07  6.29292792E-07
 -5.23077388E-04  7.28932679E-06 -1.31367697E-05  5.08082866E-04 -1.82948789E-06
 -1.75718991E-06 -1.91283905E-03  1.31978403E-06  2.05438090E-06 -3.89914417E-05
  2.68490968E-04 -2.34442928E-05  2.77032324E-08 -3.17440349E-05  6.31108618E-03
 -6.16306901E-06  7.59122282E-04 -2.42178698E-04  1.94606502E-04  8.85377176E-07
 -7.83403410E-04  2.82722326E-07  2.58729195E-04 -5.82184346E-03  8.84619232E-04
 -1.19891058E-03  1.77974711E-04  2.59044492E-04 -5.81944951E-03  8.86311863E-04
  1.19657141E-03  1.79041235E-04  1.58632668E-06  8.59753332E-05 -6.39794216E-04
 -1.17441313E-04 -1.20262055E-04 -8.50663252E-08  1.57327197E-04  8.58993305E-04
  1.11418982E-06 -5.50791495E-04  3.59634500E-07  7.47805348E-07  7.20302838E-05
  5.88366773E-05  1.58737941E-06  8.60467728E-05 -6.40395846E-04 -1.17654679E-04
  1.20176240E-04 -3.46891339E-07  1.55659483E-04 -8.60698352E-04  3.62579787E-06
 -5.50827320E-04  9.55329510E-07 -1.50147864E-06  7.12467270E-05 -5.94689249E-05
 -6.15264038E-05  7.26059354E-04  1.10303374E-03  1.94298825E-04  9.40295106E-06
  5.41152376E-04 -6.51384193E-03  1.57715261E-04 -1.41065486E-03 -1.02496603E-05
  5.40987761E-04 -6.51131841E-03  1.64661576E-04  1.40655884E-03 -9.65315247E-06
 -6.11598489E-05  7.28093643E-04  1.10941170E-03 -1.91723990E-04  7.20371932E-06
 -1.29975750E-03 -2.88887645E-03 -1.16545317E-03 -9.07357020E-05 -3.93798937E-04
 -8.52269146E-07  3.17763285E-03 -5.58090303E-03  2.88056932E-05  6.32752156E-04
  1.80670335E-06 -8.75031020E-06  1.68180028E-03 -4.79498251E-03 -1.26085841E-01
 -2.97450811E-01 -1.44637019E-02 -2.16751493E-04 -8.09244922E-04  4.61553441E-06
 -6.11222154E-03 -5.60971954E-03 -1.51958569E-05 -1.39951254E-03  8.58947772E-06
 -2.19393974E-06  5.08471370E-04  1.88730659E-04 -3.78471985E-03 -8.83233325E-03
 -1.44225394E-03 -4.39932956E-05 -2.33716993E-04 -7.01171809E-06 -8.19414704E-03
 -7.50280012E-03  5.98747492E-05 -8.52093873E-05  3.31940318E-05  2.34620651E-05
  1.06653372E-03 -1.42603522E-03  3.15890631E-05  1.69124427E-04 -8.03826757E-04
  1.53252300E-04 -2.26630484E-04 -4.09397152E-06  7.34939572E-03 -1.29447405E-02
 -1.81913730E-04 -1.04593676E-03 -1.21640164E-05 -4.48870879E-05 -9.14312918E-04
  1.10446765E-03  7.02174802E-03  1.68188298E-02 -7.84192399E-04  3.53786315E-04
 -6.94967291E-05  2.54171299E-06  8.88953793E-03 -1.59140918E-02  1.20589997E-04
  5.31546749E-04 -9.01189357E-06 -1.23723346E-05 -3.65370722E-03  1.72317608E-04
  2.71492062E-01  6.40809208E-01  2.81567974E-02  3.62130187E-04 -1.23179487E-03
 -3.44660431E-06  5.91149940E-03  1.47451631E-03 -7.08439897E-05 -2.64179366E-04
 -1.56564922E-05  7.60655406E-06  1.23583091E-03  2.93307958E-03 -7.59317296E-07
  2.10180813E-05 -1.85950337E-04 -4.93138219E-05 -1.70029184E-04  6.31276757E-07
  2.61206613E-04 -1.26127593E-03 -8.54236299E-06 -3.95607105E-04  4.17612629E-07
  3.67376875E-06  1.47555884E-04 -7.08221018E-04  3.46870114E-07 -8.61423123E-06
  8.87842102E-05 -7.41868307E-05 -6.24081624E-05 -1.00653802E-05  3.48467334E-03
  2.71749921E-03  4.01419010E-04 -1.76187181E-04  1.31719708E-04  1.53904685E-04
 -1.90199482E-04  3.82132290E-04  1.85642380E-04 -9.68831117E-04  4.84063941E-04
  1.46407849E-04  2.71920090E-05  2.95818573E-05 -5.31440390E-03  2.58245056E-04
  1.82767641E-03  1.71929306E-04 -1.26844835E-07 -6.40004516E-06  7.36151340E-05
  6.06569134E-05 -8.31543345E-06  1.39233604E-07 -5.76292929E-04  1.41031645E-05
  2.90345681E-06  2.64625837E-04  1.05702420E-07  2.05834688E-06 -2.27026731E-04
  6.96998379E-05  6.24221441E-07  4.10206715E-05 -3.25064655E-04 -6.56397060E-05
  8.99227412E-05 -1.55660607E-07  7.28881884E-04 -3.71846872E-04  1.28263094E-07
 -2.56965380E-04  1.60796239E-07 -4.32727651E-07  2.88206783E-04 -1.43378931E-04
  2.04656659E-04 -7.13883232E-03 -1.21546035E-03 -1.44366812E-03  1.58610127E-05
  4.54639605E-04 -5.80861763E-03  1.22271424E-03 -1.32162415E-03  1.06558001E-05
 -3.53479691E-04  5.12535749E-03 -1.07373868E-03 -1.24550621E-03 -4.26986078E-05
  2.60478833E-04  4.14071159E-03  4.47654093E-04 -1.79997188E-03 -2.25406164E-06
 -3.54739957E-03 -7.88371284E-03 -3.18542900E-03 -2.48458646E-04  1.44330670E-04
 -1.59944354E-06  8.69102205E-03  2.00445785E-03  8.03823797E-05  1.73048529E-03
  6.91133851E-06  1.06937559E-06  4.60446712E-03  1.75205264E-03  2.71479137E-01
  6.40959541E-01  2.65177023E-02  3.05803322E-04  9.51341492E-04  1.74895824E-06
  1.95551877E-03 -8.95270193E-03 -1.21277406E-04 -2.06696660E-03 -1.49705983E-05
 -1.51987672E-05  2.51298009E-03 -4.32409591E-03  6.43223249E-03  1.56818904E-02
 -2.92172330E-03  4.96292279E-04 -1.68884303E-04 -3.92793899E-06  4.10845005E-03
  1.57979492E-02  2.64026447E-04  7.22825545E-04  2.25667206E-05  4.66217155E-05
 -4.40052207E-03 -1.95166920E-03  8.60516815E-05  4.61742730E-04 -2.19768903E-03
  4.18945524E-04  8.25202778E-05 -1.12169927E-05  2.01156512E-02  4.76608346E-03
 -4.94843121E-04 -2.85894405E-03 -3.12677061E-05  1.57442458E-05 -2.50429280E-03
 -4.02595463E-04  2.45896392E-03  6.25077784E-03 -3.16367280E-03  3.51035241E-04
  2.79808709E-04 -7.81493281E-06 -2.20768040E-03 -7.19569910E-03  2.37130977E-04
  4.96773740E-04  4.18816638E-05 -5.18203401E-05 -2.67428333E-03  2.41409918E-03
  1.26059672E-01  2.97778283E-01  1.09261316E-02  9.34122542E-05 -2.04660007E-04
  4.20819633E-06 -2.49799071E-03  1.04302731E-02 -9.32083119E-05 -2.48216457E-03
 -4.44611736E-06  1.50743955E-05  2.25021074E-03  3.18197529E-03 -2.07817751E-06
  5.75049045E-05 -5.08793376E-04 -1.35953203E-04  6.17718615E-05  1.34590383E-06
  7.15293241E-04  4.65028181E-04 -2.18468772E-05 -1.08200122E-03 -9.23715739E-07
 -1.13631783E-06  3.98697367E-04  2.59386145E-04  9.52603509E-07 -2.36245958E-05
  2.43228710E-04 -2.03058361E-04  2.29145416E-05 -2.75370644E-05  9.52707860E-03
 -1.00301540E-03  1.09278336E-03 -4.82550006E-04  3.59022863E-04 -5.48800792E-05
 -5.19551685E-04 -1.39898521E-04  2.65794891E-04 -9.38857667E-03  9.71408175E-04
 -2.66223047E-03  2.97103109E-04  3.23142109E-04 -7.79336024E-03  1.05599620E-03
  1.93675705E-03  2.45686797E-04  8.18584658E-07  5.59817051E-05 -4.16494218E-04
 -2.98961759E-05 -1.49176630E-04  9.83678963E-08  4.47336653E-04  5.93443162E-04
  2.57468924E-06 -8.53702376E-05 -3.20078648E-07  3.00788683E-06  1.76820442E-04
  3.03828703E-04  5.41870180E-07  3.86771592E-05 -2.71304461E-04  1.61635431E-05
  1.19239053E-04  8.74155013E-08 -2.95150794E-05 -4.61036436E-04  2.80653090E-06
  1.05726865E-04 -5.24198610E-08 -3.23793849E-06 -1.07950132E-05 -2.77729636E-04
  6.46773110E-04 -2.03987264E-03 -7.47419158E-04  1.08092784E-03  1.89895846E-05
 -8.95447215E-06  1.06661477E-03 -2.19184603E-04  3.64926162E-04 -5.20139295E-05
  2.86284100E-04 -2.93429719E-03  6.27576047E-04  5.70897251E-04 -3.32372864E-05
  6.26479794E-04 -6.16500765E-03 -1.34930885E-03  1.09306218E-04  2.44601797E-05
  4.84396676E-05  1.70300368E-04 -5.02894064E-04 -3.16380313E-05 -2.43494463E-04
  2.36203459E-08 -1.20735920E-03 -8.14601151E-03  2.24553946E-06 -3.11879461E-04
 -3.30449459E-06  5.60413647E-06 -8.05191254E-04 -7.98424259E-04  4.88666269E-03
  1.15361825E-02  1.86053424E-04  1.85523913E-04 -1.47472575E-04  2.18351246E-06
  5.17606190E-03 -8.46327997E-03 -1.57514164E-05 -2.54369792E-04 -1.19523297E-05
  6.20349586E-06  1.90099183E-03  1.02745447E-03 -1.71554399E-01 -4.04791225E-01
 -1.87833237E-02  3.15516089E-04 -9.29961602E-04 -4.86167561E-06  3.02054944E-03
 -5.08055090E-03  2.78116754E-05 -8.67490909E-04 -5.65100630E-06 -1.16776139E-05
 -1.96730900E-04 -9.45555261E-04 -2.71611427E-04 -5.50534999E-04 -5.75922138E-04
  8.08008151E-05 -4.16322883E-04 -3.43926234E-06 -6.49429287E-04 -1.01827500E-02
 -1.01182304E-04  1.75051028E-04 -1.57572760E-05 -8.54551979E-05  1.07789417E-03
  4.71848497E-03  2.45313765E-01  5.78973587E-01  2.56505821E-02 -3.69889144E-04
 -1.08649131E-03  8.20449771E-07 -2.24400490E-03 -2.28778431E-03  3.20649540E-05
  1.52577150E-04  3.47577124E-05 -3.68679103E-05  1.07462578E-03 -2.51765262E-03
 -6.56359724E-03 -1.53251614E-02 -1.63535862E-03 -3.07321864E-04 -5.60285415E-05
  7.70858577E-07 -5.22281618E-03 -1.06577930E-02  1.20778154E-05  2.93563830E-04
  1.65029936E-05  1.02198922E-05 -3.13870670E-03 -1.26512401E-04  1.98480147E-07
 -3.60418776E-06  3.00268473E-05  3.51685635E-05 -3.40201649E-05 -4.19425313E-08
 -1.74808188E-04  9.96519303E-04 -2.61341389E-06  6.54700482E-05 -8.32287093E-07
 -1.50044679E-06  1.33912857E-04  1.55822986E-04 -3.07237691E-08  4.90676424E-06
 -5.99884852E-05  4.52432331E-05 -2.24222137E-04 -1.05582217E-05  4.31086555E-04
  3.00468744E-05  1.21101607E-04 -2.65107386E-04  3.33463033E-06  9.91417678E-05
 -1.48600959E-04  1.42773246E-04 -1.76728190E-05 -3.37129199E-04  4.60800156E-04
 -3.70143702E-04  6.48613646E-05  4.65912007E-05 -1.19248034E-03 -1.99808302E-04
 -3.84980591E-04 -2.15255655E-05  5.50042224E-07  9.52963500E-06  2.03849015E-05
  1.52484453E-05 -5.13080359E-05  1.72965819E-07 -3.77992850E-05  3.01100279E-04
 -1.39674483E-06 -1.68064710E-05 -3.03849908E-07  3.65680214E-07  1.95842143E-05
  1.00451432E-04 -9.82920661E-08  4.36209020E-06 -4.81597850E-05  3.15045708E-06
 -6.78893131E-05 -1.75374958E-07  5.34876272E-05  4.05474902E-04  1.61965018E-06
  5.79196906E-05  7.76439804E-07  3.43570803E-07 -2.29422756E-05  6.03195276E-05
  4.38227906E-04 -5.87058070E-03 -9.35892362E-04 -1.34096050E-03  1.03958522E-05
  1.26078102E-04 -6.36344226E-03  1.14334615E-03 -1.48445274E-03 -1.62825684E-05
  1.45440889E-04  5.05684841E-03 -8.40660155E-04 -1.52246343E-03  2.43685065E-05
 -3.68390946E-04  4.14787875E-03  5.16675727E-04 -1.35721942E-03 -7.44488923E-06
  2.74227067E-04  9.63597260E-04 -2.84415397E-03 -1.78643384E-04  4.29979544E-05
  4.70446534E-07 -6.82206277E-03  1.40193878E-03  1.92808908E-05 -1.76425531E-03
 -1.39888641E-05  2.10475012E-06 -4.54770419E-03  1.43443761E-04 -5.81459642E-03
 -1.32315465E-02 -4.26638193E-03 -3.88957061E-04 -2.39915082E-04  8.57484659E-06
 -1.00273674E-03  7.89274883E-03  5.40099084E-06  1.60068943E-04  1.20168185E-05
 -7.23030534E-06 -3.94514251E-03  3.19057733E-03  2.45304188E-01  5.79225346E-01
  2.33417968E-02 -2.13047954E-04  6.21371432E-04 -1.16780898E-05  1.76684562E-03
 -7.24157588E-03  1.63629713E-04 -1.93138810E-03  8.91032939E-05  7.46550122E-05
  2.60197685E-03  4.75521998E-03 -1.53366242E-03 -3.10808505E-03 -3.25528676E-03
  4.57978347E-04  7.35400786E-05 -1.95413597E-05 -3.67357435E-03  1.84222915E-03
 -5.66017080E-04  9.93001378E-04 -9.34493876E-05  1.53667140E-05  6.08535858E-03
 -8.38202896E-04  1.71541811E-01  4.05153960E-01  1.54781457E-02 -9.18202831E-05
 -2.64785424E-04 -1.22524357E-05  2.63293770E-03  8.57505901E-03  1.61991809E-04
 -2.11241612E-03  8.07204893E-05 -6.48960653E-05  2.37077429E-03 -4.14195774E-03
 -3.77410185E-03 -8.44461960E-03 -3.94031485E-03 -3.01234926E-04  2.76018862E-04
  9.38903075E-06  7.71497888E-04 -4.54107752E-03  1.48949351E-06  6.38419151E-05
  7.80748149E-06  9.82356061E-06 -3.05608172E-03 -3.34470821E-03  1.11202601E-06
 -2.02131386E-05  1.68702989E-04  1.98738961E-04  6.03483229E-06 -1.03273048E-07
 -9.89351385E-04 -1.70765087E-04 -1.35576232E-05  3.69510180E-04 -2.37513132E-06
 -1.07810293E-06  7.57629966E-04 -2.55108996E-05 -1.73634620E-07  2.77333560E-05
 -3.39203673E-04  2.56499630E-04  3.95893621E-05 -5.91746516E-05  2.43170166E-03
 -1.13764937E-05  6.84316866E-04 -1.49813695E-03  1.62696604E-05 -1.63617819E-05
 -8.40301272E-04 -2.51734222E-05  8.73189719E-05 -4.39601238E-03  6.78888360E-04
  1.08415648E-04  1.15382620E-04  7.65059794E-05 -4.23981047E-03  7.96480423E-04
  2.27000993E-05  1.30946451E-04  1.21839911E-06  3.87000898E-05 -8.35523478E-05
  5.09902174E-05  5.73345291E-05  2.23367349E-08  5.28696114E-05 -3.57813762E-04
  8.19379242E-07  1.23159239E-04  7.72258962E-07  1.19762706E-06 -1.36543772E-05
  1.00483141E-04  1.33240478E-06  3.96580121E-05 -7.21279675E-05  5.31472996E-05
 -3.61785199E-05  1.99018658E-07  3.63784406E-05  2.33514695E-04  1.60048035E-06
  1.10485283E-04  1.12456439E-06 -1.61567305E-06 -6.41548125E-06 -1.29499421E-04
  1.26415982E-04 -3.97828649E-03 -1.05490875E-03  2.84725584E-04  1.32927913E-05
  7.69948425E-04 -2.68494155E-03  6.77949848E-04  3.71458099E-04  2.78547388E-05
  7.66177402E-04 -4.70546561E-03  1.03509324E-03  1.56354472E-04  2.12858665E-05
  2.69427187E-04 -5.75157537E-03 -1.30656481E-03  1.96151113E-04  1.60236053E-05
 -8.12992600E-03 -2.71799624E-02  7.28111664E-02 -6.42966513E-02 -1.08162595E-05
 -2.68839630E-05  3.06542403E-01 -1.57733423E-03  9.36343058E-04  1.19247295E-02
 -1.13912169E-05  7.23844150E-05  1.22276127E-01  3.85552052E-05 -7.96967271E-04
 -2.53890411E-03  1.68658765E-02 -1.65356139E-02  1.04432551E-02  4.62274899E-05
  2.73624551E-02 -1.03438017E-01 -1.27767222E-03  2.94919516E-04 -7.26580159E-05
 -2.32640262E-06  4.21164141E-02 -6.47660837E-02  4.15832177E-04  2.25316528E-03
 -1.58264119E-02  1.06886131E-03 -4.69918798E-04 -1.18763883E-04  9.78237195E-02
  7.44832172E-02  3.34841831E-03 -5.50614532E-03  6.39524179E-04  7.31359654E-04
 -8.76505911E-03 -2.21887967E-02  5.21666855E-04  2.33729089E-03 -1.13584046E-02
  1.73701333E-03  3.21742979E-07 -2.94644791E-04  1.81294609E-01  1.61264145E-03
 -7.59429250E-03 -1.73418748E-02 -8.50887388E-04 -9.45676080E-06  1.35694026E-03
 -2.27405188E-05  4.16046209E-04  2.25418240E-03 -1.58295019E-02  1.08168554E-03
  4.70260068E-04 -1.15326324E-04  9.49034812E-02 -7.29133312E-02  3.33019493E-03
 -5.49139577E-03  6.65988468E-04 -7.65376164E-04 -8.77391551E-03  2.22310668E-02
 -7.93899421E-04 -2.52817178E-03  1.67868482E-02 -1.65296422E-02 -1.04143915E-02
  1.91160957E-05  2.44026906E-02  1.02009744E-01 -1.32289606E-03  2.67297526E-04
 -6.70335103E-05  1.08693882E-05  4.22229391E-02  6.47824553E-02 -5.31091616E-02
 -1.85412383E-01  3.38748512E-01 -1.10639125E-01 -4.45968575E-05 -3.18254919E-05
  1.69216927E-01  1.32917427E-04 -2.80593581E-04 -1.02846260E-01 -3.61594875E-05
 -1.51992924E-04 -1.20048639E-01 -1.59587969E-04  1.18334529E-04  6.68778885E-05
  4.05786782E-03 -8.15773634E-04  1.83214302E-06 -4.94207220E-04  1.17543437E-01
 -2.34941741E-04  1.55722932E-02 -7.63250874E-03  3.98969556E-03  1.68754425E-05
 -8.56539542E-03 -3.18855502E-06  3.95530262E-03 -1.13746997E-01  1.59134543E-02
 -2.47736628E-02  3.10495888E-03  3.96524699E-03 -1.13574492E-01  1.59399528E-02
  2.46937544E-02  3.11109270E-03 -3.13583955E-02 -1.10180774E-01  4.52063102E-01
  5.53546803E-02  1.24095412E-01 -4.96546457E-05  4.83912247E-02  1.59020113E-01
 -2.85886265E-05 -2.80035830E-02 -1.89607856E-05 -4.86117673E-06 -4.83982120E-02
  4.17386709E-02 -3.13634572E-02 -1.10197763E-01  4.52125858E-01  5.55151493E-02
 -1.24041250E-01  8.44020418E-05  4.85634535E-02 -1.59128761E-01  1.52677820E-04
 -2.80056763E-02  3.77151724E-05 -8.31255997E-05 -4.83224599E-02 -4.19168555E-02
  1.33737231E-02  2.81964241E-02  2.52589174E-02  8.44540024E-03  3.03767085E-04
  5.15716946E-03 -7.48471423E-02 -5.79024387E-03 -1.96191648E-02 -2.95061930E-04
  5.15668438E-03 -7.48112969E-02 -5.54432524E-03  1.94844378E-02 -2.77867517E-04
  1.33597454E-02  2.81057205E-02  2.53926398E-02 -8.27614711E-03  2.74755259E-04
 -1.00197830E-05 -3.58931658E-05  1.58392061E-04 -2.67198899E-05 -5.26392435E-02
  2.76969324E-05 -1.16632026E-04  8.80301088E-01  1.75234119E-04 -3.42876446E-05
  5.31761419E-05  1.03230611E-04  1.81616272E-05 -1.04154670E-02 -1.64564391E-03
 -4.94421330E-03 -1.24107786E-03 -1.13612340E-02  6.53283024E-03  1.31109599E-05
 -6.54368132E-01  6.04519125E-01 -4.16472633E-04  1.62764766E-02  9.15119125E-06
  2.01054226E-04  3.49659343E-02  4.56389270E-04 -2.78933713E-04 -1.22901118E-03
  7.01890334E-03  2.07458142E-05 -8.37690919E-04 -2.73580300E-05 -5.96699443E-01
 -4.51749614E-01  7.94209897E-04 -4.01354046E-03  3.53585605E-04  3.29110466E-04
  1.14726974E-02  1.02944454E-02  2.43862196E-07  1.65761985E-06 -1.18956014E-05
 -1.22487079E-08  5.65316276E-04 -2.23523592E-06 -5.38762570E-05 -7.03147745E-01
  4.18282864E-05  5.60284440E-07 -9.28302743E-06  1.14965849E-04  1.37537065E-05
  1.73165132E-02  2.78370487E-04  1.22846023E-03 -7.04468727E-03 -2.13220322E-05
 -8.36881780E-04  2.73275681E-05  5.96658910E-01 -4.51905882E-01 -1.16253979E-03
  3.97219121E-03 -3.13653238E-04  3.16119522E-04 -1.14813877E-02  1.02964429E-02
  1.63719255E-03  4.91622379E-03  1.32877022E-03  1.13055508E-02  6.49907546E-03
  1.57670604E-06  6.55002477E-01  6.03956581E-01  7.17020334E-04 -1.62614421E-02
  1.00928522E-06  2.79259452E-04 -3.49631177E-02  4.98301746E-04 -3.11319528E-06
 -1.26367989E-05  4.71033959E-05  2.63475142E-04 -3.71804614E-01  2.02026380E-04
 -9.94783920E-05 -1.02851875E-01  1.45632415E-05  3.67929587E-06 -7.02678861E-05
  7.91493107E-05 -1.92306707E-04  1.59487134E-01  2.21127231E-07  4.83913976E-07
  2.42479071E-06 -1.11581129E-06 -1.16237534E-03  1.11710133E-06  1.02441770E-04
  8.58311784E-02  1.20789534E-05 -8.16321331E-06  8.60484972E-06  1.63946852E-03
  5.67815445E-08  5.55101962E-03  2.33397989E-03  4.16563059E-02  1.26662786E-03
  1.36065715E-02 -3.89806928E-03 -2.32426147E-03 -4.18391663E-02 -1.22746393E-03
  1.36314007E-02  3.92932883E-03 -4.22833759E-02 -1.48471763E-01  6.10153292E-01
  7.72373699E-02  1.01450739E-01 -3.08602353E-05  1.35641759E-01  1.11230639E-01
  9.12906339E-06 -5.17752159E-02  1.62535665E-05 -5.99020747E-05 -1.24814039E-02
  2.48446836E-02  4.22832065E-02  1.48471397E-01 -6.10165040E-01 -7.73550308E-02
  1.01358037E-01 -7.46744321E-05 -1.35697744E-01  1.11272197E-01 -1.62393819E-04
  5.17562611E-02 -7.09355570E-05  1.24124751E-05  1.24057656E-02  2.49069289E-02
  8.63125254E-04  1.95999695E-01  1.56383261E-01 -2.03250095E-02  2.08126161E-05
  1.83484425E-03 -3.40903320E-02  4.74240485E-02  2.58027647E-02  4.82527104E-04
 -1.82210264E-03  3.39737331E-02 -4.74128582E-02  2.58594353E-02 -4.34485164E-04
 -8.13771694E-04 -1.95894180E-01 -1.56145470E-01 -2.02715866E-02 -5.74150343E-05
 -3.78369528E-03 -1.17950682E-02  2.18717141E-02  1.51925422E-02 -2.55517719E-06
  6.20845731E-05  5.68052908E-03 -8.10249018E-04  3.46900266E-04 -4.59843615E-03
  1.12431034E-04  4.54655067E-06 -2.32132515E-02  2.84622985E-05 -4.38230746E-03
 -1.42894789E-02  3.23682138E-02  1.77615155E-02  1.23569051E-02  8.82572445E-05
 -2.43063220E-02 -2.93799493E-02  3.45144162E-04 -3.27206024E-02  9.36260870E-05
 -4.01998300E-04  1.86071147E-02  1.61953349E-02 -1.20114311E-02 -4.03108832E-02
  1.09632907E-01  3.78401270E-02  3.83394035E-02 -1.01608290E-04 -6.78350382E-02
  5.21885524E-02  1.43649700E-03 -9.16131804E-03  1.27633469E-03  1.90124819E-03
 -1.16155312E-02  6.65234144E-02 -3.63567642E-02 -1.23815879E-01  3.37342898E-01
  1.29098243E-01 -4.80988582E-05 -3.54362990E-04  1.72540381E-01  6.78212422E-04
 -2.02021875E-03 -1.13474575E-01  1.85920108E-03  8.61769536E-06  1.04852436E-01
 -7.42157557E-05 -1.20090301E-02 -4.03026965E-02  1.09612277E-01  3.78144558E-02
 -3.83612546E-02 -1.03169547E-04 -6.91609473E-02 -5.15469438E-02  1.40992078E-03
 -9.16412111E-03  1.25830885E-03 -1.89816157E-03 -1.17187641E-02 -6.64781567E-02
 -4.38170999E-03 -1.42882949E-02  3.23972067E-02  1.77555305E-02 -1.23595305E-02
  8.12895208E-05 -2.55882230E-02  2.87641454E-02  4.34216024E-04 -3.26965352E-02
  6.63755072E-05  4.67134086E-04  1.85973387E-02 -1.61446201E-02 -7.47738209E-04
 -2.72947074E-03  6.14957690E-03  1.36985697E-02  9.15074780E-06  8.43767982E-06
  6.94515127E-03  1.25145257E-04 -1.81516639E-05 -2.26958928E-03  3.74286279E-05
 -1.70577254E-05  2.00373541E-02  2.56739513E-05 -5.48939764E-02 -1.95781604E-01
  4.00560816E-01 -6.19484708E-02 -9.01320673E-07  2.50353938E-02  1.17568745E-02
 -5.81211338E-05 -4.65862126E-04 -5.45334857E-02  8.08588620E-03  2.80616963E-05
  5.02909563E-02 -3.71800107E-05  1.20975891E-01 -2.13247985E-02 -4.57863911E-02
  3.41274475E-02 -4.18837991E-03  1.20971757E-01 -2.12985728E-02 -4.57681569E-02
 -3.41385143E-02 -4.23811176E-03  8.12910696E-04  2.97007175E-03 -1.24176083E-02
  3.01175989E-03 -9.49002378E-04  7.74905927E-07 -2.15968820E-03  2.97650217E-03
 -8.30005159E-06  1.57511498E-03 -1.21312973E-05  1.51088150E-05 -1.75741143E-03
  5.03015116E-03  8.11190474E-04  2.96456551E-03 -1.24075005E-02  3.00902897E-03
  9.49405904E-04  7.50987206E-07 -2.13802857E-03 -2.95431758E-03  6.22267908E-06
  1.58036599E-03 -6.17296051E-06 -1.88468453E-05 -1.74699829E-03 -5.04547993E-03
  1.11931077E-02 -1.10091690E-01 -9.18185360E-03 -5.40705735E-03  7.36135154E-05
  2.88066774E-02  4.08667653E-02  1.88489537E-02  1.70710199E-02  1.40037463E-03
  2.87758332E-02  4.09104535E-02  1.90279296E-02 -1.71912168E-02  1.39620569E-03
  1.12067958E-02 -1.10100797E-01 -9.03291307E-03  5.48617061E-03  5.86791226E-05
 -4.14416846E-02 -1.40789500E-01  3.89568588E-01  9.55580675E-03 -5.01140266E-05
  1.19599497E-04 -3.49678905E-02 -1.25394873E-03  1.56997545E-03 -9.41425020E-02
  1.14366871E-04  2.74589045E-05 -4.69941382E-02  1.04628100E-04 -2.73296594E-02
 -9.25845835E-02  2.46933125E-01 -2.69958431E-03  7.39465273E-02  5.67769389E-05
  1.09282013E-01 -6.54159170E-03 -2.62096373E-03 -6.88526936E-02 -4.34058106E-04
 -2.26793882E-04 -1.75303222E-02 -3.87408387E-02 -1.59734633E-02 -5.34130123E-02
  1.33889394E-01 -5.90723660E-02  3.22434859E-02 -2.08204005E-04 -5.71458826E-03
  8.93779981E-02  6.14368881E-03 -4.76975348E-02  5.85834559E-04  8.94800553E-04
  3.22796027E-02 -1.20740759E-03 -5.42021996E-03 -1.71471827E-02  3.55304457E-02
 -1.08076803E-01  2.19625648E-05 -3.78542001E-04  2.25806137E-01  1.05445303E-03
 -1.29776343E-02 -3.02659792E-02 -1.82396789E-03  1.12047027E-05 -4.22210519E-02
  3.66554037E-05 -1.59675036E-02 -5.33929055E-02  1.33844352E-01 -5.90468286E-02
 -3.22189064E-02 -2.01332060E-04 -7.58812256E-03 -8.83640950E-02  6.08492881E-03
 -4.77030712E-02  5.75997277E-04 -8.98407013E-04  3.21808972E-02  1.24994876E-03
 -2.73200422E-02 -9.25518056E-02  2.46868295E-01 -2.72506475E-03 -7.39146216E-02
  2.96487424E-05  1.07426901E-01  5.42427011E-03 -2.56081598E-03 -6.87934351E-02
 -4.11278797E-04  3.40452177E-04 -1.74480143E-02  3.88355281E-02 -8.98724737E-03
 -3.22296478E-02  7.22736459E-02  2.17905497E-01  1.64579903E-04  5.89124962E-05
  3.98372636E-02  2.58319661E-04 -4.07537818E-04  2.50771334E-03 -5.75218578E-05
  1.01852471E-05  1.01884915E-01  6.89116269E-05  1.64935210E-02  5.82654084E-02
 -1.14257089E-01 -9.87189284E-03  7.24208650E-06 -1.03150621E-02  1.64279664E-01
 -2.06316643E-04  2.96329404E-02 -7.62349652E-03  4.27366519E-03  2.48250961E-05
  5.27736150E-04 -5.04264521E-06 -3.23728388E-02 -2.05531752E-01  3.98056146E-02
 -5.50687970E-02  5.73856874E-03 -3.23655244E-02 -2.05379330E-01  3.98602247E-02
  5.49500864E-02  5.77934876E-03  1.08387525E-02  3.82750193E-02 -1.62446961E-01
  3.12047461E-02 -3.19599302E-02  2.01667312E-05  8.01262875E-03 -1.50821161E-02
  3.61514154E-05  4.15831342E-03 -1.83663283E-06  4.79055234E-05  5.38870877E-03
  1.52351214E-02  1.08194512E-02  3.82080805E-02 -1.62191269E-01  3.11643959E-02
  3.19528931E-02 -8.80774118E-06  8.09617197E-03  1.51459079E-02  3.25711793E-05
  4.14256491E-03  7.32181494E-06 -4.93457207E-05  5.42807185E-03 -1.52292046E-02
  4.48013620E-02 -5.63265442E-02 -4.31166225E-02  4.68479480E-02  4.69315900E-04
  2.60835281E-02 -4.82636407E-02 -1.68440953E-02  7.09538936E-03 -9.31823968E-04
  2.60808972E-02 -4.83185320E-02 -1.66458714E-02 -7.17111489E-03 -9.27727279E-04
  4.48083644E-02 -5.62586791E-02 -4.28344554E-02 -4.67220665E-02  3.98851366E-04
 -2.46283120E-02 -8.64460401E-02  2.90209725E-01 -1.76338366E-01 -1.00914580E-04
  7.32862812E-05 -1.33150761E-01  7.82032150E-04 -9.62751314E-04 -5.25912633E-02
 -5.52472706E-05 -2.35340186E-05  6.85221568E-02  5.61201159E-06  6.60950741E-03
  2.16695308E-02 -4.82911367E-02 -1.14307829E-01  1.43018409E-02  8.40090202E-06
 -5.48465310E-03  3.63127516E-02  2.08354071E-03  2.40447986E-02  5.18165844E-04
  2.54975966E-05 -5.37798018E-02 -4.75425770E-02  2.53667436E-02  8.63352368E-02
 -2.37840381E-01  1.38360042E-02 -5.41675935E-02  3.31789963E-04  4.43726641E-02
 -3.13738896E-02 -4.21269303E-03  5.36475741E-02 -2.38865622E-07 -1.70694755E-04
  1.82533788E-02 -2.91523818E-02  2.15183683E-02  7.27751534E-02 -1.97678076E-01
  1.41261233E-01 -7.12526945E-05  1.25393489E-03 -4.68676336E-02 -7.21625420E-04
  8.68028275E-03  5.05967102E-02  2.08041033E-03 -2.17608560E-05  7.58859208E-02
 -1.22248565E-05  2.53851400E-02  8.63989572E-02 -2.38044560E-01  1.39229890E-02
  5.41594474E-02  3.16574376E-04  4.58180237E-02  3.08512771E-02 -4.21371934E-03
  5.36900504E-02  2.28869813E-05  1.50671773E-04  1.82618551E-02  2.91174479E-02
  6.63995918E-03  2.17760230E-02 -4.86594436E-02 -1.14294262E-01 -1.42504078E-02
  2.39241743E-05 -4.28756953E-03 -3.56587233E-02  2.06248135E-03  2.40803261E-02
  5.94613384E-04 -5.55336637E-05 -5.37071176E-02  4.75133045E-02 -1.61865944E-02
 -5.77864756E-02  1.30559946E-01  2.92866741E-01  1.79387251E-04  2.36215774E-06
 -1.23834093E-02 -8.35469966E-05  3.29755808E-04  1.74508994E-02  4.01092880E-05
  7.62242458E-05  6.48641437E-02  1.27359168E-05 -2.03262476E-02 -7.23253008E-02
  1.48519321E-01  6.60375497E-02 -3.77621174E-05  1.62256822E-02 -5.58162477E-02
  1.06652829E-04 -1.98811027E-02  2.86965493E-04  3.80756106E-04 -8.21328280E-06
 -2.02214186E-02  2.61730980E-05  5.65658586E-02  1.39427508E-01 -2.91070830E-02
  4.10758529E-02 -3.95913557E-03  5.65530596E-02  1.39294368E-01 -2.91476817E-02
 -4.09817266E-02 -3.98706725E-03  1.32889564E-02  4.69414853E-02 -2.07149694E-01
  5.13041648E-02 -3.39997581E-02  1.62179286E-05  2.89035851E-02 -3.21301460E-02
 -1.98659173E-05 -2.61550833E-03 -2.52422151E-06 -2.42690920E-05  1.64791471E-02
  1.04500180E-02  1.32752574E-02  4.68926850E-02 -2.06933940E-01  5.12576963E-02
  3.40372541E-02 -1.85082830E-05  2.89254076E-02  3.21940171E-02 -7.46627285E-05
 -2.64247318E-03  2.01803220E-06  3.13646924E-05  1.65051350E-02 -1.03801904E-02
 -1.02095700E-02  1.00141906E-01 -3.17631144E-02  9.21794847E-03 -3.81836187E-04
 -4.43907707E-02  2.86410429E-02  2.67532830E-03 -3.47333189E-02  9.82310156E-04
 -4.44156238E-02  2.84877717E-02  2.56724669E-03  3.48460826E-02  9.85260109E-04
 -1.02858179E-02  1.00091489E-01 -3.17736226E-02 -9.21314478E-03 -4.02678462E-04
 -1.43807275E-05 -4.98105139E-05  1.51699630E-04 -5.36231365E-05  1.46636913E-01
  3.74688896E-05 -2.20841519E-05 -1.53412800E-01 -1.35809093E-06 -3.76242153E-05
  3.34007761E-05  3.97091704E-07  6.41083678E-05  1.00383373E-01  3.42888457E-02
  1.18673484E-01 -3.59919106E-01 -6.88631216E-02  1.35167866E-02 -1.51664218E-05
 -1.87994845E-02 -1.06015512E-01 -5.14522485E-05  5.25014598E-02 -6.01192484E-05
 -6.28821744E-05 -6.45066236E-02  1.53443378E-02  3.41192619E-02  1.17965936E-01
 -3.54249401E-01  6.64705546E-02  1.28165076E-02  3.67597747E-05 -3.81219035E-02
 -1.68146746E-01  4.98431843E-04  5.05734546E-02 -2.10038118E-05  2.53807736E-05
 -6.68412259E-02 -1.20749162E-02  7.80208724E-06  2.68515739E-05 -8.23643281E-05
  8.20292922E-05  1.53950240E-01  1.88425991E-05 -3.61052376E-05 -2.30324908E-01
 -2.85425342E-05  7.25330473E-06  6.94917257E-06  4.57809307E-04 -4.49841568E-05
 -9.73174314E-02 -3.41020200E-02 -1.17907006E-01  3.54107065E-01 -6.64782589E-02
  1.28815811E-02  1.06680641E-05  3.81030801E-02 -1.68184843E-01 -4.93217976E-04
 -5.05314872E-02 -5.80910747E-06  1.24698278E-05  6.68166585E-02 -1.20849527E-02
 -3.42924612E-02 -1.18687105E-01  3.60009337E-01  6.87632117E-02  1.35048706E-02
  1.10849071E-05  1.86691314E-02 -1.06040544E-01 -9.11014575E-05 -5.25067635E-02
  4.02017872E-05 -5.30931389E-05  6.44643475E-02  1.53717481E-02 -9.66395619E-06
 -3.40770056E-05  7.19811437E-05  1.05040838E-04 -6.84078330E-03  3.92284822E-05
 -3.03602614E-05  5.37873742E-02  1.14649591E-05  4.62414539E-06 -8.07759527E-06
 -4.75887964E-05 -6.00532564E-07  4.44686387E-02 -8.41031496E-06 -2.99455426E-05
  6.18036392E-05  4.77941100E-05  4.69997978E-02  1.99698571E-05 -4.00217747E-06
  6.48095401E-02 -1.12437573E-06 -4.54658430E-08 -3.12828475E-06  3.41442320E-03
 -1.97856870E-05 -2.55984566E-02 -1.49706570E-02 -8.55436570E-03  1.81288567E-04
  1.04623354E-03  2.53828763E-03  1.50252004E-02  8.63021017E-03 -1.90333716E-04
  9.96863353E-04 -2.54000307E-03 -2.89374985E-03 -1.02197367E-02  4.48989009E-02
 -5.61109444E-03  6.30018811E-03  6.63292751E-06  1.29653611E-02  6.69329463E-03
 -2.23907986E-05 -2.81732473E-03 -1.90501266E-06  4.65600575E-07  2.43072651E-03
  2.09281765E-03  2.90532697E-03  1.02607752E-02 -4.50819665E-02  5.63017387E-03
  6.28929503E-03  9.31532248E-06 -1.29267970E-02  6.70335516E-03  2.22932850E-05
  2.81147845E-03 -4.21333476E-06  4.03992709E-06 -2.40717876E-03  2.07746599E-03
 -6.60680620E-02 -1.32105422E-01 -4.42879010E-02 -5.20627766E-02  7.65803480E-05
 -6.60976647E-02 -1.49742059E-01  5.50015946E-02 -5.01811475E-02 -1.51232780E-04
  6.60841880E-02  1.49746341E-01 -5.49791330E-02 -5.01626646E-02  1.40687463E-04
  6.61125466E-02  1.32138951E-01  4.42180993E-02 -5.21117809E-02 -1.29482905E-04
  6.86594108E-03  2.32033802E-02 -5.15369759E-02 -2.38711200E-01 -5.70251948E-05
 -2.30989111E-04 -4.83274692E-02  5.61875294E-04 -2.77376295E-04  4.27267037E-03
 -1.06789071E-04 -6.01770971E-05  1.41096579E-01  2.32519420E-05  2.34271026E-02
  8.11242512E-02 -2.53434324E-01  1.07898965E-03 -3.15822376E-02 -3.42307853E-04
 -2.15607304E-01 -4.40265179E-02 -7.23674892E-04  2.59767274E-02 -5.32989984E-04
  7.84658281E-05  3.89758622E-02 -4.07489301E-03 -7.37441336E-03 -2.57860715E-02
  8.05849584E-02  1.41184521E-01  7.69915404E-02 -1.04521154E-03 -1.27322776E-01
 -3.81863346E-02 -2.03782775E-03 -1.48446154E-02 -1.77582182E-03 -2.38572348E-03
 -6.10540863E-02  2.64292051E-02 -3.37060631E-02 -1.16873664E-01  3.79418979E-01
 -3.27279553E-02  4.57602032E-05 -5.26694152E-03 -2.37057511E-01 -5.82687546E-04
  4.18397981E-03 -1.97237338E-02 -4.23535531E-03  1.16130649E-05 -9.27403373E-02
  4.53629099E-05 -7.38797041E-03 -2.58327100E-02  8.07180998E-02  1.41118038E-01
 -7.70632436E-02 -1.07736345E-03 -1.26127820E-01  3.75279677E-02 -2.03527979E-03
 -1.48688060E-02 -1.76616571E-03  2.41266127E-03 -6.10831387E-02 -2.63915258E-02
  2.34317534E-02  8.11412109E-02 -2.53521783E-01  1.21146968E-03  3.15998945E-02
 -3.24138819E-04 -2.14563904E-01  4.48253597E-02 -6.07537552E-04  2.59822047E-02
 -5.03892042E-04 -1.06131925E-04  3.90524052E-02  4.03940309E-03 -1.85893809E-02
 -6.64785409E-02  1.54848294E-01  2.14245521E-01  9.37376410E-05 -8.37397018E-05
 -5.37868779E-02 -2.89757650E-05 -6.10050115E-05  3.29500125E-02 -5.23790458E-05
  5.58224458E-05  3.30219607E-02  4.05917683E-05  1.82815037E-02  6.60376268E-02
 -1.49111703E-01 -2.12458724E-01  1.01559362E-04 -2.54234013E-02 -2.09243879E-01
  1.33959722E-04 -1.36505960E-02  8.90690550E-03 -1.25535148E-02 -3.26077653E-05
  5.25967632E-02 -2.91678479E-05 -9.95205380E-02  6.80659310E-02 -1.17369313E-02
 -2.69569695E-03  1.24292901E-03 -9.94980213E-02  6.80726239E-02 -1.17506291E-02
  2.71272084E-03  1.24235116E-03  1.17586752E-02  4.18112887E-02 -1.90922663E-01
  6.30999312E-02  3.66876039E-03 -3.77587888E-05  2.72224086E-02 -1.30401488E-02
 -2.88739283E-05 -6.40051813E-03 -1.46373564E-05 -9.75047915E-06  1.15432539E-02
  1.59564151E-02  1.17577233E-02  4.18077430E-02 -1.90908539E-01  6.31114007E-02
 -3.57007318E-03 -3.96463395E-05  2.72311497E-02  1.31569209E-02 -5.63234899E-05
 -6.40773736E-03 -3.51379910E-06  9.91214933E-07  1.15826646E-02 -1.58974264E-02
 -4.77464181E-02 -8.88882770E-02 -2.49550820E-02 -5.13005804E-02 -2.15558630E-04
  1.51560670E-02  2.73430916E-02  2.69031100E-02  4.15489401E-02 -1.66196115E-03
  1.51448499E-02  2.73128380E-02  2.67850518E-02 -4.15122079E-02 -1.67609653E-03
 -4.77592017E-02 -8.89773929E-02 -2.49238503E-02  5.12868327E-02 -1.88512283E-04
  8.21375083E-06  2.88015038E-05 -9.62099360E-05  1.47817735E-05 -2.32869590E-01
 -9.30589500E-05  4.23530424E-05 -2.67046239E-02 -1.50201973E-05  2.23576556E-05
 -8.74076001E-06 -2.42869887E-04 -6.08965426E-05 -4.86234334E-02 -2.51181773E-02
 -8.78627287E-02  3.03572707E-01 -1.10675181E-01  4.10666553E-03  7.91561029E-05
  2.92551912E-02  3.44761930E-02 -4.91085150E-04 -9.32308081E-03  2.50396563E-06
 -2.57060323E-05 -2.65028622E-02 -6.63963804E-04  2.16296232E-02  7.56237583E-02
 -2.61753734E-01 -1.52123375E-01 -1.89073985E-02  2.39641285E-05  3.74863311E-02
 -4.04803152E-02 -4.10578212E-04  3.67648468E-03 -7.52285284E-05 -6.58830504E-04
  2.77053873E-02 -3.86525262E-04  1.80729268E-06  6.54469933E-06 -3.26360260E-05
  7.06179680E-05  2.79859973E-01  3.00128288E-05  2.52334961E-05  2.78055472E-02
 -4.66146759E-06 -1.52999628E-05  6.57829132E-06 -2.49474680E-03  1.74834485E-05
 -2.40814357E-02 -2.16352519E-02 -7.56431926E-02  2.61819275E-01  1.52006578E-01
 -1.89608951E-02 -3.34345533E-05 -3.74128384E-02 -4.04848607E-02  4.11563016E-04
 -3.68173228E-03  1.04211698E-04 -6.56418188E-04 -2.76805779E-02 -4.04373268E-04
  2.51117376E-02  8.78408111E-02 -3.03521347E-01  1.10735171E-01  4.09128765E-03
 -1.33259484E-04 -2.91628502E-02  3.44708032E-02  5.51447274E-04  9.32553103E-03
 -8.09690923E-07 -5.48320093E-05  2.65077832E-02 -7.20667917E-04  1.16468122E-05
  4.17320496E-05 -9.88640769E-05 -4.34752968E-07 -1.27168715E-02 -1.41594017E-04
  5.90179621E-06 -2.21150292E-02 -1.92085178E-05 -1.59779877E-05  2.99953197E-06
  2.40337018E-05  4.99467706E-06 -4.75159724E-02 -3.49493504E-06 -1.26108787E-05
  2.82615036E-05  8.88415905E-05  2.01219806E-01  8.13101223E-05  7.02838598E-05
  6.92748864E-02  2.07335097E-05  6.17516943E-06  1.25220995E-05  1.01383213E-02
 -1.49672422E-05 -1.52950335E-02 -7.73086650E-02 -4.34381715E-02  1.14168213E-02
 -8.46369813E-03  8.63530745E-03  7.73396954E-02  4.33755597E-02 -1.14111550E-02
 -8.44942455E-03 -8.65794894E-03  5.28276099E-03  1.87788099E-02 -8.41264560E-02
  2.64241622E-02 -2.86728365E-03 -4.88592080E-05 -3.00474187E-03 -1.22314516E-02
 -2.82629187E-05  3.52301423E-03 -1.47360081E-05 -1.12125516E-06  4.27737182E-03
 -1.21599903E-03 -5.29836283E-03 -1.88341395E-02  8.43740847E-02 -2.64218872E-02
 -2.74557274E-03 -7.61191221E-05  3.02050994E-03 -1.22060082E-02 -2.54850988E-05
 -3.51728375E-03  1.70434362E-06  1.13775732E-05 -4.26890518E-03 -1.21405791E-03
  8.17809293E-02  8.83829346E-02  1.82492770E-03  4.87194652E-02  4.80801893E-05
 -7.68900385E-02 -9.94331575E-02  4.31496242E-03 -4.76976064E-02 -8.82030793E-04
  7.68587688E-02  9.94145844E-02 -4.33466046E-03 -4.76990387E-02  8.60295230E-04
 -8.17580595E-02 -8.83687737E-02 -1.77246753E-03  4.87339805E-02  1.90516466E-06
 -2.27472689E-02 -7.91036846E-02  2.63701753E-01  2.03016072E-01  1.28315329E-04
 -2.52475005E-04  1.35636749E-02 -6.42905701E-04  6.97085326E-04  6.53522952E-03
 -2.27284552E-04  6.57302655E-05 -9.45249680E-02 -4.04329560E-06  2.03898012E-03
  7.46181769E-03 -3.30700299E-02 -1.37905358E-01  1.93541458E-01 -7.12828377E-04
  1.16393233E-01  7.98702378E-02 -1.65074573E-03  6.73552592E-03 -6.03337101E-04
  5.02381972E-06 -7.51372084E-02  4.15580497E-03  2.06049280E-02  7.19222006E-02
 -2.42780534E-01  5.46097577E-02  1.44394054E-01 -2.32227930E-03  1.57613541E-01
 -9.56491662E-02 -1.24883514E-04 -4.33924929E-05 -8.61994066E-04 -2.07854221E-03
  1.42145737E-02  3.37905276E-02 -1.80454681E-02 -6.27596298E-02  2.24574364E-01
  1.04204170E-01  4.52866361E-05 -9.58593091E-03 -1.23874007E-01  7.09622709E-04
 -3.18214165E-03  1.29201913E-02 -6.59811543E-03 -9.99926453E-06  9.61060749E-02
 -3.98154488E-05  2.06106933E-02  7.19424850E-02 -2.42855609E-01  5.46385199E-02
 -1.44524541E-01 -2.39003463E-03  1.56390856E-01  9.63186849E-02 -1.26762813E-04
 -3.25698510E-05 -8.50437353E-04  2.06107839E-03  1.42224128E-02 -3.37998493E-02
  2.02861648E-03  7.42568238E-03 -3.29535118E-02 -1.38109913E-01 -1.93638755E-01
 -7.95980782E-04  1.15220042E-01 -8.06568429E-02 -1.74415866E-03  6.72392312E-03
 -5.69878635E-04  3.94107463E-05 -7.51379187E-02 -4.08827959E-03  1.70510724E-02
  6.12274194E-02 -1.50315347E-01 -8.64699590E-02 -4.59289695E-05 -2.36443425E-04
  5.99567232E-02  4.22847339E-05 -4.62324522E-04 -5.01111434E-02 -1.40370740E-04
 -5.09159120E-05 -2.25492869E-02 -1.76315322E-05  3.27691435E-03  1.21677074E-02
 -3.29607117E-02 -2.21715114E-01  2.11296470E-04 -2.10670749E-02 -7.40788317E-02
 -3.48656119E-07 -2.83163296E-03 -4.34623941E-03 -7.74422167E-03 -1.43599209E-06
  1.89223130E-02 -1.29155009E-06 -6.84648729E-02 -3.72595735E-02 -1.33035247E-03
 -1.39316218E-02  4.68184462E-03 -6.83434092E-02 -3.71871575E-02 -1.33207348E-03
  1.39142745E-02  4.68693775E-03 -1.25691152E-02 -4.47841758E-02  2.06941811E-01
 -7.12492491E-02 -5.98257320E-02 -1.07451180E-04 -2.24052516E-02 -9.27335819E-03
 -3.79321347E-05  9.13918653E-03 -8.35957500E-06  7.23504063E-06 -3.82569467E-03
 -1.35574490E-02 -1.25683868E-02 -4.47814843E-02  2.06931665E-01 -7.13146818E-02
  5.97669867E-02 -1.74342154E-04 -2.24468570E-02  9.19013471E-03 -5.07097759E-05
  9.14469186E-03 -2.07051716E-05  9.40543404E-06 -3.87209444E-03  1.35257751E-02
 -4.26201961E-02  4.98580992E-03 -1.78849940E-02  1.94028790E-02 -1.89635096E-05
 -9.26599851E-02 -1.48093818E-01  2.48340251E-02 -3.71030871E-02 -1.73768267E-03
 -9.27201885E-02 -1.48125946E-01  2.49372974E-02  3.70638447E-02 -1.71812434E-03
 -4.26669033E-02  5.06786867E-03 -1.78466243E-02 -1.93611810E-02 -2.42152655E-06
  4.07504583E-03  1.47548746E-02 -4.75338443E-02 -7.97424922E-02 -1.81384964E-04
 -9.71043794E-04  6.42082307E-02 -1.34148131E-03  9.82880127E-04  7.73250913E-03
 -1.51417699E-04  7.00487395E-05 -6.71130908E-02  2.17928228E-05 -1.01020136E-02
 -3.49052867E-02  1.14607743E-01 -6.96130875E-02 -1.64305386E-01 -8.19914610E-04
  8.12944923E-02  4.07720857E-02 -2.41490051E-03 -7.54778989E-03 -8.59075789E-04
 -6.16815610E-05  5.12999125E-03  5.71051936E-03  2.40061349E-04  1.12892030E-03
 -8.45095724E-03  1.87827462E-02 -1.54753912E-01 -3.06756079E-03  1.32174303E-01
 -6.71865603E-02  1.02785885E-03 -1.80264837E-02 -7.07194036E-04 -2.29212478E-03
  4.70278025E-02  3.44083921E-02 -8.00929647E-04 -2.25075236E-03  6.34971060E-03
  2.57176977E-01 -2.43496637E-04 -1.33728133E-02 -2.26528851E-02  1.31735196E-03
 -7.32382407E-03 -1.19199583E-02 -8.40331981E-03  1.25925754E-05  6.25141271E-02
 -1.36671475E-04  2.18716701E-04  1.05430261E-03 -8.19952938E-03  1.85373852E-02
  1.54939509E-01 -3.01288524E-03  1.29950034E-01  6.83827395E-02  1.06633004E-03
 -1.80306937E-02 -7.29798855E-04  2.29151003E-03  4.69916286E-02 -3.44252666E-02
 -1.00983031E-02 -3.48916192E-02  1.14536093E-01 -6.91227479E-02  1.64458087E-01
 -7.00770287E-04  7.89132296E-02 -4.21620957E-02 -2.51166104E-03 -7.55496412E-03
 -9.07028341E-04  1.03465502E-04  5.14996225E-03 -5.66605689E-03  1.45844485E-02
  5.22500526E-02 -1.30783539E-01  1.28202986E-01  5.08435404E-05 -1.77528073E-03
  4.87533365E-03  8.96830014E-05 -8.69610591E-04 -4.55772480E-02 -1.77525884E-04
 -7.74300302E-05 -6.52176489E-02 -1.20193032E-04  1.99339072E-03  7.30891265E-03
 -1.77553524E-02 -2.62247978E-01 -2.90686712E-04 -2.55149438E-02  1.93339653E-02
 -2.98412238E-04  4.06301861E-03  1.54205344E-03 -5.36363861E-03 -1.74353501E-05
  4.26978697E-03 -3.12741357E-05 -7.28569441E-02 -1.07105619E-01  4.18848739E-03
 -3.32629747E-02  7.17965197E-03 -7.31654017E-02 -1.07001079E-01  4.24494888E-03
  3.31957069E-02  7.21780164E-03 -1.75003132E-02 -6.23193583E-02  2.84955610E-01
 -2.10250487E-02 -1.84902868E-01 -8.83352932E-04  9.64500109E-03 -5.27169880E-02
 -3.51054798E-04  5.92266253E-03 -7.23041338E-05 -9.58320701E-05  1.13281422E-02
 -8.81273057E-03 -1.75188058E-02 -6.23849432E-02  2.85251037E-01 -2.13799997E-02
  1.84882078E-01 -1.05967907E-03  9.52414914E-03  5.25771727E-02 -3.86843445E-04
  5.92113435E-03 -6.71849576E-05  1.34158138E-04  1.12712781E-02  8.78891445E-03
  1.11679065E-01  7.94523540E-02  3.58286929E-02  1.20686206E-02 -2.81479580E-05
  6.49458458E-02 -3.89161721E-02 -1.57708024E-02 -1.95288742E-02 -2.18771685E-03
  6.50215368E-02 -3.88076901E-02 -1.56251335E-02  1.94117270E-02 -2.18548456E-03
  1.11598766E-01  7.95759963E-02  3.60023934E-02 -1.19823511E-02 -5.62927783E-05
  4.85333016E-06  1.96087419E-05  5.37642757E-05 -6.19957820E-04  1.96988377E-03
  1.49553763E-01  7.88868910E-04  2.69272051E-03  1.55005698E-02  2.51703444E-04
 -4.96171744E-02 -3.59185124E-05 -5.57267503E-05 -2.33305567E-04  5.14759823E-05
  1.84471008E-04 -7.28849389E-04  1.19850137E-03 -9.72769170E-04  4.40487269E-02
 -1.65168613E-03  1.47545652E-03  1.48855269E-02 -1.14642181E-05  1.07502836E-03
  1.74560284E-02  4.69739356E-04 -6.44916927E-05 -1.18936118E-04 -4.12904028E-04
  1.28195620E-03 -3.71071574E-04 -7.40525781E-04  1.27228241E-02 -8.58567205E-04
 -8.60026299E-04  5.18818208E-03 -2.07157561E-04 -3.76687270E-03  6.31498268E-04
 -6.12207575E-05  8.21383664E-05 -6.44258401E-05 -2.19766127E-04  6.86840786E-04
  1.18089979E-04  1.02502413E-03  8.81293535E-03  6.47038061E-04 -1.52425169E-03
 -3.19911583E-03  4.69855776E-05 -3.79374179E-03 -4.98842553E-05 -2.16398424E-04
  8.96885786E-04  1.13666568E-04  3.99322619E-04 -1.35933099E-03  1.52493120E-03
 -6.82896017E-04  1.27158146E-02  1.51265714E-03 -8.86614987E-04  5.17238120E-03
 -3.62059147E-05 -3.76863578E-03 -6.46662974E-04 -2.37283280E-04 -1.20889175E-04
 -2.12235361E-05 -7.59733037E-05  3.74060730E-04 -2.32807337E-03 -1.91784937E-04
  4.40187535E-02  2.31764487E-03  1.18095349E-03  1.49776771E-02 -7.09950396E-05
  1.06375688E-03 -1.74642618E-02 -1.09873237E-04  6.09111650E-05  1.23145418E-04
  4.42560179E-04 -1.14692776E-03  1.42671235E-03  1.02189361E-03  5.46375128E-01
  1.40508652E-04 -4.27070706E-04  5.70671331E-02 -5.01338762E-04 -2.29649260E-03
 -2.77226926E-06 -6.70910794E-04  3.71556366E-04  6.49982486E-05  2.32936437E-04
 -5.15952590E-04 -4.68540493E-04  3.57316883E-03  3.31285776E-03  4.17912560E-04
  1.41977919E-03  5.46743816E-03  1.15730145E-06 -2.36659624E-03  1.78187105E-04
 -5.34153582E-05  3.42194867E-04 -1.62104117E-03 -7.71475512E-04  2.40118212E-04
 -1.81004887E-04  7.84982129E-04  1.44311937E-03 -5.98920086E-04  1.57635756E-05
  1.68517825E-04  6.51897562E-04 -2.52895730E-04 -9.00524937E-04  4.09781571E-03
 -9.23798017E-04 -2.13211175E-03  2.96424710E-01 -9.09789281E-05 -5.06550324E-04
  1.33019089E-01 -7.94527338E-07  2.63349345E-02  4.28963606E-02  1.28307192E-05
 -1.37497688E-04 -8.98194391E-05 -3.20074421E-04  1.48267230E-03  3.91833660E-04
  1.70002810E-03  2.96491386E-01  2.02388320E-04  5.78032329E-04  1.33049942E-01
  1.53947294E-04  2.63854397E-02 -4.28745828E-02  2.05888989E-04  3.74032955E-05
  8.03880933E-05  5.46057716E-04  8.36683672E-04 -2.80811268E-04  8.24440516E-03
  5.29105443E-04 -2.37022106E-05 -4.85139694E-05  1.37934644E-04  2.16214254E-03
 -1.99426882E-04 -6.36861125E-04  2.69025908E-04  1.53457388E-04  2.18402672E-03
  6.51120975E-04  2.24337971E-04 -2.68432133E-04 -1.90468520E-04  8.22270550E-03
  9.50088833E-06  3.26385878E-05 -1.36125112E-04  1.05658915E-05  2.26158786E-01
 -1.28422950E-03 -3.47625450E-04  2.83633981E-01 -9.97720860E-05 -9.32345626E-05
  4.68883627E-04 -9.49647427E-06 -1.34730241E-04 -2.07194469E-02  5.22566421E-03
  1.86509637E-02 -7.58917559E-02  1.95324480E-01 -6.36934478E-02 -2.62873996E-04
 -2.06488879E-01  1.47122101E-01 -4.24554805E-04  3.66940590E-03  3.20041790E-05
  1.57714511E-04  3.25382713E-02  4.76994121E-04 -1.34636735E-02 -4.70454574E-02
  1.54101614E-01 -9.50960117E-02 -7.95957435E-02 -2.88593497E-04 -1.18526004E-01
 -9.39610263E-02 -1.12749649E-03 -9.41649855E-03  6.20914860E-04 -1.14315137E-03
  8.19621016E-03 -1.43809697E-03  4.85522378E-06  1.73828147E-05 -5.12401589E-05
  6.96563413E-04  1.03842296E-01 -4.92441466E-05 -3.16777884E-04 -1.55349643E-01
  1.22774695E-05 -1.12254539E-05  3.85579246E-05 -5.99711366E-03  2.49947172E-04
  1.01057963E-01  1.34709270E-02  4.70704976E-02 -1.54188692E-01  9.49122529E-02
 -7.89450464E-02  3.39520769E-05  1.18895119E-01 -9.35826712E-02  9.55263420E-04
  9.36315052E-03 -5.44125161E-04 -1.14463777E-03 -7.88397770E-03 -1.60488221E-03
 -5.28430545E-03 -1.88552329E-02  7.65863151E-02 -1.95439368E-01 -6.30169169E-02
 -4.96744268E-04  2.06801701E-01  1.46690823E-01  2.38485404E-04 -3.65551365E-03
 -4.16039925E-05  5.14081360E-04 -3.26434144E-02  3.62840943E-04 -2.14668259E-05
 -7.77458740E-05  2.09256306E-04 -2.92996415E-04  9.14827909E-02 -4.90745562E-03
 -6.27914165E-05 -5.16499174E-02 -4.75623195E-04  8.89558282E-05  1.68739062E-05
 -9.41520379E-07  6.78337479E-05  4.69087271E-02 -3.87768456E-07 -7.08041208E-07
 -6.92043973E-06 -5.22809937E-04  3.99099128E-01  1.36200789E-04 -4.53102395E-05
  1.56396258E-01  2.75405394E-05  3.43703582E-05  2.69427142E-05  1.97654899E-02
  5.34319854E-05  3.96671405E-02 -1.71819463E-01 -9.73659576E-03  1.24594685E-02
 -5.54312925E-04  7.40427251E-03  1.71476287E-01  9.53929812E-03 -1.25010064E-02
 -4.30575483E-04 -7.38496775E-03 -1.00171091E-02 -3.56593700E-02  1.60812657E-01
 -8.23028607E-02 -4.88851619E-02 -2.65207097E-03 -1.80575332E-02 -6.00446965E-03
 -1.20930427E-03 -4.40740783E-03 -2.40634962E-04 -3.95757436E-04 -8.25120885E-03
 -8.41156104E-03  1.00739577E-02  3.58619611E-02 -1.61741800E-01  8.24383298E-02
 -4.94275534E-02 -2.60470820E-03  1.80638205E-02 -6.09066864E-03 -1.17903349E-03
  4.38278140E-03 -2.28268190E-04  3.74235538E-04  8.22600558E-03 -8.40924254E-03
 -3.34214461E-02  1.92060676E-02  6.23017592E-02 -2.80148044E-02  2.77822394E-04
  4.46977257E-02  3.57828174E-02 -1.79155063E-02  1.72807365E-02 -1.12096171E-03
 -4.45320199E-02 -3.57366544E-02  1.77700732E-02  1.73618581E-02  1.09571103E-03
  3.37893660E-02 -1.89158888E-02 -6.22650331E-02 -2.80845964E-02 -4.54065430E-04
 -1.01004490E-04  6.07877465E-05  2.20951327E-02 -1.11832262E-01  4.82054191E-04
 -8.35065592E-05  2.21210961E-01 -4.19350228E-04 -2.88574176E-05  4.73986850E-02
  5.47587890E-04  1.43562678E-05  9.57931128E-02 -5.48561633E-05  1.13207125E-02
  3.95527465E-02 -1.32586282E-01  2.81285398E-02  3.75631580E-02  1.04089386E-03
 -5.32118176E-02 -8.19103480E-02  9.42484541E-04 -4.76158231E-03  7.89850535E-04
 -3.28483309E-05  6.06474432E-02 -4.66309058E-02 -6.72167782E-03 -2.31017268E-02
  7.16801172E-02  3.99575190E-02  8.60781323E-02  3.86641369E-03 -6.42056581E-02
  1.08392665E-01  2.73398881E-03  4.94505074E-03  1.39348300E-03  3.18516024E-03
 -6.71797227E-02 -4.15498470E-02 -1.25238659E-04 -4.87004729E-04 -4.56867799E-03
 -2.65080569E-01  2.06298720E-04  1.56005276E-02  1.87141659E-01  5.78916067E-04
 -4.82947766E-04 -8.94156010E-03  7.80929218E-03 -1.98820902E-05 -1.01947975E-01
  1.96115846E-04 -6.67612418E-03 -2.29424945E-02  7.11583227E-02  4.00767184E-02
 -8.64243310E-02  3.83703805E-03 -6.54477205E-02 -1.07820729E-01  2.72850897E-03
  4.98240580E-03  1.42285403E-03 -3.21257114E-03 -6.71262791E-02  4.16051773E-02
  1.12876940E-02  3.94363324E-02 -1.32189839E-01  2.75330372E-02 -3.79169590E-02
  9.66572802E-04 -5.41713177E-02  8.15123232E-02  9.54358340E-04 -4.79604123E-03
  7.69714974E-04 -6.01585114E-06  6.05831420E-02  4.66163436E-02  1.38878933E-02
  5.00715290E-02 -1.34706336E-01  2.62926232E-01  3.38970172E-04 -2.85099764E-03
  2.91302548E-02 -7.67533950E-05 -7.72574407E-06 -6.79226461E-02  1.73180894E-04
 -1.02501732E-04 -9.82848377E-02 -6.96929622E-06  7.91055913E-04  2.36777359E-03
  1.09277421E-03  2.68132069E-01  5.46277130E-04  2.63303012E-02  9.05862339E-02
  1.22632137E-04  1.23975328E-02 -7.54272468E-03  8.30313053E-03  4.41285093E-05
 -1.10478212E-02  6.68285114E-05  7.30287907E-02  4.27560230E-04  1.36955838E-02
  1.02126325E-02 -4.12877313E-03  7.35794652E-02  5.36160703E-04  1.36484587E-02
 -1.02305599E-02 -4.17248062E-03 -2.33270835E-02 -8.31379636E-02  3.81129578E-01
 -1.78682586E-02 -2.73579849E-01 -1.49822844E-03  1.30006644E-02 -7.44521331E-02
 -6.76892854E-04  7.25340166E-03 -1.36917390E-04 -2.24216541E-04  1.61060911E-02
 -5.96847469E-03 -2.32855068E-02 -8.29897267E-02  3.80460738E-01 -1.77849727E-02
  2.73425811E-01 -1.81039401E-03  1.29710951E-02  7.43362556E-02 -7.58092667E-04
  7.27807310E-03 -1.34958639E-04  2.72219249E-04  1.61100938E-02  5.91834893E-03
 -4.03756131E-02 -2.74540456E-02  3.46103912E-02 -2.63739458E-02  3.85849178E-04
 -3.09574268E-03 -1.34177975E-02  1.83412485E-02  1.40810721E-02  1.99530565E-03
 -3.32676630E-03 -1.35204550E-02  1.84859411E-02 -1.40996541E-02  2.00591031E-03
 -4.03389065E-02 -2.74442822E-02  3.44829488E-02  2.63193241E-02  4.06810830E-04
  9.68078043E-07  2.57471141E-06  1.04942216E-05  5.27267309E-05  5.39296893E-03
 -3.32137664E-05 -2.23912369E-04  7.97212428E-01  8.91554139E-05 -2.75522263E-05
  4.70960781E-05  1.29589110E-04  1.79754432E-05 -1.06700545E-01 -6.18908165E-03
 -2.13864699E-02  6.78464693E-02 -2.94113883E-02 -4.91037651E-02  5.06565378E-05
 -5.27985496E-01  4.42437877E-01 -2.83706961E-04  2.00256355E-02 -4.12340829E-05
  2.58827717E-05  1.90817081E-02  8.89825900E-03  6.96972214E-03  2.42780645E-02
 -8.01599929E-02 -3.92938991E-02  8.00087745E-04  1.91444666E-04 -4.81881445E-01
 -3.56811687E-01  1.32087724E-03 -2.54557600E-03 -1.02586719E-04  7.80139089E-04
  8.73118745E-03  7.98648309E-03 -3.62415815E-06 -1.23330046E-05  4.03969407E-05
  1.01695474E-05  4.69114772E-02 -5.90823770E-05 -9.24496204E-05 -5.75603430E-01
  4.31319882E-05  7.77819313E-06 -1.65462079E-05  3.04759194E-03  3.23372997E-06
 -3.70327769E-02 -6.96200919E-03 -2.42509132E-02  8.00608941E-02  3.92562754E-02
  6.86609562E-04 -2.47474699E-04  4.81783850E-01 -3.56929764E-01 -1.65353187E-03
  2.51859159E-03  1.47668360E-04  7.80566506E-04 -8.73327261E-03  7.96315259E-03
  6.18535196E-03  2.13730576E-02 -6.77609843E-02  2.93461341E-02 -4.91411247E-02
 -1.40456756E-04  5.28477596E-01  4.41974084E-01  5.36565762E-04 -1.99673497E-02
  4.64445267E-05  8.71903793E-05 -1.91263258E-02  8.87361451E-03 -2.24671421E-06
 -8.59210540E-06  3.32149920E-05 -2.16769063E-04  3.50337445E-01 -6.27269844E-05
  3.75433657E-06 -2.55847058E-01  8.96505197E-05  1.48650716E-05 -1.96737744E-05
  4.55380687E-05 -3.93180420E-05  1.83828412E-02 -9.19861707E-07 -3.32284219E-06
  6.90466317E-06 -7.32661777E-05 -1.73164246E-01 -1.36268307E-04  2.17012503E-05
  1.56101791E-02 -5.92412026E-05 -1.67335293E-05 -1.89348430E-06 -7.47869535E-03
 -1.52101437E-05 -2.54025195E-02  8.09911189E-02  3.62857201E-02 -4.45907880E-03
  9.01259476E-03 -6.49016996E-03 -8.10019966E-02 -3.63781647E-02  4.47789830E-03
  9.01310785E-03  6.50854918E-03 -2.42367745E-02 -8.63295554E-02  3.89357842E-01
 -2.35131306E-01 -2.72444498E-01  1.64359470E-04 -7.77588121E-02 -9.03408216E-02
  9.28747978E-05 -3.47145838E-03  3.44420903E-05 -1.66496426E-05 -4.40352945E-03
 -3.71833523E-02  2.42458949E-02  8.63626836E-02 -3.89529426E-01  2.35572040E-01
 -2.72258756E-01  2.91462095E-04  7.79559897E-02 -9.01242541E-02  5.89727806E-05
  3.45374859E-03  6.11902230E-06 -5.20695230E-05  4.48869732E-03 -3.71487667E-02
  4.73299759E-02  1.69928201E-01  1.12418532E-01 -1.00673780E-02 -1.56471020E-04
 -2.94522906E-02 -5.00608803E-02  3.87696447E-02  8.22759098E-03  8.45817577E-04
  2.93806578E-02  4.99979237E-02 -3.87452198E-02  8.26367358E-03 -8.20440548E-04
 -4.72763533E-02 -1.69848836E-01 -1.12254508E-01 -1.00005935E-02  1.28708009E-04
 -1.52246176E-05 -5.30243057E-05  1.86018366E-04  1.70835631E-05  2.73499065E-01
  8.00564902E-07  2.04352150E-04 -2.64969922E-01 -5.42414866E-05  1.81416586E-05
 -1.00901548E-05  8.46911744E-05  1.07838208E-04  4.35910903E-02 -2.07995796E-03
 -7.30717779E-03  2.48031474E-02  1.88978422E-01 -1.78299636E-01  1.51649378E-04
  1.43702820E-01 -8.74306220E-02  3.89116698E-04 -8.22176061E-03 -7.11493918E-05
 -2.29548347E-04 -1.06118739E-02  1.10168105E-02  5.29997683E-03  1.87654282E-02
 -6.62486455E-02 -2.22307785E-01 -1.39385486E-01  7.16162860E-04  1.09683998E-01
  7.80323294E-02  7.72828135E-04  5.56251070E-03 -7.41381629E-04  8.86101327E-04
 -3.93211984E-04 -1.90628768E-03  1.65857249E-05  5.80161843E-05 -2.11579182E-04
  2.52240398E-04  2.81753300E-01 -2.39669932E-04  2.05868479E-04  1.16338792E-01
  2.96461050E-05 -3.35170534E-05 -3.50181690E-05  5.19519358E-03 -9.35931871E-05
 -7.88233251E-02 -5.32922927E-03 -1.88673553E-02  6.65990130E-02  2.22301027E-01
 -1.38948425E-01 -1.02240786E-03 -1.09638502E-01  7.76886271E-02 -8.37236104E-04
 -5.52937633E-03  7.35435949E-04  9.57679257E-04  3.86362804E-04 -1.70853973E-03
  2.09596063E-03  7.36374851E-03 -2.50273531E-02 -1.88811093E-01 -1.78527814E-01
 -3.55667668E-04 -1.43948874E-01 -8.70378455E-02 -4.19586144E-04  8.18274142E-03
  7.10555314E-05 -2.41981949E-04  1.07530291E-02  1.12638858E-02 -1.31818657E-06
 -4.45150718E-06  2.03878710E-06  1.26971192E-04 -1.07792250E-01 -1.82848770E-05
  1.05950695E-05  1.14955527E-01 -1.09955449E-05 -3.00910653E-05 -4.01910123E-06
 -2.18354286E-05 -2.06937224E-05  4.38094741E-02 -2.83595949E-06 -1.01479558E-05
  2.35025643E-05 -1.42853317E-04 -2.64063680E-01 -3.89346447E-04  4.34568450E-05
 -1.08537110E-01 -1.94093173E-04 -1.67103782E-05 -8.89532460E-06 -1.66057457E-02
 -5.90790862E-05 -6.92656747E-02  1.34353879E-01 -2.17348447E-02 -5.82155608E-03
 -1.44507571E-02 -4.65795040E-03 -1.34403389E-01  2.16423609E-02  5.79630502E-03
 -1.44126748E-02  4.63781373E-03  4.73348202E-03  1.68878020E-02 -7.57450289E-02
  5.41454932E-02  1.16179969E-01 -9.49837281E-05  3.03406568E-02  4.78850474E-02
 -3.16620003E-05 -3.27707301E-03  5.87131380E-06 -2.23519760E-05 -4.89323729E-03
  1.11452846E-02 -4.74078905E-03 -1.69142103E-02  7.58779400E-02 -5.43952351E-02
  1.16182881E-01 -1.69479917E-04 -3.04487965E-02  4.78558474E-02 -1.09986244E-04
  3.28682859E-03 -3.91535632E-05  8.75856133E-06  4.84863347E-03  1.11473599E-02
  3.54003398E-02  2.86559030E-03  9.53357821E-03 -5.03778704E-03 -3.36091629E-04
 -9.13986540E-03 -3.39683935E-03 -3.35185222E-02 -2.51576410E-02  8.02713355E-04
  9.41844020E-03  3.66440525E-03  3.33951800E-02 -2.51727532E-02 -8.46130684E-04
 -3.56992536E-02 -3.03751244E-03 -9.54822436E-03 -5.01487313E-03  3.16857762E-04
 -2.03055025E-02 -7.09523085E-02  2.47494617E-01  1.07514316E-01 -2.92444615E-04
 -5.59973496E-04  1.17040176E-01  5.92712022E-04  7.66993811E-05  2.18968888E-02
 -1.57540858E-04 -3.44355731E-05  5.51742265E-02 -1.60370269E-04  1.05857303E-02
  3.71411874E-02 -1.35803442E-01  2.01955274E-02  2.15973170E-01 -9.28746080E-04
  1.43629339E-02 -1.58847602E-01 -1.55086315E-04 -1.47761002E-02  1.27139705E-04
  3.54875323E-05  8.01191263E-03 -1.28751789E-01 -1.03721970E-02 -3.63161784E-02
  1.30679358E-01  1.14994132E-01 -2.40037749E-01 -8.74852851E-04 -6.48915308E-04
  1.75055462E-01 -3.12236975E-05  8.60045977E-03  2.97025561E-04 -3.10108879E-04
 -1.96769147E-02 -1.21938591E-01  1.51543266E-02  5.30571307E-02 -1.88259621E-01
  1.28534965E-01 -3.94284212E-04 -2.90705745E-03  1.67074566E-01 -2.12767179E-04
 -2.31022182E-03 -2.00451288E-02 -1.08522876E-03 -1.53350895E-05 -8.41406895E-02
  1.84300985E-04 -1.03641241E-02 -3.62878672E-02  1.30589740E-01  1.15160688E-01
  2.40892477E-01 -8.94958183E-04 -2.05824975E-04 -1.75395374E-01 -1.11867480E-04
  8.58510819E-03  3.80369952E-04  2.94515672E-04 -1.97521167E-02  1.21989974E-01
  1.06018355E-02  3.71977143E-02 -1.35995885E-01  1.99970701E-02 -2.15321681E-01
 -1.17387851E-03  1.51941282E-02  1.59445650E-01 -7.52986129E-05 -1.47946863E-02
  1.92182792E-04 -8.32587903E-05  8.02022674E-03  1.28734209E-01  3.44503186E-03
  1.24738398E-02 -3.38714492E-02 -1.34018432E-02  1.20259255E-04  4.54368849E-04
  3.26219339E-02 -2.01240425E-04 -8.27628584E-05 -2.44832915E-02 -1.25838945E-04
 -8.36573804E-06  2.28520504E-02  2.02892037E-07  1.30172228E-03  4.68423978E-03
 -8.81925184E-03 -2.54591530E-02  2.00778898E-04 -4.33675403E-03  5.10864587E-02
  2.16757893E-05  1.62633093E-03  6.32291618E-03  4.15471861E-04  1.69753121E-05
 -1.77558542E-02  7.69450229E-05 -7.14979832E-03 -3.38816777E-02  3.26954570E-03
 -9.56668077E-03  2.35923101E-03 -6.94111124E-03 -3.38808557E-02  3.25697242E-03
  9.55733671E-03  2.36208266E-03 -2.75096589E-03 -9.92493266E-03  4.89786314E-02
 -7.16859759E-02  9.19367216E-04  3.95079818E-04 -2.71375219E-02  5.78374391E-04
  1.58265178E-04  5.41501816E-03  2.43234605E-05  4.61939211E-05 -4.36488471E-03
 -1.94797250E-03 -2.72781072E-03 -9.84217438E-03  4.86014973E-02 -7.13206154E-02
 -1.13823191E-03  3.20415101E-04 -2.69672575E-02 -6.35371529E-04  1.21115314E-04
  5.40865310E-03  1.18127181E-05 -4.27424713E-05 -4.34634962E-03  1.91634784E-03
 -1.35851385E-01 -9.05780380E-02 -3.96289668E-02  1.61720942E-03  4.75478124E-07
  1.72140396E-01  1.22290586E-01 -3.25642610E-02  4.69539504E-03 -2.60728943E-04
  1.72534186E-01  1.22528252E-01 -3.25986140E-02 -4.64929534E-03 -2.76013972E-04
 -1.35598916E-01 -9.05969332E-02 -3.97310861E-02 -1.59066105E-03  1.64558074E-05
  2.72662361E-05  9.51431192E-05 -3.16134765E-04 -2.54602466E-04 -7.94255967E-02
  3.05145998E-05  1.60285102E-05  1.73835847E-01  6.05254235E-05 -2.06282240E-05
  1.14950038E-05  1.61279218E-04  7.32402200E-05 -7.36447444E-02 -6.14264707E-03
 -2.14949402E-02  6.95091174E-02  2.14984336E-01  2.28276203E-01 -5.00927832E-04
 -8.83497958E-02  9.46761612E-02 -2.39704032E-04  3.93382559E-03 -8.07687866E-05
  7.85531660E-05  4.63374864E-02 -1.41555012E-02 -3.81657957E-03 -1.33831000E-02
  4.38734636E-02 -2.21161351E-01  2.23388935E-01 -2.82242197E-04 -4.55602083E-03
  2.85483777E-02  2.29813614E-04  6.36595569E-03 -2.75472045E-04  5.40599451E-05
  4.66372234E-02  1.20840288E-02 -1.42630796E-05 -5.00451897E-05  1.74055598E-04
  1.25941013E-05 -6.37894925E-02 -3.24290399E-05 -2.30801580E-04  6.83681172E-02
  3.54514126E-05 -5.27533485E-06 -1.59808881E-05  6.39276550E-04  2.54159334E-04
  5.36156325E-02  3.83554796E-03  1.34499090E-02 -4.41216361E-02  2.20427432E-01
  2.22728299E-01  3.45613583E-04  4.80271209E-03  2.89707195E-02 -2.57329263E-04
 -6.35638988E-03  2.72015198E-04  9.26316645E-05 -4.65281349E-02  1.18045882E-02
  6.12853318E-03  2.14458866E-02 -6.93349954E-02 -2.14347396E-01  2.28685723E-01
  8.17719709E-04  8.82386944E-02  9.42998886E-02  3.08775629E-04 -3.86435766E-03
  7.12390678E-05  1.24992325E-04 -4.62764047E-02 -1.43451824E-02 -5.43503131E-06
 -2.00455720E-05  4.86084379E-05  2.70062903E-04 -1.43173116E-03 -8.94297533E-05
 -1.77151883E-05 -4.90495829E-02 -2.19322274E-05 -1.13943343E-06  7.00954264E-06
  3.51155676E-05 -7.98232352E-05  2.53989559E-03 -9.41458084E-06 -3.40176909E-05
  7.57019009E-05 -1.73974101E-04 -6.88372232E-02 -8.72729229E-05 -7.79082444E-05
 -6.48083823E-02 -4.73506043E-05 -4.34691288E-06 -6.32049272E-06 -4.20437885E-03
  2.78332042E-05 -4.40293530E-03  2.86064888E-02 -9.45889523E-03  2.76970488E-03
 -7.35125828E-03 -4.48432030E-04 -2.86629786E-02  9.44329223E-03 -2.80283549E-03
 -7.33645745E-03  4.38385416E-04 -1.69431389E-03 -6.03113340E-03  2.68581099E-02
 -3.92273135E-02  2.36990638E-02 -1.53728492E-04 -1.79267213E-02  1.22048824E-02
 -4.36668491E-05 -1.04865119E-04 -3.93390035E-06 -1.42680036E-05 -7.07791886E-03
  5.20918975E-04  1.67505073E-03  5.96189662E-03 -2.65284562E-02  3.92612939E-02
  2.40520894E-02  1.64594636E-05  1.79326284E-02  1.23127858E-02 -6.21672928E-06
  1.05070382E-04  2.61710658E-06  2.97712230E-07  7.08167372E-03  5.05619625E-04
 -1.37635817E-01 -3.97622951E-02  3.39070966E-02 -1.75890741E-03 -4.81108378E-05
 -1.44647929E-01 -6.25957833E-02 -2.40803101E-02 -4.47671757E-03 -1.39596086E-04
  1.44094840E-01  6.21732109E-02  2.40684018E-02 -4.43615573E-03  1.35416430E-04
  1.37698916E-01  3.99162978E-02 -3.37193747E-02 -1.71390131E-03  5.66020671E-05
  8.46248884E-03  2.93981522E-02 -9.41317191E-02 -5.28946185E-02 -4.09085106E-05
 -3.96412482E-02  1.06014207E-01 -4.72294353E-04 -3.81766040E-03 -5.85421069E-03
 -6.15744980E-03 -3.51037760E-05  1.21849212E-01  6.42051411E-05 -8.20865665E-04
 -2.88985187E-03  1.23757552E-02  3.04780542E-01  6.65371718E-02 -4.64110509E-02
 -4.98340996E-02 -2.05523066E-02 -6.56654429E-03  1.45596399E-02 -4.47347919E-03
 -3.03042263E-03  5.06007688E-02 -2.19372599E-02 -1.48686260E-03 -5.20409663E-03
  2.01771381E-02 -2.87203480E-01 -1.14866673E-02 -6.64566906E-02  9.20259495E-02
  2.41684632E-03 -2.45826864E-02  1.60979863E-02 -1.25411053E-03 -1.35972573E-02
  6.08696822E-02 -1.66755220E-03  8.97087539E-03  3.12884180E-02 -1.09975547E-01
  2.01021450E-01 -1.40276870E-04 -1.21138052E-01 -5.30074391E-02  1.91958256E-04
  9.68054077E-03 -2.17074433E-02 -8.40331257E-03 -8.38077054E-06  1.41081302E-01
 -9.34537520E-05 -1.48603816E-03 -5.20140559E-03  2.01759916E-02 -2.87869649E-01
  1.12955447E-02 -6.64515550E-02  9.15015013E-02 -2.25894438E-03 -2.46120496E-02
  1.61140264E-02 -1.23760885E-03  1.35770082E-02  6.09885454E-02  1.61032988E-03
 -8.41501024E-04 -2.96305536E-03  1.26398602E-02  3.05324639E-01 -6.68600998E-02
 -4.66519654E-02 -5.04606590E-02  2.01764561E-02 -6.56034629E-03  1.45749574E-02
 -4.46927323E-03  2.96721906E-03  5.07272763E-02  2.19051396E-02 -5.33221971E-03
 -1.91409237E-02  4.29420593E-02  1.40178076E-01  8.19784271E-05  1.60048781E-02
  4.85784792E-03  5.66031553E-05 -3.95071952E-03 -1.38833504E-03 -6.23760325E-03
 -4.17518819E-05 -4.02866207E-02  3.76509381E-06 -8.56005528E-03 -3.07911058E-02
  6.85385856E-02 -1.81281187E-01  2.74695120E-04 -1.08471664E-01 -4.16567280E-03
  1.06925590E-04 -5.44013808E-02  5.37286817E-03  9.28458406E-03  9.11171440E-06
  4.65723584E-03  3.65592501E-05 -3.67540377E-02 -4.17105798E-02 -1.16908440E-02
 -1.46485671E-02 -1.94705230E-03 -3.65829019E-02 -4.17493980E-02 -1.16652793E-02
  1.46582781E-02 -1.94872561E-03 -3.19040136E-03 -1.14552740E-02  5.35720702E-02
  5.80781365E-02 -7.71104160E-02  1.76946372E-02  2.18631746E-02 -2.08966304E-02
  7.63434858E-03 -1.89703740E-03  1.23135514E-03  1.58993906E-03  2.96632477E-03
  7.96113511E-03 -3.18390610E-03 -1.14319799E-02  5.34581855E-02  5.81952493E-02
  7.73481356E-02  1.75076695E-02  2.19195731E-02  2.10072432E-02  7.58730047E-03
 -1.88713933E-03  1.24060429E-03 -1.57967653E-03  3.00909954E-03 -7.95113137E-03
 -1.07859153E-01 -4.38147004E-02  3.67132083E-02 -1.40401446E-02 -7.21576992E-03
 -6.86010625E-02 -3.04324036E-02 -5.56443737E-02 -2.22717872E-02 -8.44884273E-03
 -6.88709870E-02 -3.05089067E-02 -5.56545283E-02  2.22904988E-02 -8.44151964E-03
 -1.08042029E-01 -4.38892872E-02  3.68340139E-02  1.40660772E-02 -7.22930586E-03
  2.43043765E-03  8.43935396E-03 -2.74284803E-02 -1.28208676E-02  8.67585030E-05
  1.49582056E-01  3.10099102E-02 -4.10546857E-04  1.33059110E-02 -3.56969225E-03
  2.06812227E-02 -6.53476331E-06  3.39102511E-02  3.10009057E-05 -5.81620326E-04
 -1.99619187E-03  7.34812498E-03  9.47876984E-02  2.10349620E-02  1.66564395E-01
 -1.48878787E-02  9.63559372E-04  2.27785090E-02  6.25601550E-03  1.29396924E-02
  1.26099210E-02  1.27836938E-02 -5.50019749E-03 -7.86641969E-05 -2.30433315E-04
 -4.35579711E-04 -9.14230884E-02 -8.76406564E-03  2.18023500E-01  5.10700854E-02
 -2.95312371E-02  7.54747870E-02  5.75560366E-04 -4.41033234E-04  3.68681017E-02
  2.52395993E-02  4.32345535E-03  1.59164240E-03  5.65399346E-03 -2.10547487E-02
  9.24198182E-02  1.26890478E-04  3.49579571E-01 -8.84302345E-02  2.67061374E-04
 -3.17838212E-02 -5.77295632E-03  3.78349049E-03  3.88119967E-06  4.74613271E-02
 -1.25262739E-04 -8.87814084E-05 -2.66083198E-04 -3.15870913E-04 -9.13130871E-02
  8.42274481E-03  2.18002432E-01  5.06134232E-02  2.97423702E-02  7.54779914E-02
  5.79952387E-04 -4.59955958E-04 -3.68816117E-02  2.52686247E-02 -4.34375708E-03
 -5.83151788E-04 -2.00170190E-03  7.36396716E-03  9.48315017E-02 -2.14776617E-02
  1.66473302E-01 -1.54766284E-02 -1.34975011E-03  2.27617952E-02  6.22719665E-03
  1.29177265E-02 -1.26302356E-02  1.28290110E-02  5.50618081E-03 -1.63270184E-03
 -5.87302117E-03  1.34161349E-02  4.05920176E-02 -7.37954021E-06 -5.24883433E-02
  7.30861175E-04  5.14521761E-05  1.42923093E-02 -1.27683016E-04  2.30798460E-02
 -1.75033682E-05 -1.18488315E-02  1.04206851E-05  5.07939332E-04  1.85577034E-03
 -4.55861908E-03 -9.43040779E-02 -3.07703469E-04  2.82396377E-01 -3.58399785E-02
 -1.48239382E-04  1.57697051E-01  1.33237597E-02 -3.72529936E-02 -9.82198470E-06
  7.10534680E-04 -5.02098675E-05 -9.83295825E-03 -5.84871259E-03 -6.58842616E-04
 -3.52134684E-03  1.28025207E-02 -1.00306586E-02 -5.80185957E-03 -6.41393027E-04
  3.47507250E-03  1.28113116E-02 -9.02669054E-04 -3.24354735E-03  1.52438081E-02
  1.85288575E-02 -2.24070853E-02 -6.34705286E-02  7.06035413E-03 -6.16724800E-03
 -2.74808820E-02 -5.63004625E-04 -4.35423922E-03 -5.36290872E-03  7.39214222E-04
  2.57274018E-03 -9.02066658E-04 -3.24125430E-03  1.52280941E-02  1.85268802E-02
  2.23786356E-02 -6.36332167E-02  7.06411643E-03  6.15364514E-03 -2.75284401E-02
 -5.72502202E-04 -4.36160112E-03  5.36838812E-03  7.38628086E-04 -2.57743723E-03
 -3.30287802E-02 -1.44050983E-02  1.08892197E-02 -3.65533001E-03  2.51383914E-02
 -2.10129980E-02 -3.14809676E-02 -1.49130597E-02 -8.45923143E-03  2.47237891E-02
 -2.10855427E-02 -3.14985767E-02 -1.48623680E-02  8.41995821E-03  2.47341507E-02
 -3.31433393E-02 -1.44241874E-02  1.09497255E-02  3.65081928E-03  2.51306098E-02
 -1.11794188E-05 -3.89852568E-05  1.31813061E-04 -1.36292541E-04 -2.82243609E-01
  3.63897310E-04 -7.39293306E-05  1.26972166E-01  5.25040732E-05 -9.94733193E-06
  2.95244984E-05  1.41839343E-04  1.48862110E-05 -5.70393252E-02  4.32044887E-04
  1.78629532E-03 -8.68634154E-03 -2.38438665E-03  2.55159531E-01 -1.51281360E-04
 -3.72594501E-02 -9.66274802E-02  3.00134237E-04  1.48913037E-02  1.38499690E-04
  3.31025292E-05  2.57567994E-02 -1.00293225E-01  3.37440854E-04  9.53665460E-04
 -8.29696546E-04 -1.78961819E-02 -2.72117299E-01  8.67882669E-04 -4.28288966E-02
  9.84241886E-02  2.42166841E-04 -1.26889740E-02 -2.15664711E-04  3.41427007E-04
 -2.74773379E-02 -1.00333596E-01  5.37386669E-06  1.87749477E-05 -6.13710670E-05
  7.40230229E-05  3.15985606E-01 -2.82921405E-04  1.97045476E-04 -1.13961637E-01
  8.80022857E-05 -1.89389193E-06 -7.10559129E-05  2.21707378E-03 -6.22447342E-05
 -6.64914800E-02 -3.41858429E-04 -9.69156797E-04  8.95047673E-04  1.78724026E-02
 -2.72067422E-01 -7.46587682E-04  4.28269076E-02  9.81128386E-02 -2.94615887E-04
  1.27061100E-02  7.85987435E-05  4.30626553E-04  2.74451912E-02 -1.00278399E-01
 -4.28629459E-04 -1.77399655E-03  8.63724779E-03  2.50384487E-03  2.55150188E-01
  1.03992867E-03  3.73734095E-02 -9.65286940E-02 -1.53895482E-04 -1.48956068E-02
 -2.38567807E-04  2.61648982E-05 -2.58586067E-02 -1.00172380E-01  2.33555699E-06
  7.76560074E-06 -1.70919740E-05  1.04467712E-04  2.55733048E-02 -1.00096062E-04
 -5.76497006E-06 -7.92370951E-02  1.40398508E-05 -1.67561064E-05  5.83510046E-05
  1.05362711E-04  1.49936739E-04 -3.79407614E-02 -3.52581146E-06 -1.27033259E-05
  2.85812128E-05  4.13763792E-05 -5.67711664E-02 -6.14689456E-04  1.25556328E-04
  1.55980811E-02 -3.13796482E-04 -3.33441892E-05  1.37587379E-05 -4.45725913E-03
 -3.98958731E-05 -4.92186118E-02  4.62402292E-02 -2.75565281E-03 -6.71745667E-03
 -7.82943254E-03 -1.41670399E-03 -4.62629566E-02  2.63173549E-03  6.70852968E-03
 -7.79202922E-03  1.38889491E-03 -1.33735303E-03 -4.78571446E-03  2.11683578E-02
 -4.47203740E-02 -2.84523878E-02 -4.89100539E-04 -3.12531762E-02 -1.19303717E-02
 -1.70131066E-04  2.10545759E-03 -5.78475919E-06 -1.85367454E-05 -9.80548924E-04
 -2.73630272E-03  1.32791553E-03  4.75112621E-03 -2.09894285E-02  4.40057151E-02
 -2.84580755E-02  2.77221858E-04  3.10024657E-02 -1.18738916E-02  1.01412590E-04
 -2.08334245E-03  7.64358697E-06 -5.72566389E-06  9.86471867E-04 -2.73317089E-03
 -1.42037650E-01 -9.35082411E-02 -2.39249430E-02  1.43693742E-02 -1.15878900E-04
  1.47582777E-01  1.10550432E-01 -2.50700051E-02 -1.41628656E-02  4.38271718E-04
 -1.47536830E-01 -1.10420682E-01  2.50080198E-02 -1.41461515E-02 -4.03482337E-04
  1.42019201E-01  9.35313852E-02  2.38962799E-02  1.43408228E-02  1.67008175E-04
  1.81464905E-04  6.25376156E-04 -2.23376767E-03  2.87847538E-03 -3.30330246E-04
 -3.47008381E-01  2.56981213E-03  8.99508137E-05 -1.44205420E-03 -1.44104156E-03
 -2.51010673E-02 -2.72141402E-05 -8.11951227E-04 -7.24194856E-05 -2.33511155E-04
 -7.77181520E-04  2.59678463E-03  6.92633048E-03  2.10280862E-03 -2.48450740E-01
 -2.56458784E-03  6.00585117E-03 -7.53343837E-02  2.34621157E-03  1.30605598E-02
 -3.73529274E-02 -1.48136463E-03  8.21224260E-04  1.96283029E-04  7.46735377E-04
 -4.99995177E-03 -8.03794080E-03 -3.54400645E-03 -6.18677254E-02  2.47745093E-02
 -3.13077130E-02  4.24915401E-02 -4.43412184E-03  3.52051427E-02  3.04924886E-02
  7.03509190E-03  4.42719494E-03 -8.64492891E-04 -2.95361607E-03  1.03263633E-02
  2.62476174E-02  4.45406047E-04  1.95400673E-01 -8.01832938E-02 -6.01362782E-05
 -7.58654176E-02 -1.01518083E-03  5.13141178E-02  6.24451572E-06  4.06215598E-03
 -1.46979458E-04  1.86931388E-04  7.14452838E-04 -4.90067575E-03 -7.89817219E-03
  2.81784943E-03 -6.17784969E-02  2.49129343E-02  3.16737768E-02  4.24919067E-02
 -4.44674916E-03  3.51676193E-02 -3.05009015E-02  7.10008821E-03 -4.73965412E-03
 -2.23199099E-04 -7.41337310E-04  2.48149713E-03  6.82821524E-03 -1.21186547E-03
 -2.48358949E-01 -2.43965827E-03 -6.12435408E-03 -7.53279364E-02  2.36429708E-03
  1.31047226E-02  3.73232169E-02 -1.53166789E-03 -1.13807316E-03 -7.91688157E-05
 -2.89464975E-04  7.87988252E-04  5.97742502E-04 -8.64301199E-06  3.63197170E-02
 -3.32541908E-04 -1.92976409E-05 -4.01712684E-02  1.80510080E-04 -5.46586029E-02
  1.54383331E-04 -2.37189240E-03  6.91658536E-05  3.53639186E-03  1.27715886E-02
 -2.90731751E-02 -3.63947969E-02 -3.25693495E-04  3.91747547E-01 -3.51657553E-02
 -1.12348790E-04  2.06175802E-01  1.40705338E-02 -1.71836219E-02 -1.58375009E-05
 -1.50276017E-03 -8.70710708E-05  8.06384613E-03  7.12562525E-03  4.05863493E-03
  1.11607068E-04  1.06480802E-02  7.88188406E-03  7.16619696E-03  4.09001732E-03
 -1.79009910E-04  1.06485742E-02 -5.13109045E-05 -1.80865221E-04  8.15274764E-04
  6.03110821E-03 -1.70137187E-03  1.30942613E-01  2.27133856E-03 -1.51717518E-04
  5.99256406E-02 -1.03726929E-04  7.82345456E-03  6.51814611E-03 -3.40966602E-05
  3.63142846E-04 -4.41577348E-05 -1.55720412E-04  7.06734660E-04  6.70837767E-03
  2.43769205E-03  1.32366875E-01  2.53893751E-03  5.24910299E-04  6.04609558E-02
 -7.01681659E-05  7.84605879E-03 -6.56716251E-03  3.12099847E-05 -3.56393832E-04
 -2.35272001E-03 -2.71882413E-03  3.31575067E-04  3.26542950E-05 -2.37377924E-02
 -1.37234917E-03 -2.44295614E-02  1.53099209E-03 -1.66347675E-03 -1.63299242E-02
 -1.73541769E-03 -2.48076656E-02  1.60790898E-03  1.63014330E-03 -1.63088318E-02
 -1.97209307E-03 -2.53404670E-03  3.00076686E-04  5.60589721E-05 -2.37011954E-02
  8.15789407E-03  2.82074556E-02 -8.44574343E-02  2.43862153E-01 -2.10524888E-04
  3.52426636E-03  1.07275384E-01  1.67112776E-04 -8.71491064E-05  3.40638526E-02
  2.70469634E-04  5.08883214E-05 -6.55313091E-02 -4.85378260E-05 -1.96871223E-05
 -2.56337342E-04  4.14412850E-03 -4.41855416E-02  7.04837543E-02  2.38368553E-03
  3.75830824E-02 -1.89327490E-02  1.02127004E-03 -2.60378665E-03 -1.17103931E-04
  3.96599205E-04 -2.37986396E-02  1.23333766E-02  9.79893489E-04  3.38630766E-03
 -1.07330422E-02  5.47153650E-02 -2.38239861E-02  2.64464473E-04  2.04369942E-02
 -1.04468073E-02 -8.68398412E-04 -2.95788089E-03 -3.18761669E-04 -4.13729670E-04
 -4.28729369E-03 -1.55463728E-02  1.75328212E-03  6.23540988E-03 -2.28932537E-02
  9.95896651E-03  2.10591138E-04 -2.58457837E-03  3.54013116E-04 -9.44794561E-05
  1.07169581E-03  5.88062804E-03 -4.08158589E-04 -1.65262839E-05 -1.02365709E-02
 -2.60383499E-05  9.81917543E-04  3.39368003E-03 -1.07586989E-02  5.48174765E-02
  2.35157176E-02  7.17288271E-05  2.05396538E-02  1.04980964E-02 -9.50804476E-04
 -2.93949640E-03 -2.75304234E-04  4.13048037E-04 -4.25174009E-03  1.53921437E-02
 -2.36456618E-05 -2.71433143E-04  4.21690309E-03 -4.43039790E-02 -7.00125394E-02
  2.07603947E-03  3.77082953E-02  1.89142288E-02  1.02757839E-03 -2.62599831E-03
 -1.45045522E-04 -3.34012232E-04 -2.38868931E-02 -1.24624485E-02  2.95227589E-03
  1.11115378E-02 -2.91337816E-02 -1.49776096E-01 -1.13102247E-04 -3.12736835E-04
  5.59967412E-02  1.69528117E-05  4.88285682E-04 -8.66975074E-04  5.42849541E-04
 -4.08792156E-04 -1.88407077E-01 -1.46705572E-04  7.10835272E-04  2.61213243E-03
 -6.37208553E-03  6.70103685E-03 -3.05806851E-05 -4.62057038E-03 -1.98359836E-03
  8.65819922E-06 -3.44549799E-03  5.94299153E-04 -1.78455761E-04 -3.35050377E-06
 -4.21627621E-03 -3.04124905E-05  5.20980784E-04  5.81523024E-03  8.68296857E-04
  2.43263499E-03  5.59308543E-05  4.61415684E-04  5.82497619E-03  8.71929420E-04
 -2.44511751E-03  5.74349474E-05 -7.28422224E-04 -2.20953211E-03  3.79942452E-03
  4.85389512E-01 -8.67318274E-02  2.91303330E-05  1.68342854E-01  1.15296684E-02
 -1.32382027E-04 -7.16837834E-03 -7.29403463E-05 -2.13658541E-05  1.21074809E-03
  5.53404702E-03 -7.27640900E-04 -2.20741981E-03  3.80645849E-03  4.85817767E-01
  8.77936194E-02 -2.58596793E-03  1.68537127E-01 -1.10614934E-02 -1.10870967E-03
 -7.14695709E-03 -8.67293483E-05  1.02772494E-04  1.24414979E-03 -5.52478532E-03
 -5.60675404E-03 -2.22259708E-02 -2.74331448E-02  5.06842197E-03  2.25404912E-04
  2.91206430E-02  8.26517192E-03  2.59619926E-03 -1.36890869E-04  2.37090338E-04
  2.89478909E-02  8.17339631E-03  2.62911249E-03  1.17031409E-04  2.32995730E-04
 -5.35772484E-03 -2.21391568E-02 -2.74072483E-02 -5.04308800E-03  1.10477921E-04
 -1.90445728E-05 -6.61647840E-05  1.97731126E-04 -5.82674236E-04 -2.47560205E-04
 -4.66426979E-04 -1.73711984E-04 -2.55534563E-03 -1.19493073E-05 -1.15017159E-04
 -4.22766700E-05  2.47765055E-02  1.20801592E-04 -1.60245151E-05 -3.10364566E-06
 -1.06102023E-05  3.65791150E-05  6.70405366E-05  1.13195378E-04  3.39645424E-02
  2.05198520E-03 -1.09499875E-03  8.64208171E-03 -6.13410394E-06  4.23754021E-03
  8.24179329E-03  8.68095269E-05 -8.67172342E-05 -3.54063819E-06 -1.20968152E-05
  2.60926790E-05 -1.13118280E-04 -2.16507571E-05  2.02511561E-02  2.20212482E-03
  1.27665154E-03  7.17564533E-03  4.00344473E-06 -3.47764139E-03 -1.41655224E-03
 -1.28783334E-05  3.82710837E-06 -8.47774287E-06 -2.99689266E-05  1.09731789E-04
 -2.81741235E-05  1.80052845E-04  2.19631782E-04 -1.71855648E-04  2.57447579E-03
 -1.28293797E-04 -9.64555128E-06  7.83074135E-05 -4.09145049E-03  1.50653442E-05
 -3.90037955E-05  2.46099776E-06  8.41606234E-06 -1.51752902E-05 -8.76388313E-05
 -1.58254796E-04 -2.05188388E-02 -2.29268796E-03  1.35690031E-03 -7.03128545E-03
  8.78604565E-06  3.56922776E-03 -1.49802766E-03  3.61577980E-05 -1.34510713E-04
 -2.64172152E-06 -7.73891957E-06 -1.55298306E-05  3.66864690E-05  5.78500775E-04
 -3.46770992E-02 -2.45265028E-03 -1.15777026E-03 -8.92255486E-03  2.64908256E-05
 -4.19895888E-03  8.33683194E-03  1.24236672E-05 -7.63761684E-05 -5.74796428E-06
 -2.19367159E-05  6.12548398E-05  3.26115989E-04 -4.61133717E-06  8.46761788E-05
 -1.41260447E-04  2.16952816E-04 -3.06229346E-05  1.35811803E-04  1.13085858E-05
 -1.30808941E-01  5.15033004E-04  1.06870359E-04  4.30162626E-06  1.55033660E-05
 -3.53449228E-05 -3.66746006E-05  5.74983109E-05  5.42508412E-04 -7.10055273E-05
 -3.44402864E-04  2.86952280E-04  1.78983477E-05 -1.94736056E-05  8.10848614E-06
  1.12116042E-05 -3.08959320E-05  6.05387535E-05 -1.52389649E-04 -7.58906841E-06
 -8.60247251E-05  7.75970599E-05 -3.24632679E-05  2.17412346E-04  8.86979645E-06
 -9.06884388E-05 -5.16493225E-05  1.44169968E-06  3.94874142E-06  4.93991005E-06
 -1.44547633E-03  5.76986183E-04  5.36639255E-01 -5.16808006E-04  1.25567072E-04
  2.09910161E-01 -5.72941932E-07  4.51333591E-03  2.08659789E-02 -1.51334438E-05
 -2.58478946E-05  2.64200957E-06  8.56348849E-06 -2.90983688E-05 -8.35053911E-04
 -4.40969030E-04 -5.36273919E-01 -2.76536732E-04 -6.54925100E-05 -2.09722491E-01
 -7.61551962E-06 -4.50924695E-03  2.08381384E-02 -1.82146735E-05 -6.27225605E-06
 -7.42348731E-05  7.95316730E-05 -9.41299325E-05  1.05489736E-04  1.45591139E-02
  4.73641961E-06 -1.05224931E-05 -1.96971717E-04 -1.01639010E-04 -1.81547254E-04
 -1.58079740E-04 -4.68802757E-05  2.19338084E-04 -1.19406732E-04  1.16150423E-04
  1.64690177E-04 -7.01168996E-05  2.66301042E-04  1.25607677E-04 -1.45820870E-02
  6.37532839E-06  2.31902158E-05 -9.07393019E-05  1.13900513E-04  4.67648396E-02
 -2.34566329E-04  1.07928919E-04  1.91375646E-01 -5.62228988E-05  2.77726238E-05
 -1.42283860E-05  1.65742787E-04  7.88007408E-05 -2.77108251E-02  4.43912739E-03
  1.56276056E-02 -5.02360796E-02  7.50671960E-02  1.13368357E-02 -4.85604669E-04
 -3.19529073E-02 -5.25620091E-02 -4.77546642E-05  1.40633955E-02 -3.98000167E-05
  2.94605546E-06  2.28022112E-02  3.71360127E-03 -2.31388284E-03 -8.15923753E-03
  2.72015654E-02 -4.65734550E-02 -1.19184781E-03 -2.14150595E-04 -5.12341012E-02
  2.93610762E-03  1.54855546E-04 -4.04946335E-03 -4.67376055E-06  6.66637387E-05
 -7.55535051E-04 -7.81762145E-03  5.42329344E-06  1.89272832E-05 -6.67411638E-05
  9.06125841E-05  2.47001536E-02  9.15504717E-05 -4.25605100E-05 -6.13433434E-02
 -9.26895213E-05 -1.24418561E-05  6.18388159E-05  3.28346131E-04  1.11276414E-05
  5.52546081E-03  2.30611902E-03  8.13187853E-03 -2.71081105E-02  4.64520453E-02
 -1.12362513E-03 -4.10828372E-05  5.12798527E-02  2.83008992E-03 -8.56064634E-05
  4.06169068E-03  5.86898259E-05  1.60089922E-05  7.65370551E-04 -7.71197198E-03
 -4.42350364E-03 -1.55723157E-02  5.00423061E-02 -7.48111976E-02  1.10795096E-02
  7.83880501E-05  3.19759079E-02 -5.23863497E-02 -1.09063677E-04 -1.40454547E-02
  1.35853820E-05  6.63221609E-05 -2.27510319E-02  3.80453664E-03 -1.14741318E-06
 -3.35867472E-06 -2.56985710E-06 -2.00363335E-05  2.74276518E-02 -2.29270653E-05
  1.07359317E-04 -1.01452849E-01 -7.59265479E-06 -1.65727415E-05  3.04389655E-05
 -6.20545752E-05  1.07581123E-05 -1.34514912E-01  1.30393752E-06  4.73995376E-06
 -1.07576595E-05 -7.16407545E-05 -1.06011338E-02  3.45805597E-04 -2.90034566E-05
  7.43928091E-03  1.84190232E-04  1.50290786E-05 -8.10879342E-06 -3.13452410E-04
 -7.33536081E-06 -5.66301549E-03  7.09203086E-03  7.92893756E-03 -2.15728045E-03
 -2.69029562E-04 -6.89240776E-04 -7.08675697E-03 -7.92381411E-03  2.15280630E-03
 -2.63573669E-04  7.11397211E-04  1.22428686E-03  4.14166776E-03 -1.52900889E-02
  4.11323730E-01 -3.66746732E-01  5.70423233E-04  1.64445182E-01 -1.94370192E-01
  2.73900958E-04  1.09895656E-02  9.66866883E-06  3.61451809E-05  2.71268641E-02
  3.75442509E-03 -1.23123599E-03 -4.16595636E-03  1.53948596E-02 -4.10279162E-01
 -3.66996788E-01 -1.08996537E-05 -1.63985256E-01 -1.94568410E-01  3.00837553E-05
 -1.09986903E-02 -1.51530744E-07 -1.67100233E-05 -2.71128333E-02  3.66535496E-03
 -2.87313304E-02 -5.24738187E-02 -2.58654737E-02 -1.69991722E-02 -3.81796335E-05
 -5.20495117E-03  4.40240076E-03 -5.84745044E-03 -1.00962823E-03 -1.39039875E-05
  5.23853920E-03 -4.38761259E-03  5.79180980E-03 -9.94098869E-04 -3.33226099E-05
  2.85548122E-02  5.23433980E-02  2.57370834E-02 -1.69716400E-02  1.39420344E-05
 -6.80420169E-07 -2.42118702E-06  1.03974467E-05  6.69351525E-05  1.10445369E-04
  1.11239573E-05  7.39240705E-05 -1.82158841E-03  7.52868726E-06  4.49343650E-05
  2.22249092E-05  9.58008361E-02  7.53496986E-05  1.00893520E-05 -5.76218460E-06
 -2.13907560E-05  1.17735089E-04 -2.29426794E-05 -6.39978047E-04 -3.50831302E-01
  1.41798977E-03 -1.79008112E-03 -5.12489812E-02 -8.12849810E-07 -4.69941619E-02
  5.19675098E-03  2.31088565E-05 -2.15796627E-04  3.44741207E-05  1.20845292E-04
 -4.07851817E-04 -2.18382576E-04 -9.37524578E-04 -3.46858720E-01  8.45044220E-04
  2.87142835E-03 -5.52239840E-02 -1.28763982E-04  4.53429480E-02  2.55760002E-03
 -2.69457066E-04  6.48373216E-05  4.18208268E-06  1.47422275E-05 -5.29141790E-05
  3.83699635E-05  2.28698010E-04  8.51000175E-06  6.78270468E-05  1.32670362E-03
 -2.74644019E-06  4.95003933E-06  1.63912344E-05  8.90894611E-02  3.65735922E-06
 -1.24271831E-03 -3.00972136E-05 -1.05419267E-04  3.55237326E-04  2.58874502E-04
 -9.56893831E-04  3.46862979E-01 -8.04196888E-04  2.75979779E-03  5.52366086E-02
  1.60233009E-04 -4.53382714E-02  2.57016224E-03  2.53623649E-04  1.65311277E-04
  1.02645120E-05  3.71841504E-05 -1.72409565E-04  2.24741000E-04 -9.69317251E-04
  3.50857888E-01 -1.42786044E-03 -1.72922363E-03  5.12622044E-02 -1.25775471E-05
  4.69913569E-02  5.19437801E-03 -1.45628869E-05 -1.67130721E-04 -1.03448652E-06
 -3.67165908E-06  6.92795650E-06  1.52500453E-05 -1.43471991E-05  3.30912903E-05
  1.26873472E-05  1.99177828E-04  2.83024452E-05  3.27494457E-06  5.95650636E-06
 -1.39518308E-02 -3.73646871E-05  8.15590081E-05 -3.99927905E-07 -1.34218843E-06
  2.03198239E-06 -1.97293139E-05 -1.90219888E-03 -1.54427013E-05  7.44401116E-06
  1.39761165E-03 -7.25021052E-06  1.23307689E-06 -4.68365814E-06 -2.61080399E-04
 -7.06333014E-06 -7.97541777E-04 -7.22379059E-04  9.67044274E-04 -8.83478315E-04
 -1.92466484E-05  2.67129239E-03  7.19175143E-04 -9.88848494E-04  8.84464484E-04
 -9.42989898E-06 -2.66137041E-03 -9.81247610E-07 -3.46237537E-06  1.81636314E-05
 -1.64613733E-04  2.15319550E-04  5.23380632E-02 -7.52506711E-05  1.38221509E-04
  2.35903270E-02 -1.38443360E-05  1.07449575E-05  1.72223627E-03 -1.33758104E-05
 -6.10246582E-07 -2.88389332E-06 -1.03167126E-05  4.70776268E-05  3.29876751E-04
  2.41762112E-04 -5.23104621E-02  1.39890689E-04  1.34221055E-04 -2.35805553E-02
  1.03985569E-05 -1.70894603E-05  1.71974918E-03  8.09736655E-06 -8.10408775E-06
 -6.61527585E-07 -2.02473761E-04 -1.36075156E-04  7.06313485E-05 -3.68805089E-02
  1.60629719E-04  1.57895952E-03 -5.32663341E-04 -8.67243499E-05 -3.86963589E-02
 -1.08499006E-04 -1.52776205E-03  5.12377139E-04 -8.17588576E-05  3.86942112E-02
 -3.15302872E-05  1.77224836E-04  1.41799512E-04  3.54404089E-05  3.68740372E-02
  2.21570092E-05  7.77507541E-05 -4.10301895E-04  1.77484349E-04 -1.22341142E-04
  3.46846621E-01  1.56809935E-03 -5.70929844E-04 -1.49781294E-02 -9.46546321E-04
 -1.06935223E-04 -1.39173336E-05 -5.08491832E-04 -2.68477871E-05 -5.28223721E-05
 -1.50279603E-04  4.00544494E-04  1.02485889E-03  2.21567660E-04  2.74659547E-02
 -4.40525602E-03  2.09794573E-03  2.01880953E-02  1.66107695E-03 -6.26098305E-02
  4.47177257E-02 -1.16721500E-03  4.27223081E-04  1.55864234E-05  1.35962723E-04
 -3.42313120E-03 -1.60427384E-03 -1.18017889E-03 -2.72203967E-01  1.70479697E-02
 -2.24948297E-02 -2.06029201E-02 -3.97176191E-03 -2.66590530E-02 -1.41219656E-02
  3.91366187E-03  2.71344844E-03 -6.64799870E-04 -2.26268671E-03  8.67922422E-03
  1.08135495E-02  2.51263372E-05 -1.92725809E-01 -6.66816908E-02  5.59088083E-04
 -1.00086583E-01 -3.06180709E-03  9.49301234E-02 -2.14921753E-05 -2.54890759E-03
 -7.71120332E-05  2.73005871E-06  9.02489244E-05 -3.25432162E-03 -1.62967605E-03
  1.16164882E-03 -2.72211190E-01  1.61921364E-02  2.31098338E-02 -2.06365961E-02
 -3.97246352E-03 -2.66416237E-02  1.41379823E-02  3.92017874E-03 -2.75443282E-03
 -4.77325695E-05 -1.32016387E-04  3.27671813E-04  1.04616901E-03 -1.83829812E-04
  2.75035371E-02 -5.29785046E-03 -2.78668474E-03  2.02660885E-02  1.67432010E-03
 -6.26270116E-02 -4.47153862E-02 -1.17146442E-03 -4.53216618E-04 -2.34330095E-05
 -9.07324840E-05  3.23257201E-04  4.53595618E-04  6.16058672E-05  1.01265854E-01
 -1.03874226E-03  5.79545581E-05  8.71985354E-02  1.39941072E-04  7.33683438E-02
  3.62197336E-05  1.78461941E-04  6.78444685E-06  3.69092940E-03  1.33381659E-02
 -3.04817567E-02 -2.75346351E-02 -1.97557379E-04  4.11690539E-01 -2.23888783E-02
 -1.54649688E-04  2.21025460E-01  1.07063211E-02  2.37103575E-02 -1.55399072E-05
  1.01565508E-03 -1.89009891E-06  1.67727704E-02  6.07150066E-03  1.60115991E-03
 -4.33160435E-03  1.72060261E-02  1.68122344E-02  6.12756026E-03  1.60877890E-03
  4.29282957E-03  1.71986560E-02 -2.60519294E-06 -8.72362179E-06  4.29593498E-05
 -8.31044158E-05 -1.74992071E-04 -1.79107389E-01  1.03327275E-04 -1.55022166E-04
 -9.35088145E-02  2.12548726E-06 -6.13179670E-03  9.67766479E-04 -2.27172820E-05
  1.64721132E-04 -4.72464685E-06 -1.62542485E-05  7.81902503E-05  1.50158774E-04
  5.86673960E-05 -1.79014351E-01  2.67038893E-04  1.25864908E-04 -9.34390106E-02
 -1.07547892E-06 -6.12709840E-03 -9.79232569E-04 -8.77533016E-06 -1.72416805E-04
 -9.88245775E-05 -3.43987084E-03 -1.30125711E-04 -2.89160278E-04 -3.14725212E-03
 -2.50330050E-05 -1.89525315E-02  1.07503355E-03 -7.37323355E-04 -3.25232002E-02
 -4.68167387E-05 -1.90070652E-02  1.13875833E-03  6.79990085E-04 -3.25209974E-02
 -7.90741660E-05 -3.35744322E-03 -2.67212559E-06  3.61661394E-04 -3.12440794E-03
 -6.66220740E-06 -2.89596330E-05  1.87345195E-04  4.67116558E-05 -3.57306015E-05
  2.58165520E-02 -1.66579696E-03 -1.57641286E-06 -1.32132467E-01  1.41785002E-06
 -7.69552108E-02 -3.51830941E-05 -3.63820945E-04 -8.92345798E-05 -2.90055055E-05
 -1.16882518E-04  5.26666112E-04  8.59855276E-05 -1.39267325E-04 -2.09664272E-01
  3.81876090E-03  1.02650074E-03  1.66474560E-02 -4.89092960E-04  2.91320286E-02
  1.21899679E-02  3.68562371E-04 -8.19316219E-05  2.17423319E-05  2.72113528E-05
  1.48159200E-03  6.71954050E-06 -1.53403026E-04  5.24511852E-02 -4.24251116E-03
  7.20475332E-03 -2.85253768E-02  1.48803495E-03  6.06750419E-02  2.61050964E-02
 -9.86460620E-04 -4.04139928E-04  1.70466393E-04  5.43512294E-04 -2.08109496E-03
 -1.30908655E-03  4.27908607E-05  2.41841819E-01  2.60118418E-02 -1.98251743E-05
  6.79663304E-02  2.50261708E-03 -4.57227301E-02  2.50015803E-05  2.31146502E-03
  1.54955476E-05  2.45690867E-05  3.65827698E-05  1.47120756E-03 -3.10638542E-05
  1.51235629E-04  5.25078179E-02 -4.27511217E-03 -7.13182036E-03 -2.85311442E-02
  1.46926347E-03  6.06565701E-02 -2.61251118E-02 -9.68507262E-04  3.07851560E-04
 -2.37314432E-05 -9.82578613E-05  4.73433910E-04  7.01505313E-05  4.78121939E-04
 -2.09739180E-01  3.75850289E-03 -1.12401637E-03  1.66671158E-02 -4.69459664E-04
  2.91060686E-02 -1.22282640E-02  3.60362910E-04  3.95440827E-05  1.67951888E-06
  7.13977781E-06 -4.83969038E-05 -1.76576875E-04  2.80265134E-04  5.15773292E-01
  3.29117208E-04  9.65103980E-05  2.74161075E-01 -3.05317238E-05  8.31002185E-02
  3.00533548E-05 -9.48456179E-05  1.90063312E-05 -1.65532114E-03 -5.98578061E-03
  1.37672345E-02  1.34554555E-02  8.71569053E-05 -1.79571691E-01  5.79073736E-03
  4.27383850E-05 -1.00125509E-01 -1.55686384E-03 -3.37273279E-02  1.00349866E-05
 -2.24621246E-03 -2.15255709E-05 -1.07585147E-02 -4.37757425E-03  1.15367423E-03
  4.92982705E-03 -1.77339629E-02 -1.08118556E-02 -4.37305075E-03  1.15790336E-03
 -4.94877690E-03 -1.77409180E-02 -3.37254118E-06 -1.30783886E-05  7.28498071E-05
  1.00627566E-04 -2.00004996E-04 -3.59964753E-01  3.08118240E-05 -1.30962563E-04
 -2.23454440E-01 -1.97866433E-05  7.74852253E-03  2.34252161E-02 -5.47837163E-06
 -8.28996448E-05 -3.04291209E-06 -1.20183684E-05  7.05427851E-05  6.04575150E-05
 -2.42377910E-04 -3.59999240E-01  3.05945877E-05 -1.23475950E-04 -2.23460307E-01
  2.37768243E-05  7.77768664E-03 -2.34263755E-02  2.48781177E-05  1.01394808E-04
 -3.59330972E-04  2.82810480E-03  3.24483474E-04  4.27865607E-04 -4.63940587E-02
 -2.90141064E-04  6.23248332E-03  2.48639274E-05  2.67559526E-04  9.80232514E-03
 -3.39505016E-04  6.21888044E-03  2.96334926E-05 -2.88966906E-04  9.82716492E-03
 -3.58989350E-04  2.85363347E-03  4.55720337E-04 -3.73583566E-04 -4.63514412E-02
 -6.18448190E-06 -2.13209372E-05  6.31618649E-05 -5.24192449E-05 -6.55193245E-04
  3.79596429E-05  6.01216943E-05  1.46398119E-02  2.31367238E-05 -6.11163293E-05
 -3.36719267E-05 -1.35749873E-01 -1.48492240E-04  6.91853928E-05 -2.86481539E-05
 -9.94048869E-05  3.38688634E-04  4.40422612E-04  6.84314593E-04  3.75112275E-01
 -1.12776752E-02  5.50515793E-03  8.60950263E-02  1.29935159E-04 -7.44999953E-02
 -1.18453440E-02  7.27449307E-05 -1.10421888E-03  7.94420611E-05  2.79230525E-04
 -9.73611622E-04 -7.89279242E-04 -2.12190197E-03 -3.71465817E-01 -1.46522846E-02
  8.17261053E-04 -9.29256085E-02 -4.76468902E-04 -7.57579939E-02  1.03033546E-02
 -7.94575640E-04  1.99689614E-04 -7.67858409E-06 -2.69911290E-05  1.01632157E-04
 -4.58349477E-05 -4.73251777E-04 -7.86975031E-05  3.73502137E-05 -1.62986772E-02
 -3.54929250E-06  5.35827770E-06  3.83018535E-05  1.30092884E-01 -6.27936965E-06
 -6.11176180E-03 -7.49670836E-05 -2.62403731E-04  8.85617229E-04  8.29014517E-04
 -2.21457389E-03  3.71536244E-01  1.47202576E-02  7.68257837E-04  9.29913856E-02
  3.79961504E-04  7.57154360E-02  1.03170014E-02  8.36019672E-04  7.57162250E-05
  1.92220266E-05  6.69676455E-05 -2.43675339E-04 -6.04473828E-04  9.88441149E-04
 -3.75108347E-01  1.13312101E-02  5.59552451E-03 -8.61440748E-02 -2.23109469E-04
  7.44650184E-02 -1.18747043E-02 -7.59958615E-05 -1.09912833E-03  4.91272766E-06
  1.79662985E-05 -4.63273350E-05 -5.73627463E-05 -2.66693065E-05 -6.05683986E-05
  5.16321195E-05 -1.45273350E-03 -7.21893398E-05 -2.82050084E-05  8.11637655E-06
  8.24500155E-03  3.29978114E-05 -3.58264832E-04  4.48421813E-06  1.62657107E-05
 -3.85855272E-05  7.17397962E-06 -9.61970268E-03  3.04988399E-05  6.57934728E-05
  2.10810361E-02  3.88354918E-05 -9.44961226E-06  1.47900380E-05  5.35471372E-03
 -2.11309709E-06  1.39375919E-03 -3.98773133E-03  1.93258180E-02 -7.67152860E-03
  7.99221874E-03 -1.14217619E-02  4.03204928E-03 -1.94379624E-02  7.74383139E-03
  8.04662070E-03  1.14600949E-02 -4.33646746E-06 -1.44701741E-05  3.08227934E-05
  1.04138026E-04 -2.05678026E-04 -3.61653530E-02  2.45877015E-05 -1.14837393E-04
 -2.09332070E-02  3.31336759E-06  9.29167041E-04 -1.21407532E-03 -1.74489669E-05
  3.38916091E-05  5.80294133E-06  1.95703809E-05 -5.09209273E-05 -1.37027326E-04
 -2.59559085E-04  3.61401516E-02 -7.32801281E-05 -1.69289160E-04  2.09175722E-02
 -1.55296448E-06 -9.29249465E-04 -1.21348178E-03  1.18543743E-05  4.22169252E-05
 -2.83035986E-04 -5.11224338E-04  8.80510001E-04  9.19468829E-07  6.64276626E-02
  2.22292543E-04  4.61793521E-03 -1.23617595E-03  3.47494601E-04 -7.19871937E-02
 -2.27800873E-04 -4.71553602E-03  1.25348962E-03  3.42269464E-04  7.20091567E-02
  1.94429349E-04  3.27076782E-04 -9.21892958E-04 -5.99272068E-06 -6.64368966E-02
 -8.65183823E-05 -2.85340467E-04  5.81050613E-04 -3.03766061E-04 -1.29024721E-04
  4.18801436E-01  2.38235233E-03  3.05661743E-04  1.71499090E-01  5.57440696E-04
  1.30168958E-03  9.10825623E-06 -9.01425297E-04  6.39913624E-05 -6.77225346E-06
 -2.17191547E-05 -1.34702774E-04 -4.64898741E-04 -4.07229044E-04 -1.60757210E-01
 -1.31601870E-03 -1.15859023E-03 -8.75523104E-02 -9.99662391E-04 -6.92996749E-02
  7.19009267E-02  4.92014038E-04 -1.21200415E-03 -1.22318739E-04 -4.64670774E-04
  3.16273975E-03  1.09143914E-03 -2.94297517E-03 -1.86107353E-01 -5.88752800E-03
  5.09385803E-03 -7.00748226E-02  2.04460168E-03  5.85735185E-02  7.62359665E-02
 -4.85763903E-04  6.11881230E-04  7.66919293E-05  2.19244716E-04 -2.22693648E-03
  5.91085635E-04 -4.91481499E-06  4.72782675E-01  1.57546636E-02 -3.21297990E-04
  1.12226027E-01  3.89011320E-03 -1.65148603E-02  1.40668284E-05  1.50949975E-03
  4.32877170E-05 -1.21788420E-04 -4.62436798E-04  3.14377149E-03  1.03730063E-03
  3.03576453E-03 -1.86039802E-01 -5.42099769E-03 -5.37402084E-03 -7.00636667E-02
  2.03364891E-03  5.85297993E-02 -7.62756966E-02 -4.79022209E-04 -6.31844634E-04
 -1.13541434E-05 -3.81936609E-05 -8.24520804E-05 -5.88630508E-04  4.69864475E-04
 -1.60803499E-01 -8.59306330E-04  1.52915431E-03 -8.75970034E-02 -1.06986496E-03
 -6.93193271E-02 -7.18911172E-02  4.73880876E-04  1.23564237E-03  8.32444407E-05
  3.02571007E-04 -7.86365563E-04 -8.82566145E-04 -2.13453185E-04 -3.32248850E-01
 -2.11587781E-04 -1.75048187E-04 -1.76398086E-01 -1.64653057E-04  2.69399773E-02
  1.29000768E-05 -6.59116559E-05 -8.41808662E-05 -2.60094908E-03 -9.43092599E-03
  2.22237173E-02  2.57499033E-02  1.18618488E-04 -1.82194169E-01  3.61356602E-03
  6.66513301E-05 -9.64479639E-02  5.77280650E-03 -7.64527929E-02  1.49837131E-05
 -6.61238393E-04 -3.60693084E-05 -1.86769028E-02 -1.36654980E-02 -5.33893935E-03
  1.78847589E-02 -5.80638843E-02 -1.87679235E-02 -1.36674560E-02 -5.38891171E-03
 -1.79398488E-02 -5.80908268E-02 -1.48746780E-05 -5.18037730E-05  2.53536888E-04
  3.68559089E-04  1.28790828E-04  1.48731357E-01  8.86636878E-05  1.32604556E-04
  1.15325817E-01  7.82214821E-05 -1.34424241E-02 -1.97333541E-02  3.29624112E-06
 -1.91254064E-05 -1.98031730E-05 -6.95649324E-05  3.47007334E-04  5.01972734E-04
 -2.79167512E-05  1.48734727E-01  2.35279826E-04 -3.63572549E-05  1.15343674E-01
  3.05791566E-05 -1.34627627E-02  1.97274891E-02 -1.85972993E-05  8.36510740E-06
 -8.69139935E-04 -3.34966802E-03 -1.62166448E-04  1.01586280E-04 -2.21424803E-02
 -2.22848616E-04  4.76916956E-03 -2.29808000E-03  2.95292084E-03 -5.21995797E-02
 -2.51346261E-04  4.73325228E-03 -2.36481068E-03 -2.91143433E-03 -5.21733174E-02
 -8.95604973E-04 -3.33101267E-03 -2.66918592E-04 -1.03134531E-04 -2.21860777E-02
  2.70948157E-03  8.57754236E-03 -1.69535829E-02  1.88261146E-03  2.65540223E-05
  3.86037458E-02 -2.10894641E-01 -2.14768920E-05  1.84828079E-02 -5.04597373E-02
 -4.22977154E-03  5.03561194E-05 -7.95286654E-03 -2.41107497E-05 -4.72729987E-03
 -1.76143560E-02  8.81394701E-02  3.29143699E-02 -1.13184857E-03 -2.54593682E-02
  6.24371940E-01  3.44405321E-01 -1.08510204E-02  5.16852933E-02 -1.77141063E-03
  9.10173369E-03 -1.85744053E-04 -5.38476131E-03  7.74303763E-03  2.48026756E-02
 -4.17361701E-02 -6.18513782E-02  7.53890223E-02  2.93413925E-03  4.17467756E-01
  4.68955780E-02 -9.83824124E-03 -8.28827519E-03  7.14406761E-03 -8.09108338E-03
 -1.04218689E-05 -4.23342313E-02 -1.81759167E-03 -1.09897014E-02  1.75481421E-01
  6.43723620E-02  1.43339888E-06 -2.03786083E-03  8.48989053E-01 -8.93432870E-04
  3.69016870E-02  8.77997785E-02 -1.67355660E-02 -1.04104992E-05  5.60210184E-02
  1.01575766E-04  7.73653660E-03  2.47826903E-02 -4.17416003E-02 -6.17520641E-02
 -7.50288940E-02  2.81601193E-03  4.17497456E-01 -4.81505080E-02 -9.85805833E-03
 -8.25636746E-03  7.15902740E-03  8.09361009E-03  8.81855264E-05  4.21155641E-02
 -4.73558050E-03 -1.76409336E-02  8.81330326E-02  3.28471605E-02  1.26652647E-03
 -2.54478177E-02  6.24323548E-01 -3.45071493E-01 -1.14117851E-02  5.15894791E-02
 -1.74240963E-03 -9.23206709E-03 -7.37153643E-05  5.50344917E-03 -2.44460186E-03
 -8.78723653E-03  1.94486468E-02  4.00470827E-02  2.85759067E-05 -2.11928328E-02
  5.32156158E-02 -1.25467284E-04 -1.42655613E-02 -2.77417026E-02  3.53833951E-03
  8.26159724E-06 -2.22871622E-02 -2.12469645E-05  2.62875748E-02  9.57315922E-02
 -2.37614233E-01 -1.80273899E-01  1.87351271E-04 -5.50641222E-02  2.78788445E-01
 -2.11406742E-04 -2.20267707E-02  3.14548646E-02 -1.24133984E-02  3.46511133E-05
 -1.31600428E-01  2.57010661E-05  4.47812759E-02 -8.44867945E-02  3.83048027E-01
 -4.07806045E-01  8.81715820E-02  4.47526852E-02 -8.40113936E-02  3.82931257E-01
  4.07181543E-01  8.85819304E-02 -1.45867126E-03 -5.45688423E-03  3.05385611E-02
 -8.64735779E-03 -3.43787213E-03  8.66259083E-03  5.09080389E-03  3.12926980E-04
  7.61074286E-03 -5.15070082E-03 -1.00263958E-03 -1.22141812E-03  3.58851152E-03
 -5.15289721E-03 -1.46000241E-03 -5.46205039E-03  3.05783154E-02 -8.63500127E-03
  3.49805454E-03  8.65347682E-03  5.07714884E-03 -3.49878539E-04  7.59954386E-03
 -5.17540948E-03 -1.00442773E-03  1.22315953E-03  3.59647971E-03  5.16619253E-03
 -5.20067026E-03  6.53056059E-01  6.06899612E-02  1.37408515E-01 -8.34581692E-03
 -2.27471852E-02 -1.55218106E-01  1.13387764E-01 -1.94456262E-01  3.08347259E-03
 -2.28008440E-02 -1.54157383E-01  1.12922147E-01  1.93932313E-01  3.16823104E-03
 -5.27969231E-03  6.53462774E-01  6.07323741E-02 -1.37785599E-01 -8.48398812E-03
  3.01647314E-06  7.20563976E-06  5.56232913E-05  1.12443007E-04 -4.43883426E-02
  2.84945822E-05 -1.71842355E-04  7.13828714E-01  1.25978411E-04 -5.83423446E-05
 -3.40466652E-05  2.48391909E-03  1.80107958E-04  3.31840397E-02 -3.90747155E-03
 -1.17512224E-02 -1.72342854E-02 -4.05201822E-02 -1.12718969E-01 -4.84725169E-03
 -1.32202949E-01  4.22692591E-01 -2.46477945E-03 -2.59717759E-02  3.26447149E-03
  4.83838453E-04  5.68530987E-02 -1.29419128E-01 -5.44682048E-03 -1.66016348E-02
 -1.17824828E-02  4.47153744E-02 -1.88245534E-01  1.16147962E-02 -1.72538055E-01
  8.32245492E-01  1.73020000E-03 -1.91506493E-02 -9.69939338E-04  8.17752780E-04
  5.87913291E-02  1.33295733E-01 -7.21273236E-07 -6.51677783E-06  1.44103122E-04
 -3.11668541E-05 -4.36514765E-02  7.46383477E-05 -1.69334705E-04  7.22743169E-01
  2.51064114E-04  1.33918631E-04 -2.51832734E-05  6.20488490E-04  7.87933655E-06
 -1.18176900E-01  5.47464618E-03  1.66907850E-02  1.16400254E-02 -4.49435558E-02
 -1.88475102E-01 -1.17262310E-02  1.73091656E-01  8.33216915E-01 -1.76123530E-03
  1.90896871E-02  1.07750825E-03  8.64028517E-04 -5.88720250E-02  1.33502680E-01
  3.92024155E-03  1.17891456E-02  1.72921335E-02  4.06724842E-02 -1.12988842E-01
  4.67246930E-03  1.33049873E-01  4.22400781E-01  2.96270755E-03  2.60933006E-02
 -3.36539329E-03  5.80280971E-04 -5.71661698E-02 -1.29481644E-01 -7.92940470E-06
 -2.93696751E-05  8.36977982E-05  1.45172708E-04 -6.14788788E-03  1.12056432E-06
  7.70652697E-05 -1.17505899E-01  1.72809170E-05 -1.02246139E-05  7.98986235E-06
  1.16271343E-04 -1.55416328E-05 -4.42776500E-02  1.07642899E-05  3.98607641E-05
 -1.09328067E-04 -2.11745603E-04 -1.97919466E-01 -1.56829687E-04 -3.79171371E-04
  2.12475652E-01  3.92629416E-05  7.89813562E-05  2.39669748E-05  1.99866159E-02
  7.79257603E-05  1.32302949E-01 -2.73108306E-02  4.17223562E-01 -2.36884027E-01
  3.40006627E-01 -5.58410725E-02  2.73550313E-02 -4.16126527E-01  2.37240091E-01
  3.40141871E-01  5.62342498E-02 -8.73147704E-04 -3.05869426E-03  1.22241206E-02
 -1.73006768E-03 -3.66998924E-02  9.43879152E-04 -1.32331547E-03 -2.15498473E-02
  5.36170764E-04 -4.17319913E-03 -6.95094668E-05  1.06975151E-04  4.78856292E-03
 -5.03860049E-04  8.69797134E-04  3.04526899E-03 -1.21387536E-02  1.68425076E-03
 -3.66859423E-02 -9.87578116E-04  1.31936120E-03 -2.14709881E-02 -5.53867757E-04
  4.15909505E-03  7.11778627E-05  1.14731688E-04 -4.81106893E-03 -5.04908233E-04
 -3.43311737E-02  4.06033899E-01  1.66431831E-01  2.55249807E-01 -2.57824516E-03
 -2.75746445E-02  8.23395768E-01 -2.95199377E-01  3.86267667E-01 -9.27518490E-04
  2.75999278E-02 -8.23886854E-01  2.95533787E-01  3.86934706E-01  1.09452341E-03
  3.44132408E-02 -4.05138609E-01 -1.66394393E-01  2.55752984E-01  2.82710552E-03
 -1.91372985E-03 -5.12878382E-03 -1.57898742E-02 -1.27461512E-01 -4.73801055E-05
  4.53893919E-04 -1.65109742E-02 -3.70078436E-04  3.29384927E-03  8.06754906E-02
 -4.74512636E-04  4.14756637E-05 -1.86404333E-01 -2.74671351E-05 -9.37924526E-03
 -3.07496603E-02  3.97807435E-02 -6.90499976E-02 -1.12401064E-01 -2.32325387E-05
  3.38955029E-01  1.27264830E-01 -5.32935333E-03  6.40234740E-03 -6.95404568E-04
  2.24240895E-04  1.12038544E-01 -9.47180343E-02 -9.84331189E-03 -3.25473902E-02
  6.10726817E-02  5.60561942E-02 -1.14124614E-01 -5.41870270E-04 -5.23128399E-02
  5.74026021E-01  1.20885241E-02  4.28413489E-02  2.27012111E-03 -1.20147473E-03
  5.76939577E-02  8.86686702E-02 -1.02452655E-03 -3.80059704E-03  2.30117307E-02
  1.02039050E-01 -1.44113475E-04 -7.65326623E-03  1.27226253E+00  8.86068147E-04
 -2.81308559E-02  1.62485231E-02 -6.80204692E-03  1.34904821E-05 -6.73859446E-02
 -1.33771322E-04 -9.84157278E-03 -3.25457266E-02  6.11962283E-02  5.60392421E-02
  1.13798998E-01 -5.90235852E-04 -5.33042788E-02 -5.71750783E-01  1.18323598E-02
  4.28940456E-02  2.21733857E-03  1.17385370E-03  5.75696944E-02 -8.84797173E-02
 -9.37984079E-03 -3.07539163E-02  3.98731529E-02 -6.90032763E-02  1.12494371E-01
  2.45484896E-04  3.37972462E-01 -1.28300429E-01 -5.36356699E-03  6.45398323E-03
 -6.56126971E-04 -3.36604523E-04  1.12045813E-01  9.45165455E-02  1.19868093E-02
  4.38024798E-02 -1.20858493E-01 -9.87263512E-02 -5.21105718E-05 -2.56833265E-04
 -3.60375483E-02 -5.70803117E-05 -1.46625002E-03 -3.68424743E-02 -2.27689939E-04
 -5.68184555E-05 -8.66360579E-03 -6.00298600E-05  9.94762934E-03  3.53143351E-02
 -7.70608493E-02  4.95219458E-02 -3.47398696E-04 -1.05474084E-02  7.20405079E-01
  1.71093312E-04  6.50384110E-02 -3.31117438E-02  1.16639928E-02  1.19285143E-04
 -8.01944832E-02  2.36905924E-04  4.15912117E-03 -6.25128037E-01  2.26033540E-01
 -1.80649013E-01  5.02687224E-02  4.24310453E-03 -6.26543364E-01  2.26924485E-01
  1.81578329E-01  5.07340299E-02 -3.17584326E-03 -1.11567527E-02  5.51121145E-02
  4.95209623E-02  1.15801500E-02  1.10929284E-04  2.61832246E-02  7.45871034E-03
  1.89250129E-04  1.06648288E-02 -4.13217999E-06  7.92749987E-05  1.03109091E-02
 -1.12466738E-02 -3.17180606E-03 -1.11417694E-02  5.50307915E-02  4.95594289E-02
 -1.16709429E-02  2.17322389E-04  2.62136365E-02 -7.54198638E-03  2.17051458E-04
  1.06727015E-02 -2.35159258E-05 -7.73953555E-05  1.02700224E-02  1.12328662E-02
 -7.17841548E-02  4.95312216E-02  6.81346424E-02  3.06708601E-01  7.10439560E-04
 -6.47129142E-02  1.45088227E-01 -1.17640900E-01  2.52110239E-01 -7.03246797E-04
 -6.46940141E-02  1.43682552E-01 -1.16876194E-01 -2.51720449E-01 -8.58562486E-04
 -7.17471393E-02  4.96262725E-02  6.80247129E-02 -3.06707938E-01  4.06722565E-04
 -1.01154683E-03  3.22083049E-03 -1.70110742E-01  4.38148028E-02 -2.39907427E-05
 -2.84343161E-04  1.14129199E-01 -3.79192040E-03  4.46858516E-03 -2.77060056E-01
  8.45506543E-04  1.81807868E-04 -1.06199754E-01  1.83525695E-04 -9.97710350E-03
 -2.94036237E-02 -4.15368715E-02 -3.72447562E-02 -1.03786227E-02  8.28490011E-04
  4.17900671E-01  5.28357881E-02 -9.94033287E-03 -2.36630329E-01  2.07550116E-04
 -5.32689752E-05  3.59483213E-02 -2.01766892E-02 -5.43570533E-03 -1.41620841E-02
 -7.10291330E-02  2.08327867E-02  8.16477748E-03  2.47856799E-03  1.43962942E-01
  2.37370358E-01  1.97207051E-02 -2.09863941E-01  2.86026831E-03  5.06283662E-03
  2.26844479E-02  2.36763384E-02 -1.65308737E-03 -1.30143717E-03 -9.32184024E-02
 -2.84219273E-02  2.77421113E-06  4.24424858E-03  9.83861861E-01  3.18319464E-03
 -5.44992533E-02 -2.49018701E-01 -1.14187075E-02 -6.33302988E-06  4.00873957E-02
 -5.61509957E-05 -5.42933075E-03 -1.41405874E-02 -7.10564637E-02  2.09093934E-02
 -8.25556321E-03  2.37732910E-03  1.38371855E-01 -2.33739776E-01  1.97001091E-02
 -2.09867818E-01  2.74069837E-03 -5.03259339E-03  2.24794942E-02 -2.35468858E-02
 -9.99156860E-03 -2.94548446E-02 -4.13090170E-02 -3.73368268E-02  1.04370411E-02
  1.00478716E-03  4.12374670E-01 -5.70654977E-02 -1.00275367E-02 -2.36534672E-01
  9.46103322E-05  3.24504667E-04  3.59995020E-02  2.03716154E-02 -4.25229333E-03
 -1.54065669E-02  3.61282692E-02  9.75401896E-02  3.68379890E-05  7.98579731E-04
  1.48774715E-01  5.05687622E-04 -6.74542989E-04 -1.31380802E-01  1.57319966E-04
 -1.35651421E-04  1.84454135E-02  1.99298384E-05 -2.53151750E-03 -1.03511622E-02
  3.83145723E-02 -3.39674923E-02 -1.08076570E-04  4.33573457E-03  5.60665208E-01
 -3.87834001E-04  1.12242437E-01 -9.01534937E-02  1.73306723E-02  1.20269178E-04
 -2.57428281E-02  7.23574518E-05  2.39140662E-02 -6.14967602E-01  1.07357201E-01
 -1.50083121E-01 -5.82069187E-03  2.39353388E-02 -6.15279953E-01  1.07835066E-01
  1.50321767E-01 -5.79280323E-03 -3.93757693E-03 -1.41452653E-02  7.72399653E-02
 -2.22356113E-04  9.74533265E-03  9.14226759E-05 -2.10332440E-02  4.96566918E-02
  1.23349364E-04 -1.38670758E-02 -1.45746103E-06  2.65887103E-04 -5.14690521E-03
  1.83293845E-02 -3.94088109E-03 -1.41555180E-02  7.72543919E-02 -1.07450906E-04
 -9.70929111E-03  1.28287574E-05 -2.08388966E-02 -4.96654960E-02  1.31947109E-04
 -1.38561713E-02  4.27258486E-05 -2.81196490E-04 -5.09159321E-03 -1.84074073E-02
  4.92139286E-02  8.29779155E-02  3.38680084E-02  2.10477815E-01  1.72384362E-03
  5.06326124E-02 -9.70483555E-02 -3.10920808E-02  4.46984453E-02 -3.66421785E-03
  5.06174022E-02 -9.74951972E-02 -3.02857570E-02 -4.48526391E-02 -3.80745010E-03
  4.92216391E-02  8.39754722E-02  3.45442121E-02 -2.10675992E-01  1.33352009E-03
 -3.15456572E-06 -8.27833338E-06 -2.42413917E-05 -1.95272962E-04  6.48583536E-02
 -4.94881416E-04 -3.03532175E-05  7.93815221E-01 -1.77466331E-04 -1.92728506E-05
  2.01828379E-05 -3.56398124E-03 -2.10207882E-04  1.36187003E-02 -8.68444162E-03
 -2.81220878E-02  3.45106547E-02 -5.85327284E-02 -1.45366551E-01  6.51775106E-03
  2.49712521E-01  1.10728777E+00  3.58653714E-03  5.73067771E-03 -5.70423405E-03
 -4.23567294E-04  7.53825395E-02 -8.52028957E-02 -3.22936670E-03 -1.05608794E-02
  4.50719295E-03  3.45783438E-02  1.58860547E-02 -2.11427422E-02  2.83321803E-01
 -2.14138547E-01 -7.23370384E-03 -3.76273921E-02  3.25409096E-03 -1.77096390E-03
  3.81412800E-02  3.81434306E-02 -5.06821484E-06 -1.71415463E-05  6.04297504E-05
  6.19206697E-05  5.01628513E-02  3.91481501E-04  1.31948912E-03  3.22324854E-01
  6.89837855E-05 -6.89513254E-05  1.49792693E-05 -2.68428412E-03  9.88663025E-05
  1.00695146E-01  3.21818142E-03  1.05272283E-02 -4.56308984E-03 -3.46826958E-02
  1.59664389E-02  2.05827656E-02 -2.82966456E-01 -2.14662950E-01  6.62315101E-03
  3.74212638E-02 -3.32718067E-03 -1.98742624E-03 -3.81027077E-02  3.81133746E-02
  8.66641344E-03  2.80663054E-02 -3.45155510E-02  5.83391205E-02 -1.45258686E-01
 -5.96163672E-03 -2.47555569E-01  1.10683289E+00 -1.87540064E-03 -5.83975564E-03
  5.52628740E-03 -2.35314966E-05 -7.52150270E-02 -8.49228547E-02  2.17181624E-05
  7.91849925E-05 -2.18223598E-04 -2.34546767E-05  1.85293773E-02  1.69013888E-04
  5.67687521E-05 -1.40916794E-01  1.92663865E-04 -1.78697083E-04 -8.61409915E-05
 -4.29786055E-04 -6.14220669E-05 -1.31700239E-02  4.67477157E-06  1.56485617E-05
 -1.99010110E-05  6.92336794E-05  2.61924187E-01  1.26123324E-04  4.93140446E-04
 -6.67513044E-01 -1.43415864E-04 -5.15286268E-05 -1.72892167E-04 -4.60747818E-02
 -1.88243812E-04 -1.80306759E-01  3.51708846E-02 -8.28174787E-01  3.73210803E-01
 -5.68302426E-01  1.09869968E-01 -3.51847444E-02  8.26734838E-01 -3.72931823E-01
 -5.67649187E-01 -1.10802896E-01 -2.65897374E-03 -9.41669104E-03  4.37333234E-02
  1.97009885E-02 -3.95872074E-02 -1.80996973E-03  3.46710647E-02 -2.23859115E-02
 -9.50905443E-04 -7.38232281E-03  2.20909830E-04 -2.82467100E-04  1.13186349E-02
 -4.78282218E-03  2.63759204E-03  9.33913064E-03 -4.33135706E-02 -1.95631109E-02
 -3.97608078E-02  1.54700545E-03 -3.45925797E-02 -2.24327403E-02  7.37908567E-04
  7.41636372E-03 -1.98907381E-04 -2.67678798E-04 -1.12889935E-02 -4.72857485E-03
 -1.13740816E-02  1.08076186E+00  2.58890383E-01  4.97400699E-01  3.65258630E-03
 -6.52584825E-03 -1.15178717E-01  9.30995851E-02  1.07139498E-01  6.14953750E-03
  6.55245908E-03  1.14866758E-01 -9.30372011E-02  1.07095468E-01 -6.35979526E-03
  1.12720848E-02 -1.08005953E+00 -2.58423227E-01  4.96823445E-01 -2.73146763E-03
 -4.88029302E-04 -1.77766408E-03  1.11319877E-02  1.68944817E-02  2.88553374E-05
  4.05212746E-01  1.84350211E-02  1.28234560E-03  2.45280362E-01  1.20675287E-02
 -4.39193251E-02  1.88845454E-05  1.76145018E-02  8.74946615E-05  1.58195179E-03
  5.54822346E-03 -2.20707958E-02  9.50599552E-03  1.17968916E-02 -3.06621563E-01
 -1.81658846E-01 -1.21422405E-01 -2.13119332E-01 -2.18665957E-02  3.47838055E-02
  9.08555974E-02 -1.10248911E-02  1.31525296E-02 -2.14172941E-03 -6.95446363E-03
  1.34412097E-02  1.59323290E-02 -1.50913789E-02  2.48664845E-01 -1.85414699E-01
  1.06477800E-01  1.93328640E-01 -1.21172321E-03  5.66227490E-02 -8.80657143E-02
  7.78400777E-03  1.34744205E-02  1.33339551E-04  1.41124757E-03 -3.17992468E-02
  3.49213424E-03  1.95970227E-04 -3.87780680E-01  4.09605107E-03 -1.26546139E-04
 -5.45867930E-02 -3.70661812E-02  2.62067274E-03 -1.38840854E-05 -2.34650803E-02
  9.50413069E-05 -2.13007191E-03 -6.91398216E-03  1.33402478E-02  1.58920194E-02
  1.50747683E-02  2.48689972E-01 -1.85383281E-01 -1.07673684E-01  1.93370888E-01
 -1.24911449E-03  5.66322863E-02  8.80630262E-02  7.76514632E-03 -1.34916222E-02
  1.59608094E-03  5.59147188E-03 -2.20506796E-02  9.51589435E-03 -1.19235159E-02
 -3.06626719E-01 -1.81752275E-01  1.24862930E-01 -2.12934841E-01 -2.20194575E-02
  3.46997474E-02 -9.08019188E-02 -1.12327271E-02 -1.32957381E-02 -9.01631848E-04
 -3.36313852E-03  1.09171162E-02 -3.77545376E-03 -1.41706382E-04 -1.65213719E-01
 -1.57657938E-02 -3.00090415E-04 -1.29554883E-01  1.98633298E-02  5.29180683E-02
  3.62721785E-05  1.21787199E-02 -7.57745693E-05 -8.29299908E-05 -3.42572328E-04
  1.13306604E-03 -8.67592914E-03  2.63630304E-04 -4.28579399E-03 -2.56099795E-02
 -6.15789684E-04 -1.47149019E-01 -4.00419870E-02  8.23026934E-02 -4.63705833E-05
  1.23985241E-02 -2.27106596E-04  1.17956631E-02  2.79151400E-02 -8.63475224E-03
  1.98592919E-02  1.81129390E-01  1.17508281E-02  2.97118527E-02 -9.45918160E-03
 -2.11635827E-02  1.80815534E-01  1.17077695E-03  4.24511994E-03 -2.28132438E-02
 -4.50847037E-03 -2.32192641E-03  7.41773616E-02 -5.70573614E-03 -6.05922563E-03
  6.61595975E-02  1.14603022E-03 -1.09242893E-02 -5.76888457E-03 -3.06743315E-03
  2.17241620E-03  1.17126793E-03  4.24622118E-03 -2.28012412E-02 -4.48067909E-03
  2.17283132E-03  7.40728769E-02 -5.66239798E-03  6.04618591E-03  6.61151265E-02
  1.13250067E-03 -1.09311936E-02  5.77159117E-03 -3.11060031E-03 -2.16857930E-03
  7.20680573E-03 -1.83421277E-01 -3.55725088E-02 -7.31105912E-02 -1.26803600E-01
 -1.13861842E-03  1.58076233E-01 -3.59096714E-02  8.46813174E-02  1.51375735E-01
 -1.11924765E-03  1.58563330E-01 -3.62642031E-02 -8.44265035E-02  1.51286097E-01
  7.14390693E-03 -1.86285468E-01 -3.62036589E-02  7.45166979E-02 -1.26717718E-01
 -9.62085852E-04 -4.94324776E-03  6.87470476E-02  1.46493846E-01 -1.94299805E-05
 -5.91565412E-02 -1.00456610E-01  1.59847525E-03 -3.79559065E-02  5.89678868E-02
  5.13349151E-03 -1.06484726E-04  1.31265069E-01 -5.22285341E-06  7.02819630E-03
  2.35030254E-02 -6.79717266E-02  1.09114216E-01  8.18680858E-02  4.31833051E-02
 -6.93439839E-01 -5.18740165E-01  4.12182272E-02 -8.39930073E-02 -6.09713628E-03
 -1.29444864E-02 -9.31317581E-02  7.83166183E-02 -1.00818673E-02 -3.39473610E-02
  9.44066589E-02  9.09700958E-02 -7.50952883E-02 -4.24270348E-02 -8.87899208E-01
  7.62398106E-01 -4.65029551E-02 -3.06909305E-03 -4.93169271E-03  1.26906461E-02
  8.28176347E-02  6.58168093E-02 -2.30608780E-03 -7.03698595E-03 -1.99615191E-02
  1.49728075E-01 -1.62098933E-04  6.49683542E-02  7.04889925E-01 -2.02184445E-03
  4.82076748E-02 -1.48466926E-01 -4.36474289E-03  4.64719604E-05 -1.53670086E-01
  3.57224851E-05 -1.01019022E-02 -3.40168697E-02  9.46045472E-02  9.10167861E-02
  7.52271269E-02 -4.24806176E-02 -8.85454910E-01 -7.65189342E-01 -4.65106786E-02
 -3.04181545E-03 -4.91388738E-03 -1.27027480E-02  8.29737056E-02 -6.58142423E-02
  7.04221869E-03  2.35514551E-02 -6.80880021E-02  1.09147214E-01 -8.21010949E-02
  4.29157181E-02 -6.90763110E-01  5.21948971E-01  4.18170188E-02 -8.39522077E-02
 -6.27123384E-03  1.31821562E-02 -9.32682672E-02 -7.82552362E-02 -9.85201295E-03
 -3.64441848E-02  1.09172573E-01  6.81287763E-03 -8.43715784E-06  2.20707464E-02
 -8.61078680E-02  1.02792022E-05  1.81082622E-02  1.35046515E-01 -8.70557235E-03
  1.33204413E-04  6.32825453E-02  9.18073985E-05  1.26310934E-02  4.65563911E-02
 -1.27245634E-01 -4.47390429E-02 -2.81101229E-05 -3.14544334E-02  2.93844982E-02
  2.37363586E-04  3.64740932E-03 -6.01015413E-02 -2.12310196E-02  7.82030474E-05
 -2.77951694E-02  5.17577659E-05  1.93232775E-02 -5.58517786E-02  3.44944984E-01
 -1.12290221E-01  1.45402580E-02  1.93583440E-02 -5.60057777E-02  3.45082618E-01
  1.12234524E-01  1.48606242E-02  7.53544935E-03  2.71917944E-02 -1.45527580E-01
 -4.16280610E-02 -3.00961562E-02 -1.06930479E-02 -3.44294571E-02 -5.21869116E-02
 -9.41015703E-03  3.70348378E-03  1.63321259E-03  4.06833836E-04 -1.99327167E-02
  1.35834543E-02  7.53677927E-03  2.71963462E-02 -1.45553083E-01 -4.17751070E-02
  3.00534903E-02 -1.08371889E-02 -3.45235211E-02  5.23217290E-02 -9.48107345E-03
  3.72285551E-03  1.63795806E-03 -3.97746678E-04 -1.98974812E-02 -1.35569650E-02
  4.48299684E-02 -6.72167061E-01 -2.11470030E-01 -3.88508616E-01  1.92622111E-02
 -3.81969894E-02  9.22683224E-01 -1.51587139E-01  4.70133067E-01 -2.22401900E-02
 -3.82454355E-02  9.23638894E-01 -1.52118277E-01 -4.70603655E-01 -2.22650163E-02
  4.48869677E-02 -6.73144243E-01 -2.11861127E-01  3.88846422E-01  1.98867362E-02
 -1.82894937E-05 -6.46634350E-05  2.32612450E-04  3.72794279E-04 -2.95780367E-02
  5.59284204E-05  4.82222058E-04 -5.08606983E-01 -3.04364126E-04 -1.54944743E-04
  1.30561261E-04 -3.34004987E-03  1.85697837E-04  4.67717388E-02  1.10043321E-02
  3.81564341E-02 -1.26849539E-01  3.05767672E-03  9.27962014E-02  2.37202884E-03
 -3.40693043E-01 -1.14513493E+00  1.09556732E-02 -6.81768839E-02 -8.91624647E-03
 -2.37828295E-03 -2.67231260E-02  8.27624263E-02 -1.63239334E-02 -5.65150229E-02
  1.77431346E-01  5.95543957E-02 -8.64756209E-02 -3.03074320E-02 -3.13045100E-01
  1.24817923E+00 -1.60670094E-02  6.72863856E-02  8.66701119E-03 -2.47526072E-03
  4.00041297E-02  6.70987467E-02 -3.89230374E-05 -1.43574895E-04  7.14516997E-04
  2.88149327E-04  1.49272126E-01 -6.59921345E-05  5.43926224E-04  6.43580137E-01
 -3.24357468E-04  2.52497497E-04 -2.28994013E-05 -4.54668244E-03 -8.72750338E-05
  1.21725245E-01  1.63472436E-02  5.65939922E-02 -1.77615581E-01 -5.92337486E-02
 -8.61022690E-02  3.04555342E-02  3.13966114E-01  1.24838122E+00  1.63495048E-02
 -6.71500445E-02 -8.77249513E-03 -2.43178536E-03 -4.02891279E-02  6.67396773E-02
 -1.09952110E-02 -3.81253984E-02  1.26792041E-01 -2.94930228E-03  9.28749157E-02
 -1.98679661E-03  3.40078849E-01 -1.14541707E+00 -1.19407675E-02  6.81977027E-02
  9.17892656E-03 -2.67537343E-03  2.63973321E-02  8.30095717E-02 -2.77191836E-05
 -1.01185102E-04  2.72485626E-04  9.82845663E-05 -1.77917011E-02  1.26183713E-04
  2.45394487E-04  1.37658625E-01 -1.47780408E-05 -3.20822778E-05  6.94828420E-05
 -1.25510678E-03  2.13210877E-05 -9.97814288E-03  2.12320842E-05  7.74986697E-05
 -1.97516826E-04  1.87527093E-04  1.55169254E-01  2.31773072E-04 -3.86576001E-04
 -5.47691757E-01  3.43213038E-05  1.63228920E-05 -1.79460935E-04 -4.77886222E-02
  7.42921743E-06 -1.57704003E-01  7.30130622E-02 -4.31397491E-01  2.87076409E-01
 -3.11430670E-01  1.09142797E-01 -7.31704140E-02  4.31287492E-01 -2.85535196E-01
 -3.11661264E-01 -1.09545658E-01  4.13871843E-03  1.47796547E-02 -7.39562741E-02
 -4.43849795E-02  5.73508081E-02 -3.33587085E-03 -6.00779844E-02  2.99415254E-02
 -1.28543377E-03  9.87859743E-03  4.95406307E-04 -7.01058874E-04 -1.60168476E-02
  2.83219210E-03 -4.13813267E-03 -1.47780717E-02  7.39651329E-02  4.43179224E-02
  5.76512005E-02  3.48984095E-03  5.99937101E-02  2.98340849E-02  1.36798151E-03
 -9.96456277E-03 -4.87790879E-04 -8.10300008E-04  1.59468315E-02  2.69919675E-03
  3.25852142E-02 -9.66967473E-01 -3.12699347E-01 -3.74800765E-01  1.24124861E-02
 -1.71632765E-02  1.10875644E+00 -2.42291455E-01  5.69220564E-01  2.33324675E-02
  1.70231053E-02 -1.10919702E+00  2.41704950E-01  5.69379837E-01 -2.33209178E-02
 -3.25380946E-02  9.67265526E-01  3.12982562E-01 -3.74535610E-01 -1.32722346E-02
 -1.57233969E-02 -5.50349240E-02  2.00356795E-01  3.11774167E-02  3.72346629E-05
 -1.00341369E-02  4.24377100E-01 -6.78648658E-04  1.14123871E-03 -1.35828629E-01
 -5.35364629E-03  9.55713455E-05 -1.25434097E-02  4.77259897E-05  4.64976091E-03
  1.68897400E-02 -6.71218062E-02 -2.95250089E-02  8.48166416E-03  1.14965359E-03
  2.88621233E-01  1.50424742E-01  1.82481788E-02 -3.24948233E-02 -4.63878762E-03
 -5.68286996E-03 -6.40584416E-02 -1.25081683E-01  4.85278024E-03  1.55619529E-02
 -1.73700287E-02 -1.63185831E-02 -8.43796310E-02 -1.81126379E-02  5.34347500E-01
 -1.61351148E-01 -2.43307069E-02  3.64970201E-02  2.00124996E-03 -8.57065968E-03
 -7.48886069E-02  4.54814212E-02 -1.74909997E-02 -6.56409155E-02  3.49244356E-01
  4.20725491E-02 -2.46421131E-04 -1.41889609E-03  1.99872507E-01 -6.45876580E-04
  7.11882548E-02  1.69453717E-01  1.27396934E-02 -4.30891470E-05  5.19239845E-02
 -2.96657653E-04  4.80089190E-03  1.53870427E-02 -1.69397858E-02 -1.61001366E-02
  8.45329258E-02 -1.81597306E-02  5.31481923E-01  1.56981600E-01 -2.44573924E-02
  3.65992466E-02  2.01607277E-03  8.53374041E-03 -7.47010298E-02 -4.56662234E-02
  4.67761107E-03  1.69899542E-02 -6.76003182E-02 -2.95648220E-02 -8.90399406E-03
  1.35683386E-03  2.85476139E-01 -1.48868715E-01  1.82348291E-02 -3.28446336E-02
 -4.49407786E-03  5.70549484E-03 -6.39656826E-02  1.24873311E-01  2.54445136E-03
  9.46568527E-03 -3.17207637E-02  5.57501086E-02  1.12780332E-05 -6.08199450E-04
  2.29504773E-01 -1.39222130E-04 -7.27163019E-04 -2.21899320E-01 -3.47725058E-03
 -2.02439047E-04 -5.37195695E-02 -9.24450117E-05  4.37831550E-03  1.58391230E-02
 -3.89846839E-02  6.63212574E-02 -2.77251821E-04 -2.14635718E-02  2.19980125E-02
  9.11017460E-04 -8.22744002E-02  5.65429543E-02 -1.91507030E-02  3.98328531E-05
  4.23777707E-02  2.39068592E-04 -6.33608871E-02 -1.52569454E-01  3.41766660E-01
  1.35547483E-01  8.72829826E-02 -6.30894093E-02 -1.53905574E-01  3.42652003E-01
 -1.34809111E-01  8.76568209E-02 -8.69719205E-03 -3.18889358E-02  1.81375251E-01
  3.12831833E-02  3.94231739E-02 -3.04987030E-03  3.53230149E-02  7.40075995E-02
 -1.49309459E-03 -2.27916725E-02  4.88775003E-04 -1.26689959E-03 -1.77713821E-03
  4.41358315E-03 -8.69098723E-03 -3.18670396E-02  1.81275399E-01  3.13129287E-02
 -3.95670267E-02 -2.96308508E-03  3.52827135E-02 -7.42728335E-02 -1.38743095E-03
 -2.27761214E-02  5.12833840E-04  1.24148280E-03 -1.82406400E-03 -4.46109593E-03
 -1.04703473E-02  2.75011595E-01  1.18584774E-01 -8.25796506E-02  7.26001285E-03
 -2.04446827E-02 -3.73364653E-01 -1.95646127E-01 -1.88997010E-01  1.14682130E-02
 -2.03352224E-02 -3.68287641E-01 -1.96685561E-01  1.86916278E-01  1.15074556E-02
 -1.02533587E-02  2.73081301E-01  1.18022737E-01  8.36964867E-02  7.02287329E-03
  8.10857150E-03  3.08169274E-02 -1.70307128E-01  1.59452542E-01 -1.32728538E-04
 -1.87265018E-02  4.04049024E-03 -1.64041122E-03  3.95277910E-02 -2.41510081E-01
 -2.36430043E-02  1.93807048E-05  1.18571318E-01  3.50051402E-04 -1.42376815E-03
 -4.64921132E-03  1.09226794E-02  1.53681470E-02  6.59944244E-02 -1.35426407E-02
  4.78113555E-01  2.18411706E-01  1.41681138E-02 -5.71003791E-03 -1.87585959E-02
 -1.98686767E-02 -9.67632562E-02  5.06115549E-02 -5.21804109E-04 -2.99724780E-03
  3.58281940E-02  8.50705888E-02 -1.86019869E-02 -4.54794042E-02  2.49027445E-01
  1.34589438E-01 -6.45081487E-03  1.63556336E-01  6.44513573E-03 -1.54612189E-02
  1.25445624E-01 -5.15850164E-02  1.97427766E-02  6.70669903E-02 -1.81337263E-01
  5.29291430E-02 -5.16273564E-05  5.77965568E-03  8.29063649E-01  1.50187381E-03
  8.63907059E-02  2.55228706E-01  3.52442686E-02 -4.51998811E-05  3.22456747E-02
  1.14086763E-04 -5.00194139E-04 -2.92162358E-03  3.55796452E-02  8.52511314E-02
  1.87402739E-02 -4.55822515E-02  2.46535245E-01 -1.32298366E-01 -6.63598166E-03
  1.63718966E-01  6.53154001E-03  1.54392571E-02  1.25650380E-01  5.16724854E-02
 -1.44863707E-03 -4.73917958E-03  1.12834141E-02  1.53438853E-02 -6.62525081E-02
 -1.38297826E-02  4.75201009E-01 -2.20244739E-01  1.40625712E-02 -5.41304987E-03
 -1.87267884E-02  2.00155255E-02 -9.68225231E-02 -5.05661968E-02 -1.87860355E-02
 -6.89819954E-02  1.92347397E-01  1.96183475E-01  3.15653626E-05 -1.16264114E-02
  1.67845264E-01  2.44377115E-04 -1.01706427E-02 -9.56178354E-02 -9.84363623E-03
 -4.45437453E-05 -4.07118145E-02 -1.00428159E-04  1.48596559E-03  5.50381713E-03
 -1.60262560E-02  9.58858077E-02  8.90057630E-05 -4.60373656E-02  7.09589122E-01
 -7.31540364E-04 -1.16821512E-01  7.94525739E-02  2.53561277E-02 -6.54832033E-05
 -1.14147669E-01 -4.79236083E-05 -2.47900209E-02 -4.67960070E-01 -2.15965957E-01
 -1.31733110E-01  1.22069250E-01 -2.48983094E-02 -4.67138441E-01 -2.16541715E-01
  1.31177841E-01  1.22591379E-01 -1.02123161E-03 -3.85920702E-03  2.41703471E-02
 -6.01024809E-02 -1.44761558E-02 -8.99223643E-03 -3.02230616E-02  4.02884675E-02
 -2.15382298E-03 -3.85942684E-02  1.28347406E-03 -5.65771341E-03 -1.47359661E-02
  3.53647147E-02 -1.03457520E-03 -3.90739709E-03  2.44241891E-02 -5.99214117E-02
  1.45002065E-02 -9.13488971E-03 -3.00034357E-02 -4.03105678E-02 -2.14899972E-03
 -3.86032009E-02  1.35345070E-03  5.62746979E-03 -1.46506925E-02 -3.53899452E-02
  7.26268566E-02  5.04652946E-01 -9.10932127E-02 -1.15789944E-02  3.54548131E-02
 -3.64426887E-02 -1.41623069E-02 -7.32409108E-02  1.67061807E-01  2.93047999E-02
 -3.65008344E-02 -1.47853726E-02 -7.29539917E-02 -1.67013053E-01  2.95412017E-02
  7.26003711E-02  5.04698192E-01 -9.08217273E-02  1.16669246E-02  3.53928109E-02
 -9.01736062E-04 -3.45086050E-03  1.92156300E-02 -4.04934788E-02 -1.05250820E-04
 -9.74275464E-02 -4.10792832E-02  1.05358555E-03  3.32523808E-01  5.54931708E-02
 -1.83867287E-01 -6.36750990E-06 -3.31611841E-02  4.11803832E-05  9.78228658E-05
  3.81070660E-04 -5.05094429E-03 -2.87231286E-03 -1.19614001E-02 -1.50827535E-01
 -1.39561462E-01 -7.61717487E-02  8.02504778E-02 -1.74827125E-02 -9.58691855E-02
 -1.22041293E-01  2.99597131E-02  1.23181662E-03 -4.49084215E-04 -1.06565542E-03
 -6.28655158E-03 -2.61809505E-02  9.10605661E-03 -2.27642336E-01 -1.45669450E-01
  4.66007675E-02 -5.75062621E-02 -4.06996777E-02  7.02776320E-02 -8.77823296E-02
 -2.65443502E-02  6.54632935E-03 -2.17818377E-03 -6.55627391E-03 -6.55192036E-03
 -3.45400551E-02  2.27820927E-05  7.71072117E-02 -5.60392779E-02 -1.92072495E-03
  5.56908436E-01 -6.78908940E-02  1.66170093E-01 -6.38049735E-05  3.34914592E-03
  1.38266739E-04 -4.30041770E-04 -9.94815049E-04 -6.66431779E-03 -2.65163880E-02
 -9.17094588E-03 -2.27389728E-01 -1.42199217E-01 -4.73455952E-02 -5.72953428E-02
 -4.09558410E-02  7.02211850E-02  8.77070397E-02 -2.65068321E-02 -6.42525197E-03
  8.08384744E-05  3.25846713E-04 -4.96222182E-03 -2.85110071E-03  1.22448466E-02
 -1.50881813E-01 -1.35285348E-01  7.56778068E-02  8.01087044E-02 -1.74427737E-02
 -9.58798414E-02  1.21989746E-01  3.02196941E-02 -1.10063109E-03  4.11430213E-03
  1.51213016E-02 -4.20716061E-02 -5.25978970E-02 -1.35505820E-04 -1.00319459E-01
 -5.79381453E-02  1.19692676E-04 -8.17628633E-02  4.20472089E-02 -6.69386456E-02
  8.58357848E-05  2.03611628E-02  1.17692752E-06 -3.07465821E-03 -1.14325545E-02
  3.10792296E-02 -1.10553708E-02  2.25334774E-04 -2.19913985E-01 -7.92981960E-02
  8.68247508E-05 -5.34606850E-01 -4.80270629E-02  2.66011016E-02 -4.39892399E-05
  2.66545612E-02 -1.63534989E-04 -6.37814421E-03  7.84123484E-02 -2.73063059E-02
  2.74663024E-02  2.32088957E-01 -6.63110646E-03  7.84716672E-02 -2.80573268E-02
 -2.77368470E-02  2.31452113E-01  1.21566592E-03  4.48289637E-03 -2.60120870E-02
  1.03961211E-02  7.03443400E-04 -5.93853108E-02  1.83888116E-03 -1.65410865E-02
 -8.77805959E-03  1.12918109E-02  8.28245736E-03 -4.27848111E-02  2.71910235E-03
 -8.97909639E-03  1.20481440E-03  4.44434630E-03 -2.58219861E-02  1.05466415E-02
 -6.00447028E-04 -5.92919228E-02  1.95752695E-03  1.65660465E-02 -8.77799255E-03
  1.12165196E-02  8.26010721E-03  4.28173064E-02  2.71113030E-03  8.98941272E-03
 -1.29132811E-02 -1.56371205E-01 -6.47785393E-04  5.55694334E-03  2.52837139E-01
  1.43308933E-02  9.96008357E-02  1.37807472E-02 -1.36184795E-02  1.94193154E-01
  1.44359485E-02  9.89368575E-02  1.42160359E-02  1.42224975E-02  1.93948162E-01
 -1.28430600E-02 -1.53982150E-01 -6.48981225E-04 -6.99653063E-03  2.52943138E-01
 -2.22953783E-05 -7.72584047E-05  2.89171426E-04 -3.31039577E-04  8.01140264E-02
 -3.32879444E-05  6.90288745E-04  5.31380917E-01  3.80993244E-04  5.28821292E-05
 -1.15426150E-04 -6.07163458E-03 -3.28162850E-04 -4.83362714E-02 -2.71784442E-03
 -9.03383936E-03  1.24278973E-02  2.14607105E-02  5.71234135E-02  1.16060638E-01
 -3.40084731E-01  3.03469105E-01 -3.12710143E-02 -5.29965712E-02  7.72010681E-02
  6.13942466E-02  7.83755143E-03  3.90423050E-02 -1.39397487E-03 -3.99254804E-03
 -1.14593131E-02 -7.43543652E-03  1.65780206E-02  2.43474656E-01 -4.63597149E-01
  1.05344122E-01  8.15422341E-02 -5.21657015E-02 -7.84392620E-02  6.23642475E-02
  3.82642900E-02 -2.41436996E-02 -6.85860094E-06 -2.22894270E-05  3.56575839E-05
 -1.19268959E-04  8.60690717E-02  4.03237129E-05  5.60470353E-04 -1.77860540E-01
  3.13458085E-04 -7.70570131E-05  1.06217740E-04  3.20668732E-03  1.36384494E-04
 -4.92045959E-03  1.37906314E-03  3.94464726E-03  1.15471124E-02  7.01766769E-03
  1.66850354E-02 -2.43749049E-01  4.63115764E-01  1.04403996E-01 -8.15968433E-02
  5.21024833E-02  7.86181002E-02  6.23513158E-02 -3.85424606E-02 -2.42794722E-02
  2.73693807E-03  9.10774462E-03 -1.29141408E-02 -2.16481135E-02  5.71965351E-02
 -1.16159654E-01  3.39609691E-01  3.03854694E-01  3.13332126E-02  5.25599668E-02
 -7.72301174E-02  6.13958833E-02 -7.37897834E-03  3.92293866E-02  3.76845988E-05
  1.38656515E-04 -3.96246495E-04 -1.84239704E-04  5.55968000E-02 -1.03933828E-04
  1.39417918E-04 -7.84420137E-03 -2.21094644E-04 -1.77661384E-04 -8.01584636E-05
  2.01803212E-02 -3.31120665E-05  4.10474544E-02 -5.57455641E-06 -2.19349651E-05
  7.57033875E-05 -8.25067819E-05  3.45849136E-03 -1.28020348E-04  3.69025683E-04
  1.06193600E-01 -2.27563196E-04 -1.10931733E-04  8.21333085E-05  2.89476891E-02
  3.86026661E-05  2.00770736E-02 -1.75267040E-02  6.84269310E-02 -1.88672561E-02
 -2.41571388E-02 -4.21770297E-01  1.76037572E-02 -6.88845485E-02  1.87089600E-02
 -2.42056774E-02  4.22082692E-01 -8.52386190E-04 -3.08285656E-03  1.53220484E-02
  1.69139282E-02  4.66921009E-02  4.27025836E-02  2.77927529E-02  2.01384456E-02
  8.59168112E-03  3.11849898E-03 -7.52121426E-03  1.36054813E-02 -7.82771694E-03
 -9.85806193E-03  8.33531533E-04  3.01387489E-03 -1.49251894E-02 -1.66770718E-02
  4.63427515E-02 -4.26408824E-02 -2.77615274E-02  1.98039915E-02 -8.45030059E-03
 -3.05462215E-03  7.55598886E-03  1.36041579E-02  7.90964173E-03 -9.74438837E-03
  3.90691060E-02  1.70703424E-01 -6.29800795E-02  4.80536400E-03 -2.46310348E-01
  3.50520402E-02  3.72999749E-01  9.03755718E-02  1.40166392E-01 -3.47078031E-01
 -3.49372057E-02 -3.72245090E-01 -9.08550172E-02  1.40172012E-01  3.47212556E-01
 -3.90971587E-02 -1.71697608E-01  6.32487132E-02  4.83571951E-03  2.46686995E-01
 -1.99032670E-02 -7.12171753E-02  3.43269177E-01 -4.29411745E-01  9.13944848E-04
 -9.08219806E-03  7.78537801E-01  6.30906023E-03 -2.31366206E-02  8.71943976E-02
  9.10113574E-03  7.24730743E-05 -2.85511876E-01 -1.89148765E-03  8.85850841E-03
  3.06510499E-02 -1.19891727E-01  8.09656250E-03  7.62611929E-02  1.21088342E-02
 -4.19250618E-01 -4.77901930E-01  1.27107145E-02 -1.32849409E-01 -3.72799789E-04
  2.98840706E-03  1.18038187E-01  1.88953486E-02 -1.10146381E-02 -4.00961231E-02
  1.92436288E-01 -1.33642317E-01  1.02876959E-02 -7.96121233E-03 -3.40309646E-01
  2.07783955E-01 -1.49088235E-02  8.71631844E-02 -4.07056063E-03  6.37918159E-03
  1.00159684E-02  1.17785768E-02  8.09735192E-03  2.82356954E-02 -1.08271512E-01
 -4.61246100E-02  5.94377828E-04  7.83312363E-03  3.01717516E-02  4.82926544E-03
  2.79432283E-02 -4.64724286E-02 -2.44832789E-03 -1.13637322E-05  4.70845429E-02
 -1.37469555E-04 -1.10186720E-02 -4.01661733E-02  1.94244472E-01 -1.33512625E-01
 -9.26422143E-03 -6.17119743E-03 -3.34296247E-01 -1.93492214E-01 -1.43536779E-02
  9.06568098E-02 -4.72119944E-03 -6.98318740E-03  8.60754311E-03 -1.20825052E-02
  8.99290855E-03  3.10920626E-02 -1.20418297E-01  7.26124486E-03 -7.34123771E-02
  1.33334209E-02 -4.15917573E-01  4.89214193E-01  1.31855610E-02 -1.29432665E-01
  1.53749150E-04 -3.39509195E-03  1.17467155E-01 -1.80863787E-02  3.56148853E-02
  1.30668020E-01 -3.64557281E-01 -1.00030866E-01  8.45206530E-04  7.87160257E-03
  3.11869947E-01 -2.90154372E-04  6.07739126E-03 -3.38489931E-01 -5.51106913E-04
 -3.92800711E-04  3.88267067E-02  7.12585565E-04 -1.06506801E-03 -3.79530726E-03
  9.00226648E-03 -7.97102500E-02 -2.32469962E-04 -1.64077453E-02 -4.03682435E-03
  4.06879816E-04 -3.71577630E-02  1.66312261E-02  8.31394835E-03 -6.09006982E-05
 -4.50175626E-02  3.96753256E-04  2.33386536E-02  9.62347317E-02 -8.63873268E-02
 -1.12623023E-01  2.62309452E-02  2.33703609E-02  9.39092254E-02 -8.31015128E-02
  1.13412002E-01  2.39462260E-02 -9.67902840E-03 -3.56313903E-02  2.07558334E-01
  8.31582467E-02  2.48127583E-01  1.96073680E-04  4.51093819E-02  1.54220196E-01
 -1.71839098E-03  1.47527793E-03  3.61969684E-05  1.76156148E-03  1.31779186E-02
 -6.66253599E-02 -9.61647725E-03 -3.54041178E-02  2.06360609E-01  8.24026752E-02
 -2.46757114E-01  6.47539451E-04  4.39110313E-02 -1.53685199E-01 -1.54887388E-03
  1.61251608E-03 -1.03827424E-04 -1.82001393E-03  1.32568683E-02  6.63124933E-02
 -3.02117132E-02 -6.64496815E-01 -2.39551916E-01 -3.58764239E-01 -9.17109474E-03
 -1.56968682E-02  2.97237996E-01 -1.53242832E-02  1.40398280E-01 -1.13783225E-02
 -1.72624830E-02  2.78749787E-01 -1.47150533E-02 -1.37658891E-01 -1.42394181E-02
 -3.19529434E-02 -6.76307010E-01 -2.39860834E-01  3.58201663E-01 -1.07973807E-02
 -1.60376084E-04 -5.73122793E-04  2.76400055E-03 -3.51291072E-03 -1.29485972E-01
  4.91617516E-05  6.80517518E-03 -5.45834599E-01  2.35246441E-04  6.69608336E-04
 -1.08024557E-04 -6.66064945E-03 -2.35287634E-03  1.54496644E-01  8.08524075E-03
  2.65742575E-02 -3.34654366E-02 -6.11070344E-02 -1.32388479E-01  6.25408068E-02
 -7.58630200E-02 -6.21196219E-01 -5.76013703E-03  1.86582488E-01  3.15902691E-02
  3.04493122E-02 -3.64496416E-02 -4.59932219E-02 -1.14981551E-03 -7.07513003E-03
  1.09879961E-01  4.00694844E-02 -6.56792660E-02  9.66522136E-02  1.99557905E-01
 -7.94124111E-01  2.77628137E-02  2.05763631E-01 -2.96645731E-02  3.05104443E-02
 -8.11714022E-02  3.63572189E-02  6.14669150E-05  2.13730995E-04 -8.09867799E-04
 -3.63182864E-04 -7.97008191E-02  9.10657757E-05 -2.67695545E-04 -6.75099806E-01
 -1.41469533E-03 -4.25848451E-04 -2.26127367E-04 -5.08753682E-03  2.61631428E-04
  3.93333100E-02  9.69258720E-04  6.41712537E-03 -1.06690462E-01 -4.21778236E-02
 -6.57176815E-02 -9.60175152E-02 -2.05087113E-01 -7.97066672E-01 -2.68592613E-02
 -2.04240554E-01  2.96424704E-02  3.05051295E-02  8.13041532E-02  3.61114637E-02
 -7.94748172E-03 -2.60997139E-02  3.16605890E-02  6.11003233E-02 -1.33571662E-01
 -6.28944025E-02  6.86468269E-02 -6.13077191E-01  4.40461884E-03 -1.88651626E-01
 -3.16220929E-02  3.06682279E-02  3.83455885E-02 -4.61646804E-02  3.01245473E-04
  1.10581959E-03 -3.09787063E-03 -5.82181028E-04 -1.16726599E-01  6.55327192E-05
  2.67380823E-03  2.93390020E-02 -1.74860774E-05 -2.90917382E-03  1.12093934E-04
  9.22217859E-03  2.76368434E-04 -8.91062548E-02 -1.59153517E-06 -4.99433617E-06
  1.15608036E-05 -6.56965829E-04  5.13996406E-02  4.79696320E-04 -1.64541492E-04
 -1.13445351E-01  1.36265782E-03  1.59454960E-04 -9.81161869E-05 -4.64438678E-03
 -3.67068234E-04 -6.53739886E-02  1.88468772E-02 -1.77717690E-01  2.60948387E-01
 -7.57966661E-02 -1.04917260E-01 -1.83077757E-02  1.79567901E-01 -2.62437691E-01
 -7.34497152E-02  1.02748412E-01  3.21630907E-03  1.16487742E-02 -6.04753863E-02
 -4.85179740E-02 -7.98618019E-02  1.93814952E-02 -7.72193484E-02 -2.61738309E-02
  3.21227884E-03  3.58178492E-03 -3.46694056E-03  6.51928603E-03  1.30213006E-02
  2.48280244E-02 -3.39784907E-03 -1.23159324E-02  6.43315916E-02  5.00824042E-02
 -8.39813663E-02 -1.94017504E-02  7.80868751E-02 -2.87625092E-02 -3.10885537E-03
 -3.55190365E-03  3.50448607E-03  6.57226399E-03 -1.27340681E-02  2.59292979E-02
 -9.41938408E-02 -7.69465633E-01  5.04683436E-02 -6.56930981E-02 -1.18048044E-01
 -9.52755172E-02 -9.68048815E-01 -4.12862175E-02 -1.15532120E-01 -1.48244901E-01
  9.48808413E-02  9.72142163E-01  4.13313229E-02 -1.17917160E-01  1.47943848E-01
  9.35886925E-02  7.58178387E-01 -5.45923861E-02 -6.00082218E-02  1.18178768E-01
  2.35285462E-05  8.23330104E-05 -3.27666159E-04  3.14022860E-04 -2.56013654E-01
  1.34131731E-04 -6.58271751E-04  3.44255208E-01  1.04168174E-04 -1.02954026E-04
 -8.01411908E-05 -5.05059588E-03  2.81149235E-04  9.83355308E-02  6.12894244E-03
  2.41671025E-02 -1.52011941E-01  1.51819861E-02 -4.17561381E-02  2.80134438E-02
  1.77534461E-01  6.18209624E-01  4.57735826E-03 -2.55375932E-01  9.54466156E-03
  1.23215547E-02  3.42171750E-02 -1.12498998E-01 -4.81473774E-03 -1.56813066E-02
  1.59808351E-02 -3.80385730E-02  3.25681119E-02  2.70324576E-02  1.27005806E-01
  4.86912090E-01  4.11646766E-04 -2.30509732E-01 -6.56178895E-03  1.25558966E-02
 -2.34255809E-02  1.07641866E-01 -2.33475720E-05 -8.14674674E-05  3.14293421E-04
  1.07508539E-04 -1.92361847E-01 -2.00136177E-04 -1.84379391E-03  3.73413024E-01
 -7.30822355E-04  7.42511771E-06 -1.32577385E-04 -5.19103746E-03 -1.05652685E-04
  1.10626498E-01  4.83754727E-03  1.57601459E-02 -1.63310607E-02  3.83529970E-02
  3.25881008E-02 -2.64444162E-02 -1.25813415E-01  4.89180873E-01  8.23373728E-05
  2.30198063E-01  6.68581358E-03  1.25613055E-02  2.34371241E-02  1.07661900E-01
 -6.15748964E-03 -2.42723844E-02  1.52569764E-01 -1.53592722E-02 -4.16160565E-02
 -2.83895376E-02 -1.76369691E-01  6.17528534E-01 -4.72362364E-03  2.55906604E-01
 -9.32779510E-03  1.20863176E-02 -3.44755038E-02 -1.12325562E-01 -3.26693905E-05
 -1.20870728E-04  3.49921282E-04  2.31814618E-04 -1.67226584E-01 -1.35302190E-06
 -2.57834384E-04 -1.76965937E-01  2.23478060E-04  1.56570069E-04  2.93882380E-05
  3.24109649E-03  2.96546442E-05 -1.56562993E-01  8.81799796E-07  3.33042940E-06
 -4.08019913E-06  9.42307214E-05  3.33013745E-02  3.97179734E-04 -1.28823382E-03
 -3.29148203E-01  6.28700357E-04 -9.34726331E-05 -1.47117978E-04 -4.33127062E-02
  2.41482250E-04 -2.72529795E-02  4.07487123E-02 -2.22145793E-01  2.55396310E-01
 -1.53042884E-01 -2.33356994E-02 -4.07680458E-02  2.23748107E-01 -2.55024675E-01
 -1.53819250E-01  2.19364054E-02  2.55044721E-03  9.34095650E-03 -5.30316914E-02
 -6.03395366E-02 -9.78612905E-02  6.92854043E-03 -7.03647247E-02 -7.29984735E-02
  6.91742207E-04 -3.35729892E-02 -1.23986754E-03  2.46558631E-03  1.07391322E-02
  1.77407240E-02 -2.54427735E-03 -9.31773857E-03  5.28811891E-02  6.02798185E-02
 -9.74018789E-02 -6.84219432E-03  7.04980775E-02 -7.25090574E-02 -7.84339230E-04
  3.35096636E-02  1.12938276E-03  2.53921693E-03 -1.08209594E-02  1.76121854E-02
  1.71294474E-02  6.13309689E-01  2.70091195E-01 -1.12463491E-01 -4.88089081E-02
  1.15330968E-02  3.57943354E-01 -2.62628298E-01 -1.64186126E-01 -4.67325137E-02
 -1.15942673E-02 -3.60152841E-01  2.62922906E-01 -1.63249929E-01  4.69103566E-02
 -1.72512820E-02 -6.12559214E-01 -2.69602426E-01 -1.12976913E-01  4.93743451E-02
 -3.17387355E-03 -1.15378162E-02  6.15380221E-02  1.23125927E-02  4.90568553E-04
  1.04838134E-01  2.92834519E-01 -1.65838856E-03  3.69461978E-01 -3.56814654E-03
 -1.48911079E-01  2.89031966E-05  4.11184693E-02 -3.01502963E-04 -6.89777791E-05
 -5.79638784E-04  1.29040734E-02  2.60230164E-02 -9.64572721E-03 -1.72125433E-01
 -4.07021073E-02 -4.60800474E-02 -2.52456704E-01  5.21973382E-02  3.44277355E-03
 -5.30384725E-02 -3.68317060E-02 -3.25144738E-02  7.13801065E-04  2.29362791E-03
 -6.94841416E-03  5.82819714E-02 -1.89628591E-03  1.52166457E-01  1.50952321E-01
 -2.21469848E-01  2.38447955E-01  2.55016065E-02  4.90890532E-02 -5.61094542E-02
  3.83116587E-02  1.73038492E-02 -2.15440069E-03 -7.61017170E-03  3.39681290E-02
  7.34071432E-02  2.21586814E-04  2.72613273E-02 -5.25048333E-01  3.24139843E-03
 -7.07580287E-01  1.08822038E-03 -1.02871372E-01  4.19558800E-05 -9.83606883E-02
 -9.89331564E-05  6.98415279E-04  2.23147168E-03 -6.53017735E-03  5.84387177E-02
  2.08080548E-03  1.52394661E-01  1.48466218E-01  2.25774261E-01  2.38396417E-01
  2.58824327E-02  4.89451402E-02  5.59980716E-02  3.81061690E-02 -1.76681433E-02
 -3.16713948E-05 -4.48762144E-04  1.24806328E-02  2.57968183E-02  1.02840588E-02
 -1.71927016E-01 -4.42294425E-02  4.45435816E-02 -2.52403841E-01  5.23209882E-02
  3.55904570E-03  5.29333657E-02 -3.68544677E-02  3.29966171E-02  1.58564502E-03
  5.72560594E-03 -1.57190041E-02  7.10787869E-02  3.26594045E-04 -1.11753979E-01
  1.23463355E-01  3.16953005E-04 -8.17790226E-02 -1.14426220E-01  8.53138613E-03
 -1.02849840E-04 -5.34927190E-02  2.50886666E-04  5.64734007E-03  2.10293156E-02
 -5.60104256E-02  2.25408806E-02 -2.62923953E-04  2.88924384E-01 -1.94230473E-01
 -1.68028197E-04  8.65395487E-01  1.63076159E-02 -1.00019778E-01  2.05567273E-05
  3.96722184E-02  1.29244660E-04  3.94580831E-02  1.91052364E-01 -7.21395950E-03
 -4.54436761E-02 -6.74181228E-01  3.96046891E-02  1.90374942E-01 -5.78169440E-03
  4.65176527E-02 -6.74847677E-01 -5.13432682E-03 -1.88457368E-02  1.08755096E-01
  1.70811163E-02  3.49396383E-02 -1.81340362E-02  1.31973163E-02  5.62133788E-02
  2.17892011E-02 -1.11387253E-02  2.95959479E-03 -3.14109008E-02  5.67151513E-03
  4.57559790E-03 -5.12574358E-03 -1.88139749E-02  1.08575675E-01  1.69723158E-02
 -3.43553824E-02 -1.79699574E-02  1.29143624E-02 -5.60684864E-02  2.19004517E-02
 -1.12491746E-02  2.95044785E-03  3.13939809E-02  5.72600849E-03 -4.74925587E-03
 -2.49037086E-03 -4.49659715E-02  7.24306356E-02 -7.56277011E-02  2.32960879E-01
 -3.72879853E-02 -2.97543906E-01  2.70114035E-02 -1.20206358E-02  9.35135023E-02
 -3.76307416E-02 -3.00771866E-01  2.66412017E-02  1.24464543E-02  9.32384171E-02
 -2.77774253E-03 -4.59246714E-02  7.36268485E-02  7.60434628E-02  2.32714822E-01
  1.29378178E-02  4.65854220E-02 -2.12133698E-01 -7.65937433E-02  4.84563200E-05
  5.81015507E-02 -6.22945842E-01  3.10671542E-03  1.02647717E-01 -8.69352217E-02
 -4.55111863E-02  5.84106798E-05 -1.12304491E-01 -8.39906246E-04 -7.65928450E-05
 -2.84543703E-04  2.88922230E-03 -7.96201066E-02  9.42617166E-02 -4.17898847E-02
  4.81742005E-01  2.51266390E-01 -1.21984937E-01 -6.12693922E-02  7.08846301E-03
 -1.35818824E-02  1.11649099E-01  1.06091710E-01 -3.04341396E-03 -1.19405506E-02
  7.76982547E-02 -1.55234432E-01 -1.51940514E-03  8.74711487E-02 -9.70384350E-02
  4.49579829E-01  7.93058163E-02  4.23251637E-02  1.16299417E-02 -2.22411888E-02
 -7.37236040E-02 -1.12873030E-01  5.48602699E-03  1.63272934E-02  9.09859935E-03
  7.40874009E-03  9.90474679E-05  2.10273879E-02  1.45398285E+00 -2.33281701E-03
 -3.58681944E-01  1.00214224E-01 -6.96301753E-02 -5.16881383E-06  2.16067233E-01
 -2.70821259E-04 -3.07656628E-03 -1.20646621E-02  7.83470775E-02 -1.55858068E-01
  1.25154126E-03  8.78851172E-02 -9.27433618E-02 -4.51602963E-01  7.97424295E-02
  4.22995868E-02  1.15937265E-02  2.23069456E-02 -7.41001865E-02  1.12950954E-01
 -2.75347669E-05 -1.09013713E-04  2.21594397E-03 -7.96513108E-02 -9.33525677E-02
 -4.24655072E-02  4.87318554E-01 -2.47827832E-01 -1.22813831E-01 -6.15764634E-02
  6.87344575E-03  1.36169945E-02  1.11986213E-01 -1.06018918E-01 -6.52078804E-03
 -2.37791371E-02  6.72549179E-02 -1.05096723E-01  3.29914290E-04 -3.61309343E-02
 -1.48796903E-01 -1.73395865E-04 -2.27518155E-02  1.57724553E-01  1.67130652E-02
  3.46467240E-04  1.08947136E-01  5.04253115E-04 -7.41414721E-03 -2.75069095E-02
  7.13060230E-02 -5.33060958E-02  5.27106500E-05  1.41712888E-01  4.62428988E-01
 -2.71921529E-04  3.81723975E-01  1.64989518E-01 -7.22862843E-02 -1.01389816E-04
 -4.96146408E-02  4.54647017E-05 -1.11482865E-01 -6.92471775E-01  3.68081870E-01
  1.57122394E-02 -1.56271058E-01 -1.11425110E-01 -6.92100590E-01  3.68083500E-01
 -1.60727568E-02 -1.56908194E-01  1.05250182E-02  3.85979304E-02 -2.22838481E-01
 -6.85420430E-02 -3.93964664E-02 -2.17503279E-03 -3.49626060E-02 -8.52717844E-02
  1.09340818E-02  1.72884565E-03  1.19285312E-03 -9.47060105E-03 -2.00395036E-02
 -9.29880888E-03  1.05679421E-02  3.87542034E-02 -2.23699240E-01 -6.92847574E-02
  3.95394882E-02 -2.58466571E-03 -3.57077587E-02  8.57356026E-02  1.06820641E-02
  1.72441528E-03  1.23114189E-03  9.55412633E-03 -2.00025807E-02  9.27158109E-03
  2.30197957E-02  4.86259367E-01 -3.25679217E-01  2.08421786E-01  9.19487626E-02
  8.45559642E-02  5.50115250E-01 -4.32795529E-03 -1.39411136E-02  2.84169640E-02
  8.45871416E-02  5.48938681E-01 -3.99312421E-03  1.50716916E-02  2.82101153E-02
  2.27992162E-02  4.85432368E-01 -3.27378596E-01 -2.09611478E-01  9.24348825E-02
  5.00646154E-05  1.78268006E-04 -6.62833872E-04  3.27253729E-04  4.78209214E-02
 -5.37463580E-05  1.28402416E-03 -2.40996645E-01 -4.73509582E-04 -7.97822235E-05
  1.37107491E-04 -8.27784563E-02  4.62884808E-04 -1.10751758E-01 -3.29653493E-03
 -1.15895212E-02  3.82816680E-02 -2.22089175E-02  4.50632762E-02  2.88343064E-01
  2.53302301E-01 -6.33536275E-02  1.54925445E-01  2.11126037E-02 -5.44649105E-03
  1.06178577E-01  1.27137930E-03  8.44465216E-03  1.94443793E-03  7.36190847E-03
 -4.09016435E-02  2.83760572E-02  1.75445558E-02 -4.13429865E-02  3.56154399E-01
  2.37299580E-01 -1.51356283E-01 -2.00689597E-05  3.56662980E-02  9.53118489E-02
  7.24777173E-03 -1.19286490E-02  9.41098592E-06  3.84991294E-05 -2.65881241E-04
  5.73226731E-04 -2.59160535E-03 -6.45747044E-07 -3.66474412E-03  4.70496938E-01
  9.85544614E-04 -2.71111792E-04  9.42645544E-05 -1.08808006E-01 -4.88762397E-04
  5.93814660E-03 -1.92472118E-03 -7.29153434E-03  4.05621179E-02 -2.74873032E-02
  1.70923013E-02  4.09884282E-02 -3.54364563E-01  2.40943968E-01  1.50496485E-01
  1.51027617E-04 -3.58969606E-02  9.51320852E-02 -6.67787007E-03 -1.13579836E-02
  3.26416771E-03  1.14726499E-02 -3.77397554E-02  2.23713658E-02  4.50647137E-02
 -2.87971182E-01 -2.53859477E-01 -6.27914324E-02 -1.54322469E-01 -1.99449606E-02
  5.40154867E-03  1.05993389E-01 -1.28233214E-03  8.11555808E-03  2.49349884E-05
  9.15543768E-05 -2.64160307E-04  1.18066193E-03  9.99786027E-02  5.39076793E-06
  5.98199518E-04  3.19874922E-02 -8.20986586E-05 -4.59445552E-04 -3.18411955E-05
  1.92737163E-02 -8.17527604E-04  8.61879506E-02 -3.64165237E-06 -1.25259498E-05
  3.28844597E-05  1.87636153E-04 -1.78580502E-03 -2.55492610E-04 -2.14085976E-03
 -4.72589651E-02 -9.84556215E-04 -2.72346459E-04 -7.44193749E-07 -4.42690164E-02
  2.39800201E-04 -1.47227935E-02  2.84795101E-02  6.52322740E-02 -1.01008105E-01
  8.62743309E-02  6.28631572E-01 -2.86010872E-02 -6.25393485E-02  1.01557579E-01
  8.44271700E-02 -6.27602378E-01 -3.98710659E-03 -1.45139773E-02  8.04015538E-02
  5.46022730E-02  2.95794062E-02  4.39849568E-02  7.00823850E-02  2.33263998E-02
 -7.20450285E-03  3.89327706E-03 -8.05254150E-03  2.20325104E-02 -4.95992389E-06
 -1.64150732E-02  3.91220369E-03  1.42407563E-02 -7.88767830E-02 -5.44108234E-02
  2.85645297E-02 -4.38325324E-02 -7.02692427E-02  2.20802175E-02  7.26413294E-03
 -3.84947192E-03  8.08608192E-03  2.19302701E-02  5.57907039E-04 -1.62903227E-02
  5.54479580E-03  1.23281838E-01  4.89279188E-02  3.83683317E-02 -4.40289008E-01
  1.18077991E-02  1.01211856E-01 -9.62677478E-02 -3.34981994E-02 -4.92584535E-02
 -1.18277538E-02 -1.04516019E-01  9.75995497E-02 -3.29208379E-02  4.95119322E-02
 -5.38848772E-03 -1.23099561E-01 -4.76244507E-02  3.78010037E-02  4.39877379E-01
 -2.84850365E-02 -1.02107711E-01  4.02122839E-01 -1.67367891E-02 -4.32860380E-05
  9.15555849E-02 -5.11970523E-01 -5.98373343E-04 -1.13051672E-01  4.96797191E-02
  2.55355324E-02 -1.26565050E-04 -1.69595502E-01 -1.58674811E-04  4.62146027E-03
  1.69824046E-02 -8.39791640E-02  6.06654459E-02 -8.68257136E-02  5.73315351E-02
  2.71313251E-01  2.87306788E-01 -7.98649361E-02 -2.49513353E-01  1.34960437E-03
 -1.68112620E-03 -4.66590779E-02 -1.45488701E-01 -5.43388249E-04 -2.34191128E-03
  2.60723783E-02 -1.16410146E-01 -8.48218275E-02  5.29661221E-02  2.82596262E-03
  4.35444189E-01 -4.77921848E-02 -8.76352218E-02 -7.66338274E-04 -8.48255116E-03
 -3.49340018E-02  1.67929260E-01 -1.00616362E-02 -3.86792408E-02  2.31050489E-01
 -1.98696910E-01 -2.33679958E-04  6.73662349E-02  1.22799615E+00  7.64306000E-04
 -2.09138959E-01  1.62197344E-01 -2.39584174E-02 -3.40148255E-04  6.48974694E-02
 -2.69669371E-04 -5.73758464E-04 -2.45387741E-03  2.66045750E-02 -1.16496862E-01
  8.45390715E-02  5.32872569E-02  1.49592095E-03 -4.34321808E-01 -4.68528321E-02
 -8.71407098E-02 -1.19808268E-03  8.93683212E-03 -3.53652106E-02 -1.67587154E-01
  4.65187186E-03  1.70902281E-02 -8.43661274E-02  6.04237604E-02  8.67271705E-02
  5.59792541E-02  2.69798398E-01 -2.88057806E-01 -8.09470504E-02 -2.49520181E-01
  1.26458613E-03  2.40335732E-03 -4.64262054E-02  1.45454051E-01 -8.44834969E-04
 -2.85520426E-03  1.73844797E-03 -3.93254246E-01 -6.15060213E-04  6.32205505E-03
 -2.61257658E-01 -4.33254748E-04  1.21114409E-02  1.71523094E-01  5.45900004E-02
  2.99906880E-04  1.99815272E-01 -4.65603722E-05  6.67113673E-03  2.45081567E-02
 -6.92657260E-02  5.50619422E-02  1.33705201E-05  3.54955254E-02  9.02530358E-01
 -9.70466905E-04  1.79165363E-01  1.34689894E-01 -3.10504056E-02 -1.83964104E-04
 -7.20929406E-02  3.46690677E-05  8.08137274E-03 -5.25525298E-01 -1.73923334E-01
 -4.19935411E-01 -2.14756750E-02  8.14617884E-03 -5.23937932E-01 -1.73485201E-01
  4.19433892E-01 -2.44045483E-02  8.40973204E-03  3.06230346E-02 -1.70753096E-01
  1.64613922E-02 -1.57894621E-01  1.60971225E-02  5.53360531E-02 -2.01015379E-01
  1.27113811E-02  1.66839231E-02  1.64525044E-03  4.97595063E-03 -5.78142682E-02
  5.01649399E-03  8.39720448E-03  3.05778893E-02 -1.70515108E-01  1.64357515E-02
  1.57571781E-01  1.57460672E-02  5.55357435E-02  2.00912544E-01  1.25737382E-02
  1.67906206E-02  1.67867767E-03 -4.89917325E-03 -5.77492761E-02 -4.95797372E-03
 -3.30769922E-02  1.94330065E-01  6.97406169E-03 -6.55844364E-02  5.50544098E-02
 -4.86594027E-02  1.83552997E-01 -1.83103702E-01  3.75729860E-02  8.42211426E-02
 -4.85911573E-02  1.83137172E-01 -1.82965921E-01 -3.76115857E-02  8.41361374E-02
 -3.29578338E-02  1.94461145E-01  7.12293274E-03  6.54308170E-02  5.69853446E-02
 -2.84415959E-05 -1.02758705E-04  3.56242100E-04  8.63514523E-04  1.31925105E-01
 -4.94817004E-04 -1.15276712E-03  1.07409718E+00  1.70294462E-03 -4.32497181E-05
 -3.34244793E-04  1.66387673E-02  4.77574306E-04 -4.32169114E-01 -1.12919450E-02
 -3.92667889E-02  1.11447160E-01 -1.28838249E-01  1.71546239E-01 -5.85065187E-02
 -8.97497051E-01  7.13890477E-01 -3.39054678E-02  8.85526174E-02  3.72510891E-03
 -1.95017728E-02 -3.03086245E-02  1.18450190E-02  3.34260727E-03  1.30095281E-02
 -8.26100650E-02  1.70967836E-01  3.30277747E-02  1.72136290E-02 -4.17134686E-01
 -2.04292299E-01  3.35125993E-02 -2.30790039E-02 -6.83113280E-03 -1.65270117E-02
  2.53370875E-02 -1.08233972E-02 -3.09391222E-05 -1.10650870E-04  4.98181243E-04
 -5.49386595E-05 -1.44420375E-02 -5.46395687E-04 -5.66483254E-04 -4.79938085E-01
 -2.80413447E-04  3.92630122E-04 -1.00845031E-04  1.85369107E-02 -2.46712476E-04
  1.18809473E-01 -3.30841288E-03 -1.28874956E-02  8.20496842E-02 -1.70562304E-01
  3.33985649E-02 -1.69008882E-02  4.19758705E-01 -2.02683811E-01 -3.19981147E-02
  2.24247855E-02  6.78846575E-03 -1.67141458E-02 -2.53187389E-02 -1.13482071E-02
  1.12974088E-02  3.92923331E-02 -1.11641937E-01  1.29527854E-01  1.71910536E-01
  5.76013814E-02  8.99827667E-01  7.10915967E-01  3.42062991E-02 -8.88473119E-02
 -3.77525963E-03 -1.95476404E-02  2.95966094E-02  1.26938983E-02 -1.39514608E-05
 -5.13103380E-05  1.38819496E-04 -1.71542160E-04  4.30413270E-01 -5.56877783E-04
 -7.16517870E-04 -1.25108882E-02 -2.41387612E-04  3.50527800E-04 -5.48239609E-04
 -3.94604765E-03 -4.90537431E-04  3.46789452E-01  2.60826792E-05  9.62198875E-05
 -2.59713808E-04  3.48823508E-04  2.14232513E-02  1.97830917E-04  6.69510110E-04
 -7.57840742E-03  2.05537466E-04 -9.91578567E-06  2.81064577E-04 -2.03920864E-02
  6.40536383E-05 -2.25556234E-02  5.88083631E-02  1.67557508E-01  2.25750982E-01
  9.51394064E-02 -1.57101808E-01 -5.85961878E-02 -1.67490246E-01 -2.26857387E-01
  9.58027981E-02  1.57103988E-01 -1.76367149E-02 -6.41207902E-02  3.52464193E-01
  2.38642600E-01  1.06024563E-01 -9.02432223E-03  3.07578634E-01  9.56848289E-02
  1.70687071E-03  1.69077853E-02  1.71061178E-03 -4.79656046E-03  5.96142767E-04
 -6.46035741E-02  1.76402012E-02  6.41342262E-02 -3.52568703E-01 -2.38789327E-01
  1.06174313E-01  8.50545349E-03 -3.07476515E-01  9.60142048E-02 -1.97957026E-03
 -1.68212055E-02 -1.69133493E-03 -4.59485006E-03 -3.81171388E-04 -6.45501243E-02
  4.84745727E-03  3.03757183E-01  4.15577678E-01 -8.49204683E-03  9.11136816E-02
  2.97640713E-02  2.31749092E-01 -2.73261310E-01  4.26209226E-04 -8.26943788E-03
 -3.01512816E-02 -2.35149849E-01  2.72769672E-01  1.06803475E-03  6.49086480E-03
 -4.83601494E-03 -3.00670621E-01 -4.13883778E-01 -8.94981602E-03 -9.16086190E-02
 -5.72502606E-03 -2.03429128E-02  7.26354849E-02 -1.89673823E-02 -3.44835774E-04
 -3.84168266E-01 -1.34694934E-01  2.37483991E-04  8.60389501E-01 -3.45678499E-02
 -2.37306483E-01 -3.36431968E-05 -5.66019266E-02  5.87784215E-04  7.61144883E-04
  2.81182179E-03 -1.09906750E-02 -9.80639576E-03 -1.10814467E-02 -3.42816935E-01
  1.17908141E-01  1.15700196E-01  6.46574585E-02 -5.01254767E-02  1.47426067E-02
 -6.54324853E-03 -6.94884949E-03 -3.01197941E-02 -7.51008767E-04 -3.04132741E-03
  1.95173388E-02 -3.51841747E-02 -2.17807870E-02 -7.48929670E-03  7.34085738E-02
 -6.96939610E-02  5.06948181E-01  3.83370496E-04 -1.33815513E-03  3.68997444E-02
 -6.89713763E-03  2.94501698E-02 -1.41578927E-03 -5.79090402E-03  4.51820805E-02
 -3.71606664E-02  1.88357016E-04 -2.68028198E-01  1.12183142E-02 -4.78252010E-04
 -8.25565558E-02  5.91642741E-02 -8.64139142E-02 -2.37280850E-05  2.10659783E-02
 -4.19277404E-04 -7.48769824E-04 -3.03157566E-03  1.94505019E-02 -3.47275111E-02
  2.14437712E-02 -7.18618722E-03  7.37191660E-02  6.65812727E-02  5.07329173E-01
 -2.04590978E-04 -1.52714548E-03 -3.66903428E-02 -6.92886600E-03 -2.93839913E-02
  7.24250731E-04  2.68252050E-03 -1.06209407E-02 -1.03864558E-02  1.10689417E-02
 -3.43539824E-01  1.16837209E-01 -1.12453777E-01  6.43353880E-02 -4.95475450E-02
  1.46214616E-02  6.73075704E-03 -6.94276105E-03  2.99078119E-02 -4.49784490E-03
 -1.65297829E-02  4.67667360E-02 -1.32137909E-01 -8.90047079E-04 -1.11273951E-01
 -5.98171635E-02 -1.32667662E-04 -9.61982931E-02  3.57423196E-02 -2.61040635E-01
  1.36434288E-04  6.73160967E-02 -5.28776270E-04  1.85982736E-03  6.97336467E-03
 -2.02838471E-02 -5.38249925E-03 -4.15693545E-05  1.09174737E-01  4.75186718E-02
 -3.01501818E-04  1.78191095E-01  3.19395763E-02  1.46515129E-01 -3.76211799E-05
 -1.47400682E-02 -4.99905664E-05  1.34439730E-02 -1.86290005E-02 -2.63161048E-02
 -5.08331610E-02 -1.24088721E-01  1.37925966E-02 -1.67809282E-02 -2.51638242E-02
  4.98984415E-02 -1.25668540E-01  3.34478461E-03  1.21975456E-02 -6.77952950E-02
 -1.43250387E-02 -6.52619596E-02 -9.60109460E-02  1.46251877E-02 -6.46021921E-02
 -4.40808711E-02 -8.62387346E-03 -7.70022732E-03 -4.82043030E-02 -3.05676968E-02
  1.41200738E-02  3.29273144E-03  1.20081828E-02 -6.67483798E-02 -1.36826450E-02
  6.47228821E-02 -9.63236508E-02  1.53498651E-02  6.40700577E-02 -4.42665042E-02
 -8.63538346E-03 -7.65358157E-03  4.82590786E-02 -3.05860635E-02 -1.39984841E-02
 -8.75666885E-03  8.20208162E-02 -4.23764969E-02  1.40317095E-04 -9.35799562E-02
 -1.16689974E-02 -9.58911460E-02 -2.30463863E-02 -8.19743837E-03 -5.01924515E-01
 -1.14104692E-02 -9.34998637E-02 -2.41145915E-02  9.00334433E-03 -5.02124604E-01
 -8.89287283E-03  7.89884247E-02 -4.23427479E-02 -6.54707782E-04 -9.27726469E-02
  2.41843969E-05  8.68841568E-05 -3.71998985E-04  4.41043283E-04 -1.39832770E-01
  1.60428902E-04  9.27806475E-04  3.81994041E-01 -3.12682819E-04 -2.90364285E-04
 -4.84270313E-06 -5.34869359E-04  3.97368741E-04 -1.74593513E-01 -1.20697640E-02
 -4.48265936E-02  2.22109267E-01  1.56769627E-01  3.18849875E-02  1.08447936E-02
 -7.05834731E-01  1.95323729E-01  4.76654460E-03 -6.76575383E-03  8.16030238E-04
  1.43872429E-03 -1.63635673E-01 -4.94838471E-02  1.70337584E-02  6.15694181E-02
 -2.53167052E-01  5.47788730E-02 -2.27734274E-01 -3.81309100E-03 -7.49456547E-01
 -4.67440689E-01 -1.36202210E-03 -9.72459691E-02 -3.49418915E-03  6.97571916E-04
  1.58810763E-01  1.39952519E-01 -6.57929914E-06 -1.82154727E-05 -2.77858689E-05
  1.24665504E-04 -2.12716008E-01  1.62735454E-04 -3.76884355E-03 -6.48617103E-01
  3.36112765E-04 -7.65465975E-05  1.07075858E-05  5.92622707E-03 -7.09055897E-04
 -3.58816419E-01 -1.70125699E-02 -6.14915768E-02  2.52770494E-01 -5.41853531E-02
 -2.27831747E-01  4.21549307E-03  7.49724090E-01 -4.64780867E-01  4.97685971E-04
  9.72801489E-02  3.67159230E-03  6.18446015E-04 -1.58446131E-01  1.40028077E-01
  1.20355291E-02  4.47012164E-02 -2.21510805E-01 -1.56763134E-01  3.20242410E-02
 -1.03477545E-02  7.04608356E-01  1.95878117E-01 -5.50234129E-03  7.49285113E-03
 -9.04503568E-04  1.21693264E-03  1.63272603E-01 -4.94719748E-02 -2.72382725E-05
 -1.01557871E-04  3.14466511E-04  4.66332725E-04  8.52760560E-03 -7.09279213E-05
  2.94455016E-04 -5.59091466E-02  6.65889685E-05 -2.64138588E-04  1.50076868E-04
  2.53886895E-03 -4.17472585E-04  4.81907718E-02  1.07941917E-05  4.02469512E-05
 -1.01469814E-04  1.38717986E-04  7.79107828E-02 -3.65171228E-04 -1.80772506E-03
 -5.70969679E-01 -1.28102826E-03 -3.59591531E-04 -3.80492843E-05 -7.57232152E-03
  1.94305467E-04  2.89666147E-02 -1.34836160E-01 -1.13592580E+00  1.54505811E-01
 -5.93178695E-01  8.03186557E-02  1.35148939E-01  1.13927923E+00 -1.55679949E-01
 -5.93953803E-01 -8.00460963E-02 -4.06278091E-03 -1.50027807E-02  8.81780959E-02
  7.01921865E-02 -2.00998917E-02  3.20785462E-03  5.06900868E-02 -1.85090451E-02
  3.10190010E-04 -5.35792451E-03 -7.55974344E-04  1.43848667E-03 -1.34435406E-02
  8.84694979E-03  4.03565223E-03  1.49032599E-02 -8.75953228E-02 -7.02587438E-02
 -2.02337467E-02 -3.19178984E-03 -5.07128682E-02 -1.88143926E-02 -2.58386108E-04
  5.20498427E-03  7.94598992E-04  1.50280437E-03  1.34185331E-02  8.67075302E-03
 -4.18369785E-02 -4.07315653E-01  1.66145724E-01 -3.67905900E-01 -2.05503263E-02
 -6.28510819E-02 -8.06217749E-02  1.82226408E-01  2.77743478E-01  9.47654247E-03
  6.26907166E-02  7.80714957E-02 -1.81656059E-01  2.77976338E-01 -9.10150088E-03
  4.16839969E-02  4.05845617E-01 -1.65817238E-01 -3.67908478E-01  2.06719049E-02
  2.14012072E-03  7.51988865E-03 -2.11613707E-02  1.82971236E-01 -2.85852856E-04
 -3.33048684E-02 -1.45866674E-01  2.12236578E-03  1.95230230E-01  2.66272520E-01
 -8.78905138E-02 -1.36565710E-04  1.48625385E-01  3.22896702E-04  7.29440925E-03
  2.78705905E-02 -1.77834519E-01  9.36587350E-02 -4.15776018E-02 -5.13921658E-02
 -7.60296607E-02  8.50891694E-03 -1.25281731E-01 -7.34233446E-02  3.69746450E-03
 -1.42939940E-04 -2.47352715E-02  3.87314254E-02  5.80987212E-03  2.29937529E-02
 -1.35344622E-01  4.40862910E-03 -3.86671583E-02  1.14393358E-01 -2.36436795E-01
  1.04682752E+00  1.02099053E-01 -4.79302627E-02 -1.14114175E-04  1.33258031E-02
 -6.11903547E-02  2.95123305E-02  2.50357475E-03  8.14862294E-03 -4.16799938E-02
 -1.29174570E-01 -9.80589974E-05  1.80872033E-02  1.98098237E+00 -3.22540692E-03
 -2.87497480E-01  1.16900788E-02 -9.28876450E-02  1.02148117E-04  2.03705642E-01
 -2.79728351E-04  5.81902439E-03  2.30274040E-02 -1.35527652E-01  4.83503674E-03
  3.84101447E-02  1.14810472E-01 -2.31064126E-01 -1.04746109E+00  1.02280729E-01
 -4.76126967E-02 -2.73092416E-04 -1.34197007E-02 -6.11461421E-02 -2.92625661E-02
  7.26806185E-03  2.77791325E-02 -1.77555491E-01  9.33135098E-02  4.12275369E-02
 -5.13892689E-02 -7.11198368E-02 -8.59486752E-03 -1.26092655E-01 -7.30533031E-02
  3.48490865E-03 -7.48825044E-05 -2.49610091E-02 -3.88792366E-02  3.10715961E-02
  1.14973239E-01 -3.42320706E-01  4.30474749E-01  3.55572678E-06 -4.60348407E-02
 -6.09667399E-02 -2.82595056E-04 -2.07473811E-02  8.04052848E-02 -2.54521558E-02
 -6.20643240E-05 -1.79144171E-01 -4.27622401E-04 -1.66112384E-03 -6.19318583E-03
  1.01905507E-02 -3.46918433E-02 -8.44813507E-06  4.06084852E-02  1.00531111E+00
 -2.95553480E-04  1.66734984E-01  1.24559626E-01  3.96482138E-03 -6.41083722E-06
 -1.70790814E-01  9.44811240E-05 -4.90758278E-02 -8.98232082E-01  1.30378278E-01
 -2.89608469E-01  9.91819003E-02 -4.88847192E-02 -8.97165722E-01  1.30635245E-01
  2.88500213E-01  1.00024231E-01 -8.89832017E-03 -3.22429402E-02  1.69305073E-01
  1.20050585E-01  2.36979145E-01 -2.46295909E-02 -4.47440961E-02  1.49991127E-01
  3.23823808E-03  1.06901516E-01  2.49525610E-03 -1.96279191E-02  1.61080402E-01
 -1.14560726E-01 -8.92160462E-03 -3.23277203E-02  1.69788055E-01  1.20695837E-01
 -2.36852445E-01 -2.42223905E-02 -4.42970668E-02 -1.50424509E-01  3.49573993E-03
  1.06905460E-01  2.36301998E-03  2.00045864E-02  1.60863184E-01  1.14871155E-01
  5.77334663E-02  2.46655275E-01  2.69824821E-01  3.88547483E-02  9.85355445E-02
  5.27505518E-02  9.69793530E-01 -1.62614059E-01  1.95772613E-01 -1.27702993E-01
  5.28542780E-02  9.68671650E-01 -1.63039745E-01 -1.95365839E-01 -1.28610136E-01
  5.78407126E-02  2.49338904E-01  2.69796126E-01 -3.99578608E-02  9.89152397E-02
 -2.89260252E-03 -1.08100164E-02  5.64779671E-02  3.83570650E-02 -1.65581332E-04
 -4.06767658E-02 -1.52218160E-01 -1.03976475E-03 -2.04432407E-01  4.40138319E-02
  2.11807513E-01 -1.22477114E-04 -3.51805308E-03 -8.63662440E-05 -1.18452531E-03
 -4.47637538E-03  2.88001206E-02  9.58962196E-02 -1.34355267E-03  2.24167403E-04
  1.85694430E-01  1.28303984E-01  4.43412324E-01 -6.03885141E-02  8.24625213E-03
 -1.44624826E-02  7.25833223E-03 -1.43979356E-02  1.35720857E-03  4.48125805E-03
 -7.14391728E-03 -2.05041925E-02 -1.22387859E-02 -4.02510776E-01  7.21678834E-02
  1.11434275E-01  7.56652155E-03 -5.72393962E-02 -5.80975485E-03 -5.38629048E-02
  2.57110592E-02  1.78265702E-03 -6.61189890E-03 -2.41700492E-02  1.20093066E-01
  9.31786826E-02 -3.94191344E-04 -2.05357736E-01  4.19080526E-01  6.05030293E-04
  4.59910284E-01  9.48161901E-02  2.09866559E-01 -6.03757524E-05 -1.16836262E-01
 -2.64203260E-04  1.32758098E-03  4.37722963E-03 -6.80343747E-03 -2.03441885E-02
  1.17779001E-02 -4.02535504E-01  7.01029601E-02 -1.12970575E-01  7.50832682E-03
 -5.71076856E-02 -5.79073364E-03  5.38576649E-02  2.55542191E-02 -1.61138893E-03
 -1.17715422E-03 -4.44618013E-03  2.85511984E-02  9.55747311E-02  1.26525625E-03
  4.02285943E-04  1.83532100E-01 -1.28641119E-01  4.43133797E-01 -6.00732479E-02
  8.40308112E-03  1.43871719E-02  7.43558045E-03  1.41395938E-02  1.13986844E-02
  4.22619568E-02 -1.26475669E-01  8.92745633E-02  1.88919144E-04  1.03993746E-01
 -5.87746382E-02  2.18118245E-07  2.33168514E-02  5.76981568E-02 -4.24294152E-02
 -1.01297953E-04 -9.58960006E-03  2.40714550E-05  4.79127065E-03  1.76613748E-02
 -5.01462481E-02  1.25824540E-01 -9.63917211E-05  9.49525036E-02  3.24085361E-01
 -1.91249031E-03  1.64797240E-01  4.58377187E-02  1.75448053E-02 -1.61664386E-04
  1.09513073E-01  1.90727891E-06 -3.84422371E-02 -2.61450074E-01  5.45303306E-03
 -6.62706414E-02 -4.16156624E-01 -3.81337550E-02 -2.57201498E-01  4.19866516E-03
  6.52842875E-02 -4.15846509E-01 -7.90954431E-04 -2.85255213E-03  1.16096364E-02
  4.03891634E-02  7.38293286E-02  4.78885221E-02 -1.24287183E-02  1.91484497E-02
 -3.61809942E-02  4.21714989E-02 -1.97055767E-02  5.32121830E-02  4.49339326E-02
 -4.65679430E-02 -7.83534557E-04 -2.82549134E-03  1.14561118E-02  4.02936420E-02
 -7.37809070E-02  4.79817405E-02 -1.24549112E-02 -1.91020925E-02 -3.60976220E-02
  4.21755255E-02 -1.97598377E-02 -5.31184967E-02  4.49153221E-02  4.67040615E-02
  1.18413419E-02  2.26912015E-01 -8.69454736E-03  2.87868844E-02 -4.45754934E-01
 -9.66986692E-03 -3.16520683E-02  7.03028350E-02 -6.44114277E-02  2.60197768E-01
 -9.55737150E-03 -2.94734885E-02  6.99986786E-02  6.40835095E-02  2.60167665E-01
  1.19248544E-02  2.26279811E-01 -8.30685977E-03 -2.84638090E-02 -4.45785297E-01
  7.55455429E-03  2.91447775E-02 -1.73331882E-01  4.13845493E-02 -7.71192238E-05
 -6.56999155E-04  8.69228822E-02 -2.91750508E-03 -9.39606556E-02  6.15025673E-02
  7.87775994E-02 -2.51249765E-04  8.93335194E-02 -1.47413516E-04  1.29325992E-02
  4.92964923E-02 -3.09697365E-01 -2.31128359E-01 -2.25085111E-02  4.04911819E-03
 -2.96428965E-01 -2.06326634E-01  1.37215105E-01  4.16557557E-02  5.02529329E-04
 -6.29630968E-03 -2.02378745E-02  4.27696160E-02  3.13461526E-03  1.51122829E-02
 -1.59900136E-01 -3.67731248E-02 -9.03572990E-02 -1.43432062E-01 -5.46041621E-01
  9.19657872E-01 -1.18283329E-02  1.81841002E-01  2.35651181E-03 -1.08921397E-02
 -2.17984217E-01  3.79030654E-02  1.23315530E-02  4.49927676E-02 -2.43150338E-01
 -3.18641988E-01 -1.17839142E-04 -2.71486166E-02  1.38868531E+00  2.19670330E-03
  8.13563114E-02 -1.09557425E-01  2.56256023E-02 -2.18929783E-04  5.25196284E-01
 -4.75149741E-04  3.12412165E-03  1.50753038E-02 -1.59760834E-01 -3.69139042E-02
  9.00285713E-02 -1.43686147E-01 -5.50822082E-01 -9.17464343E-01 -1.25829556E-02
  1.82160743E-01  2.32361903E-03  1.11384924E-02 -2.17972244E-01 -3.75059644E-02
  1.29523206E-02  4.93688582E-02 -3.10054303E-01 -2.31204713E-01  2.26103818E-02
  4.14555292E-03 -3.01314977E-01  2.03969718E-01  1.38087208E-01  4.19926896E-02
  8.34128176E-04  6.49027950E-03 -2.01633618E-02 -4.30522204E-02 -1.19187932E-02
 -4.41489289E-02  1.29472944E-01  8.90805677E-03  6.16345551E-04  3.90326409E-02
  6.10554633E-02  4.23385132E-04  7.30655941E-03 -6.75634395E-02 -3.86006274E-03
 -2.02625764E-04 -5.29054895E-02  3.60195977E-04 -1.29978472E-02 -4.88716652E-02
  1.44137151E-01 -3.45668063E-01  9.69612501E-05  3.23991322E-02  3.97560739E-01
 -1.27657338E-03  1.83129586E-01  2.20703769E-03  9.78018358E-03  1.79790832E-05
 -2.62783110E-01  1.01236558E-04  4.76528983E-02 -3.57253571E-01  1.29668035E-01
 -4.31616816E-01 -1.53046965E-01  4.76505265E-02 -3.55502004E-01  1.29229387E-01
  4.31232772E-01 -1.54412258E-01 -8.74279345E-04 -2.93188853E-03  1.58034730E-02
 -4.28964944E-02 -6.02347117E-02  1.91644453E-02  2.81731957E-03  1.28520925E-02
 -1.04245295E-02 -4.21431489E-02 -5.67353922E-03  1.91968803E-02 -1.90403941E-02
  4.44601968E-02 -8.41966834E-04 -2.81432920E-03  1.51460635E-02 -4.33282370E-02
  6.05483190E-02  1.92927800E-02  2.20296611E-03 -1.25985782E-02 -1.03439027E-02
 -4.22336586E-02 -5.64650551E-03 -1.93832735E-02 -1.89734327E-02 -4.47715989E-02
  2.64266939E-02 -1.70380628E-01  1.01275227E-01  6.40091983E-03 -1.27022559E-01
  8.36761152E-02  1.15139618E+00 -4.04937352E-01  3.52225808E-01  1.17727350E-01
  8.38140002E-02  1.15220211E+00 -4.04221581E-01 -3.52856161E-01  1.18538103E-01
  2.65421835E-02 -1.70219947E-01  1.01856370E-01 -5.96353137E-03 -1.27492820E-01
  7.82411429E-06  2.85238296E-05 -1.56197206E-04  4.42439019E-04 -1.62221431E-01
  2.78713010E-04 -3.23158350E-04  2.33165930E+00 -5.64247782E-04  1.92073586E-04
  3.34198562E-04 -4.18289249E-04  5.99146405E-04 -1.06136959E-01  6.17919164E-03
  2.34654449E-02 -1.08608724E-01 -7.17013192E-02  1.09530266E-01 -2.17634105E-02
 -4.93744456E-01  3.24835201E+00 -2.89366573E-02 -1.34715190E-01 -4.18884898E-03
  1.33914115E-03  4.66513228E-02 -3.45684276E-02 -7.33448089E-03 -2.60776492E-02
  6.66262645E-02  1.80121434E-02  1.54499367E-02  2.25402570E-02 -4.12440489E-01
 -2.86191718E+00  3.09829978E-02  2.26780143E-01  2.00451603E-03  2.90025227E-03
 -3.31204103E-02 -9.06142940E-02 -1.89248294E-05 -6.45410440E-05  1.74956198E-04
  1.05762112E-04  3.09284610E-01  2.57129866E-04  2.59867100E-04 -1.93389324E+00
  1.77641826E-04  1.42755218E-04  1.22757132E-04 -8.57761419E-03 -1.50565914E-04
  3.76535989E-02  7.37162443E-03  2.62208320E-02 -6.75701477E-02 -1.77133676E-02
  1.57393781E-02 -2.26386821E-02  4.11490455E-01 -2.86330549E+00 -3.30926442E-02
 -2.27170220E-01 -1.94705061E-03  2.83758625E-03  3.30030895E-02 -9.07497936E-02
 -6.17351209E-03 -2.34415494E-02  1.08438732E-01  7.20111275E-02  1.09737144E-01
  2.26954868E-02  4.95863016E-01  3.24759290E+00  3.06031552E-02  1.35000741E-01
  4.12041907E-03  1.05013757E-03 -4.71462722E-02 -3.41756941E-02 -7.11599214E-06
 -2.75997766E-05  1.00033645E-04  4.02966159E-04 -5.28816148E-02  4.28109791E-06
 -2.11718086E-04 -3.74552132E-01  4.79525451E-04 -7.24995615E-05 -5.63662878E-06
 -7.21108673E-03 -2.41658860E-04 -4.37971796E-02  1.30175301E-05  4.74002440E-05
 -1.25182963E-04  1.59577488E-04  3.53585364E-02 -9.87211832E-05  1.03387997E-03
  9.59759361E-01  4.43345251E-04 -7.82571880E-05  1.99159606E-05  7.74690728E-02
  1.57066654E-05 -3.42129034E-02  1.84674062E-02  8.67528251E-01 -3.40299370E-01
  3.08131458E-01 -5.80167681E-03 -1.83126149E-02 -8.68203287E-01  3.40003881E-01
  3.08744905E-01  6.06678707E-03 -4.79026751E-03 -1.71538678E-02  8.82393258E-02
  2.78334094E-02 -6.13026022E-02 -7.48931906E-03  6.96045755E-02 -4.88146300E-02
 -4.05060480E-04 -7.34483343E-02  2.06496606E-03 -4.02959827E-03  9.31424877E-03
  2.59377466E-03  4.77961548E-03  1.71158779E-02 -8.80446917E-02 -2.79056778E-02
 -6.15091722E-02  7.60779431E-03 -6.94088754E-02 -4.86520301E-02  1.29914231E-04
  7.33814912E-02 -2.29820037E-03 -4.00898760E-03 -9.24565415E-03  2.64370440E-03
  9.59354554E-02  2.38090361E+00  4.46639608E-01 -3.47954512E-02  4.58883381E-02
 -6.30159375E-02 -1.90408487E+00  1.38330256E-01  5.12660689E-02 -5.49419935E-02
  6.30393788E-02  1.90452810E+00 -1.38315346E-01  5.10865358E-02  5.60222230E-02
 -9.58972159E-02 -2.37983361E+00 -4.45534396E-01 -3.47600899E-02 -4.46344345E-02
  5.68339297E-05  1.91904871E-04 -4.84019017E-04  8.75752751E-04 -9.55973224E-03
  8.36668697E-05  1.47744731E-04  2.11123966E-01 -3.82729485E-04 -1.77246430E-03
  2.90658463E-05  8.38855352E-02 -1.10759703E-04 -5.03650835E-03  1.15429429E-03
  4.31429799E-03 -2.08899175E-02 -1.76046846E-02  1.15908551E-02  2.25552393E-01
 -5.04222282E-02  2.79111130E-01  2.62030770E-01 -1.24191170E-02  1.09012343E-01
 -7.88055298E-02  1.35282747E-02 -2.45050841E-03 -1.56131805E-03 -5.69395356E-03
  2.38956306E-02 -2.10959771E-03  1.48283146E-03 -2.71955014E-01 -3.86272777E-02
 -2.52418732E-01 -2.84273970E-01  2.64781015E-02 -1.24106947E-01 -1.03513577E-01
 -1.38672493E-02 -1.08326513E-02 -2.20598184E-05 -7.92771500E-05  3.72879156E-04
 -1.34130396E-04  2.84560977E-02  5.86766704E-05 -8.60263653E-03 -1.66170231E-01
  5.74818931E-04  4.75487701E-04  2.57477390E-04  2.02961662E-01 -6.85761375E-05
  2.03678641E-02  1.51704815E-03  5.52063523E-03 -2.30216219E-02  1.55952124E-03
  2.06356535E-03  2.71734085E-01  4.12477525E-02 -2.43635810E-01  2.83875312E-01
 -2.56617996E-02  1.23995757E-01 -1.03409761E-01  1.33324172E-02 -1.13873739E-02
 -1.19563139E-03 -4.48575312E-03  2.24480355E-02  1.57193444E-02  1.03829912E-02
 -2.25023339E-01  4.75960055E-02  2.79466834E-01 -2.61494474E-01  1.22082941E-02
 -1.09302994E-01 -7.87065821E-02 -1.30111183E-02 -2.72631632E-03  3.37058335E-06
  1.46230624E-05 -5.32002252E-05  9.34421108E-04  1.23192768E-02  6.02423935E-05
 -6.26894169E-04 -2.35022750E-02 -1.88202146E-04  9.12896334E-04  3.82107322E-05
  1.35433053E-01 -4.01581373E-04  4.19334188E-03  2.14374159E-05  8.06652111E-05
 -2.01541482E-04 -2.84188198E-04 -2.56718830E-02 -1.66058820E-04 -3.97360838E-03
 -6.71451334E-02 -4.27120084E-04 -2.01457057E-04 -2.18572535E-05  6.27276344E-02
  2.82627246E-04 -1.43940613E-02 -1.15551232E-02 -1.08479660E-01  5.41702294E-02
 -3.82342291E-02 -2.16572987E-01  1.25753017E-02  1.17681523E-01 -5.64019402E-02
 -3.86509058E-02  2.15554955E-01 -6.05589400E-04 -2.17390285E-03  1.12300752E-02
  4.09556459E-03  2.29344994E-03  1.20163292E-01  1.10524353E-02  1.98200038E-03
  1.98538374E-02 -4.06028855E-03 -3.69040948E-02  5.81523664E-02  1.57630476E-03
 -3.60469855E-03  6.30673540E-04  2.26417426E-03 -1.18022104E-02 -3.96916417E-03
  1.97893914E-03 -1.19848951E-01 -1.18165670E-02  1.35139456E-03 -1.97125611E-02
  4.58099163E-03  3.69159184E-02  5.80328397E-02 -9.97738110E-04 -3.46024742E-03
  8.21618384E-03  2.07332426E-01  2.81752408E-02  8.91834641E-03 -5.44590494E-01
 -4.60572900E-03 -1.68925414E-01  3.46964847E-04 -2.79157184E-03  6.96315642E-01
  4.03798820E-03  1.61478571E-01 -2.15957416E-03 -1.77451380E-03 -6.95985118E-01
 -8.75068456E-03 -2.10547386E-01 -2.85933102E-02  8.41812607E-03  5.44231921E-01
 -1.53584566E-02 -5.11760726E-02  1.16232486E-01 -2.14033709E-01 -2.36624911E-05
 -1.26138899E-02  1.95029608E-01 -9.43119310E-04  4.28930188E-02  4.80325586E-01
 -4.42852598E-03 -1.82692182E-04  2.90298144E-02 -2.50730284E-04  7.46735938E-03
  3.04176643E-02 -2.58343099E-01  2.01745584E-01 -1.99331535E-01 -6.69799105E-03
  4.16548391E-01 -8.13659631E-02  8.43680891E-03  4.79101743E-02  1.71090552E-03
 -3.79443319E-03 -1.44726265E-01 -7.46607302E-02  8.33447816E-03  3.24647106E-02
 -1.75765783E-01  8.43197093E-02  4.78118433E-02 -6.20064852E-03 -3.98283902E-01
  1.14815410E+00  3.49849327E-02 -1.04314901E-01 -1.13163878E-03 -4.74906723E-03
  2.87131034E-02 -3.00042344E-02  2.94391860E-03  1.07036932E-02 -5.10449088E-02
 -3.89766238E-02 -1.70232016E-04 -1.41354281E-02  2.19977371E+00  3.29455163E-04
 -8.69881642E-02 -1.24967093E-01 -9.69019783E-03  7.75184180E-04  9.25460129E-02
 -1.60656148E-04  8.33724067E-03  3.24769454E-02 -1.75852606E-01  8.45509491E-02
 -4.82702140E-02 -4.28920274E-03 -4.02618435E-01 -1.15123321E+00  3.66386875E-02
 -1.04490346E-01 -2.11007557E-04  4.24621720E-03  2.89166128E-02  3.01384512E-02
  7.46784380E-03  3.04181477E-02 -2.58352096E-01  2.02160417E-01  1.99284973E-01
 -8.43882846E-03  4.12470883E-01  8.35019049E-02  6.98335074E-03  4.82507374E-02
  1.35486513E-03  3.57110269E-03 -1.44957646E-01  7.45316342E-02 -5.42722924E-03
 -2.07699491E-02  6.33184855E-02 -2.46970831E-01  2.96293567E-04 -4.87579418E-03
  3.22059620E-01  3.51264041E-05  2.03973422E-05 -3.58976268E-01 -1.48708024E-02
 -8.55899628E-05  3.08292205E-02  2.13537473E-04 -6.12880997E-03 -2.31797058E-02
  6.14356222E-02  2.47261516E-02 -2.07865770E-04  3.06191894E-02  1.00065402E+00
 -2.15600799E-03  1.21161905E-01  2.20076287E-02 -3.44482457E-03  1.90072684E-04
 -9.48666418E-02 -9.25212644E-06 -1.00399169E-01 -1.14513648E+00  2.55976514E-01
 -1.09577451E-01  5.77277402E-02 -1.00047590E-01 -1.14041394E+00  2.54316677E-01
  1.07856663E-01  6.05145095E-02 -7.34453337E-03 -2.70002656E-02  1.73933847E-01
 -2.03258441E-02 -5.06729189E-02 -2.49514192E-03  9.44988046E-02 -2.59674522E-02
 -3.84834857E-03 -9.94858576E-02 -3.16972175E-03  2.97303758E-04 -1.00277196E-01
  6.31596763E-02 -7.32403462E-03 -2.69261367E-02  1.73539295E-01 -2.05602763E-02
  5.09877820E-02 -3.16322117E-03  9.40246808E-02  2.61443891E-02 -3.69433919E-03
 -9.95573713E-02 -2.93227265E-03 -1.73444411E-04 -1.00135221E-01 -6.36394504E-02
  6.69498456E-02  3.24567155E-01 -1.36895320E-02  1.92049364E-02 -3.15308721E-02
  8.33371285E-02  9.80629445E-01  1.87663233E-01  1.36658926E-01 -1.20900199E-03
  8.34561402E-02  9.84965887E-01  1.88354426E-01 -1.37661124E-01 -7.19455930E-03
  6.70582392E-02  3.21537231E-01 -1.33123367E-02 -1.85648979E-02 -2.70244405E-02
  1.07867590E-05  4.91470342E-05 -4.90062025E-04  5.74243717E-04  1.49713480E-01
 -2.16178872E-04  4.60058140E-04  4.77900718E-01 -6.59646538E-04  4.45542081E-04
  3.93804707E-05  2.46174238E-04  6.28701700E-04 -1.33822749E-01 -7.58965559E-03
 -2.63582629E-02  7.43875739E-02  3.71425187E-02  4.41589930E-02  9.61636431E-03
 -6.40063801E-01 -5.57414101E-01  1.69268757E-02  2.11407763E-01  7.78006136E-04
 -2.55402941E-03 -1.29150333E-01  1.25964646E-01  6.04970247E-03  2.45047152E-02
 -1.83746553E-01  1.94312946E-01  2.13398607E-01 -1.80311142E-02 -5.75406698E-01
  1.32067795E+00 -1.33622221E-02 -1.29378661E-02  2.25714218E-03 -4.51257080E-03
  1.27762731E-01 -4.70402717E-02 -5.41704621E-05 -1.85508989E-04  6.00024408E-04
  5.43820574E-05  2.07899676E-01 -3.41058381E-04  2.73127045E-03  4.57262864E-01
  4.99122072E-04  7.17378635E-04  3.16446914E-04 -3.53342776E-03  2.00794275E-05
  1.21000854E-01 -5.93344601E-03 -2.40575040E-02  1.81039455E-01 -1.94279966E-01
  2.14204413E-01  1.76126564E-02  5.71268395E-01  1.31551191E+00  1.41602710E-02
  1.25140189E-02 -2.31094846E-03 -4.37041383E-03 -1.28382713E-01 -4.75432085E-02
  7.60987185E-03  2.64469740E-02 -7.53667288E-02 -3.67530608E-02  4.51084351E-02
 -9.17318332E-03  6.39554755E-01 -5.55165131E-01 -1.66075503E-02 -2.11151606E-01
 -8.89403215E-04 -2.50324297E-03  1.28093073E-01  1.26429666E-01 -3.01457413E-05
 -1.13939895E-04  3.72732196E-04  7.31160403E-04 -5.08874117E-01  2.99699243E-04
  6.39730395E-04 -2.82460068E-01  1.63458125E-04 -5.23173545E-04  2.29495957E-04
  4.19631116E-03 -1.79524761E-04 -2.23282735E-01  1.48035274E-05  5.21003618E-05
 -1.27376387E-04  3.08146908E-04  1.10078394E-01  7.00134214E-05  1.47994964E-03
  1.00350545E+00  8.35627766E-04 -5.39282406E-04  1.59507995E-04  9.51355023E-03
  3.01802447E-04  4.40964752E-02  8.85765729E-02  1.44885877E+00 -4.48446205E-01
  4.18377458E-01 -1.50747711E-01 -8.83522578E-02 -1.45037755E+00  4.48161821E-01
  4.19297877E-01  1.50604229E-01  6.20231641E-03  2.24985856E-02 -1.21272269E-01
 -5.40014926E-02 -2.17698680E-01  4.11839294E-03 -1.58673668E-01 -1.48879832E-01
 -1.08947764E-04 -7.06698804E-02 -1.17161855E-03  2.26016087E-03 -4.84748275E-03
  1.20733581E-01 -6.23365051E-03 -2.26121407E-02  1.21948919E-01  5.38686773E-02
 -2.17906037E-01 -4.00424076E-03  1.58934872E-01 -1.48796665E-01  3.07709188E-04
  7.03432670E-02  1.13138204E-03  2.48870403E-03  4.44152726E-03  1.20582923E-01
  2.66701048E-02 -4.89234379E-01  4.34488672E-01 -1.98095942E-01 -2.26210750E-02
  7.76145165E-02  1.54856315E+00 -1.98426599E-02  3.10640582E-01  2.28632314E-02
 -7.70961809E-02 -1.54268140E+00  1.97699197E-02  3.09992568E-01 -2.28158671E-02
 -2.66169193E-02  4.87530942E-01 -4.35889630E-01 -1.99003374E-01  2.16957899E-02
  7.25076143E-03  2.46530332E-02 -5.41277643E-02  2.14580478E-02 -6.69772089E-05
 -3.35089608E-01  2.50703152E-01 -3.42706572E-04  9.12023012E-01 -7.15736590E-02
 -2.56084214E-01  2.60646599E-04 -1.22225288E-02  3.70825375E-04 -7.69512481E-03
 -2.99690621E-02  1.86739466E-01 -2.74239345E-02  3.37778276E-02  2.30867155E-01
 -5.17084821E-01 -5.65093755E-01  2.09025728E-01  5.67800307E-02 -4.15743640E-02
 -9.96539013E-02 -1.76124739E-02  3.45868387E-02  2.45021418E-03  8.17706755E-03
 -3.50673086E-03 -5.92653626E-03 -6.75070749E-03  7.00498154E-02 -5.37447866E-01
  5.61577561E-01 -3.73304157E-01 -4.50183272E-02  4.53675474E-02  5.47669394E-02
  3.21303233E-02  5.73518748E-02 -6.80033903E-03 -2.55710302E-02  1.41839230E-01
 -4.15343521E-02 -1.52749676E-05  1.95889006E-01  5.05963195E-01 -8.79220002E-05
 -3.44704387E-01  8.59415525E-04  5.94034279E-02 -8.17678581E-05 -2.17373351E-02
  1.13863034E-04  2.45993126E-03  8.21308019E-03 -3.73514201E-03 -5.79883830E-03
  6.86089884E-03  6.98406377E-02 -5.36839480E-01 -5.61232232E-01 -3.73136207E-01
 -4.49498689E-02  4.55234299E-02 -5.49154464E-02  3.20877101E-02 -5.71578557E-02
 -7.71533923E-03 -3.00455448E-02  1.87215465E-01 -2.75619975E-02 -3.41306288E-02
  2.30911478E-01 -5.16122669E-01  5.65333823E-01  2.09848897E-01  5.70008501E-02
 -4.18856454E-02  9.95289950E-02 -1.77974028E-02 -3.44428152E-02 -4.53449278E-03
 -1.72255496E-02  6.14909188E-02  5.34630427E-02  2.20990028E-04 -2.60993327E-01
  9.79196309E-02  6.13286697E-04  2.94412483E-01 -1.30361859E-02 -4.73890041E-01
 -4.40987950E-05 -4.42841355E-02 -1.64671179E-04  2.15604068E-03  8.27138066E-03
 -3.07616336E-02  4.37771508E-02  5.55499165E-05 -8.42409739E-03  2.40790292E-01
  5.17644517E-04 -2.17860852E-02  4.73426103E-02 -1.31732505E-01  3.00016990E-05
  2.01925830E-02  8.07989171E-05 -1.54739085E-02 -1.27254231E-01 -3.14192353E-02
 -1.22601848E-01  8.21719678E-02 -1.55881345E-02 -1.29060412E-01 -3.09818971E-02
  1.23339210E-01  8.18494533E-02 -3.53358655E-04 -1.58619670E-03  1.54220090E-02
 -2.24770154E-02  2.07069624E-02 -1.88416017E-01 -3.17302855E-02  3.70531925E-02
 -1.05311209E-01 -9.76831454E-03 -1.17310500E-01 -4.55427460E-02 -1.32438520E-02
  2.60601382E-02 -3.54420247E-04 -1.59119023E-03  1.54804982E-02 -2.24723465E-02
 -2.08934678E-02 -1.88768227E-01 -3.18749434E-02 -3.69750695E-02 -1.05421326E-01
 -1.02862938E-02 -1.17322490E-01  4.55023547E-02 -1.34522299E-02 -2.63450651E-02
 -5.57234801E-02 -7.86125032E-01 -4.86587342E-02 -1.23502240E-01 -5.75674501E-01
  1.18571483E-02  6.73726619E-01 -4.46941676E-02  8.02614424E-02  4.01635797E-01
  1.18233779E-02  6.72974263E-01 -4.50331081E-02 -8.02537053E-02  4.02235870E-01
 -5.57356815E-02 -7.85908719E-01 -4.88280720E-02  1.23659976E-01 -5.76210861E-01
  1.16152866E-02  4.24160216E-02 -1.74936053E-01  1.26879249E-01 -2.85095885E-04
  6.78907571E-02  5.06532881E-01 -3.65654661E-03 -1.95812023E-01 -3.40601909E-02
  2.69219710E-02  2.83787927E-04  2.16177276E-02  6.00010475E-04 -8.66410282E-03
 -3.23227723E-02  1.62882407E-01 -8.45507417E-04 -2.20545963E-02 -2.56281182E-02
 -9.76595935E-01 -1.15497233E+00 -9.43857528E-02  3.47378771E-02 -2.10783448E-03
  2.96193325E-02 -1.20336059E-01  3.06089032E-02  2.06408148E-02  7.83958664E-02
 -4.39911954E-01 -1.47025018E-01 -2.30940011E-01  2.82390504E-02 -1.51333408E+00
  1.35373774E+00  1.14409065E-01 -1.59879919E-01  2.50569353E-03 -6.94731493E-03
 -4.11838049E-02  2.47457613E-01 -3.68722834E-02 -1.28806814E-01  4.71768801E-01
  3.87453952E-02 -1.95649532E-04 -8.24501171E-02  8.12747643E-01  9.45246095E-04
  1.48269793E-01  4.13839066E-01  3.83716853E-02 -4.65594000E-05 -1.41373383E-01
  6.74903968E-05  2.06823865E-02  7.85557624E-02 -4.40969127E-01 -1.46285742E-01
  2.30559094E-01  2.77576935E-02 -1.51643344E+00 -1.35141352E+00  1.14365072E-01
 -1.59880491E-01  2.71696095E-03  6.89524642E-03 -4.09394622E-02 -2.47186892E-01
 -8.69496960E-03 -3.24275125E-02  1.63191288E-01 -7.33443200E-04  2.15163264E-02
 -2.56861298E-02 -9.78987913E-01  1.15077501E+00 -9.16826473E-02  3.55896626E-02
 -2.79095331E-03 -2.97161832E-02 -1.20908234E-01 -3.06864507E-02 -9.57674769E-03
 -3.65727898E-02  1.33788292E-01  1.54457189E-01  1.18675946E-03  4.65909787E-02
  2.33411991E-01  1.45157308E-03 -6.54776743E-02 -9.52684578E-02  1.08377886E-01
  1.60075052E-04 -7.42555849E-02  4.43863760E-04  1.40929510E-02  5.13925276E-02
 -1.41165255E-01  2.42888641E-01 -1.85635990E-04 -4.30801419E-02  5.03498937E-01
 -1.30241320E-03  3.86509811E-02 -2.47539091E-01  1.06233098E-01  1.66266923E-04
  2.21645105E-01 -2.43317140E-04  7.40915234E-02 -1.37175010E-01 -2.66278343E-01
 -3.35944947E-01 -2.90345990E-02  7.41304171E-02 -1.34600620E-01 -2.66614176E-01
  3.35484313E-01 -3.08496238E-02  6.71484552E-05  4.06119909E-05  7.10490402E-03
 -6.13188399E-02  9.16267777E-02  3.42423429E-02 -7.93983604E-02  7.35437477E-02
  2.87603517E-02 -3.67563335E-02  2.98039568E-02  2.37728355E-03 -3.58951851E-02
  5.00623060E-02  8.20071374E-05  9.55451930E-05  6.78033050E-03 -6.15159410E-02
 -9.07219844E-02  3.40397938E-02 -7.96511400E-02 -7.25870903E-02  2.86159536E-02
 -3.72412429E-02  2.99247612E-02 -2.45335277E-03 -3.58067422E-02 -5.04770243E-02
 -6.02196385E-02 -1.58583288E+00 -4.01181902E-01 -1.05234383E-01  1.61644389E-01
  9.06769586E-02  1.75619535E+00  6.09833953E-02  2.10205373E-01 -1.62447371E-01
  9.09012316E-02  1.75706438E+00  6.14291700E-02 -2.11298803E-01 -1.61867903E-01
 -6.00832802E-02 -1.58248423E+00 -3.98836413E-01  1.05657526E-01  1.60525864E-01
 -1.35654152E-02 -4.32212905E-02  8.51951301E-03  3.08675326E-02  3.43345641E-05
 -8.12096734E-02 -4.75595578E-01 -3.61589035E-03  2.13227626E-01  2.06565671E-01
 -1.03738079E-01  4.61378646E-04  8.53207322E-02 -5.62695014E-05  2.11276903E-02
  8.33364865E-02 -5.52394149E-01  6.83909338E-02 -1.09915687E-01  1.19080659E-01
  1.06932938E+00  1.08919497E+00 -1.04856503E-02 -1.54304019E-01 -3.69423213E-02
 -1.95384630E-02 -1.59045393E-04 -1.04476965E-01  5.53285698E-03  2.56184502E-02
 -3.12959915E-01 -8.32505340E-02 -1.54772475E-01  5.69131146E-02  7.10546827E-01
 -9.37210558E-01 -1.15630582E-01  6.22929847E-02  3.35196639E-02  2.00292038E-02
 -1.69985944E-01 -3.26185407E-02 -5.79826804E-03 -1.31863752E-02 -1.31452086E-01
  2.48504413E-01 -3.21886861E-04  2.30262900E-02 -1.20790046E+00  3.79569895E-03
  1.44496521E-01  2.51422574E-01  8.53836579E-02  3.11790632E-04 -9.04121668E-02
 -2.73630169E-05  5.53681741E-03  2.56382585E-02 -3.13212455E-01 -8.28454649E-02
  1.54318662E-01  5.67437671E-02  7.04060494E-01  9.39217910E-01 -1.15922622E-01
  6.24790722E-02  3.44386426E-02 -2.01895182E-02 -1.70125480E-01  3.28848993E-02
  2.11211648E-02  8.33134061E-02 -5.52353164E-01  6.83891264E-02  1.09687797E-01
  1.19001321E-01  1.06278508E+00 -1.09264587E+00 -1.04154436E-02 -1.54288314E-01
 -3.78682779E-02  1.94945558E-02 -4.73533781E-04  1.04615312E-01  7.30645283E-03
  2.78208811E-02 -1.00484468E-01 -5.30528571E-02 -3.93313549E-05 -8.77668768E-02
 -1.70924248E-01  1.78193966E-04  9.99183968E-02 -2.33426300E-02 -1.24141786E-01
  3.72149349E-04  9.36086939E-02  2.51049174E-05  1.87313109E-03  4.20911508E-03
  3.51527381E-02  5.89804318E-02 -1.47830993E-04 -9.58608000E-02 -4.07246750E-01
 -2.25604432E-03 -1.02656657E-01 -4.27257045E-01  5.20486566E-02  4.75725381E-04
  1.95274970E-01 -1.88875622E-04  1.25746968E-01  4.44177969E-01 -1.82871548E-01
  1.06883403E-01 -1.30539597E-02  1.25917226E-01  4.49246762E-01 -1.84442813E-01
 -1.07885785E-01 -1.61010556E-02  1.87961557E-03  7.82997533E-03 -6.37270113E-02
  2.23082044E-02 -4.48563922E-03 -6.42789426E-02  4.65300925E-02 -6.85899015E-02
 -2.12231271E-02  3.02187587E-03 -3.07577342E-02 -2.20849021E-02  2.24025381E-02
 -5.56022410E-02  1.86679645E-03  7.78312990E-03 -6.34583420E-02  2.25076490E-02
  4.64209122E-03 -6.48147382E-02  4.66010003E-02  6.86545298E-02 -2.14413950E-02
  2.91954578E-03 -3.05903031E-02  2.23460990E-02  2.23071211E-02  5.55154443E-02
  1.50449202E-01  1.57552832E+00 -1.62914279E-01  3.81745889E-01 -1.12767542E-01
  1.66749106E-02 -1.10158043E+00  1.27832050E-01 -1.83022725E-01  6.32412606E-02
  1.67344725E-02 -1.10032475E+00  1.28138915E-01  1.82278693E-01  6.43402056E-02
  1.50531727E-01  1.57538646E+00 -1.62391958E-01 -3.81494549E-01 -1.15033414E-01
 -1.55108655E-05 -6.21936507E-05  5.00474669E-04 -3.09029995E-04  2.78227904E-02
 -3.60829325E-05  8.23041283E-04 -2.71276270E-01 -1.01361001E-03  4.36941614E-04
  9.75055535E-05  4.26367872E-01  8.70837860E-06 -1.95507737E-02 -1.39839795E-03
 -5.09376095E-03  2.50307903E-02  1.42174259E-02  1.34062462E-02  5.08691280E-02
  3.01275731E-01 -5.31063588E-02 -2.48314137E-01  1.69197614E-02  3.75432377E-01
 -1.54350707E-01 -1.42754786E-02  1.11534772E-02  1.67241374E-03  6.07801021E-03
 -2.52454396E-02  2.77974573E-03 -5.89515747E-03  4.50058378E-02  3.11917317E-01
  7.68263118E-02  1.82614488E-02 -4.24892310E-03 -2.04804023E-01 -1.31608676E-01
  1.81774298E-02 -9.14397625E-03  5.41909770E-05  1.77330938E-04 -3.48222682E-04
 -5.76007704E-04 -1.76556849E-02 -2.31251663E-04  3.68369390E-03  3.76000800E-01
  1.52489792E-04 -9.42644528E-04  1.14771747E-04  1.31251090E-01  3.51578424E-04
  5.77938087E-04 -1.72053048E-03 -6.27800507E-03  2.70241883E-02 -1.88547424E-03
 -6.91960508E-03 -4.53575674E-02 -3.11445162E-01  7.47173642E-02 -1.70826973E-02
  4.30455699E-03  2.04709262E-01 -1.31449316E-01 -1.76751407E-02 -8.71396908E-03
  1.38203751E-03  5.02319741E-03 -2.45392692E-02 -1.40149823E-02  1.35955474E-02
 -5.08015992E-02 -3.00619395E-01 -5.19023775E-02  2.49079596E-01 -1.62888219E-02
 -3.75627880E-01 -1.54147436E-01  1.37725785E-02  1.15967986E-02  1.59372212E-05
  5.89975706E-05 -1.94223270E-04  1.00820972E-06 -4.27585487E-02  4.34543702E-04
  6.88899733E-04  4.61743707E-03 -6.76589154E-04 -5.01836117E-04  6.44574174E-04
  3.19715170E-01 -3.59670712E-04 -1.07391807E-02 -2.89261707E-05 -1.02486558E-04
  2.04925046E-04 -3.53666221E-04 -1.17451968E-02  1.96313293E-04  1.06357546E-03
 -3.51775432E-01 -1.43406509E-04  1.10748347E-03 -1.23507786E-04  8.34623343E-02
 -6.25156758E-04 -1.66836857E-03  5.93921644E-03 -2.80082043E-01  1.14798635E-01
  5.63518972E-04  5.75930115E-01 -6.88924948E-03  2.76502396E-01 -1.13031543E-01
  1.01380710E-03 -5.75863980E-01  8.52752695E-04  3.08926071E-03 -1.67164529E-02
 -7.05657565E-03 -7.11917573E-03  1.49299619E-01 -1.44067893E-02 -1.71391465E-02
  1.01854943E-01 -7.25967533E-03 -7.64541042E-02  3.51723032E-02 -3.85933139E-03
  8.23959268E-03 -9.07498003E-04 -3.29730798E-03  1.81101984E-02  7.44679202E-03
 -7.30504043E-03 -1.48604640E-01  1.44852794E-02 -1.76973821E-02 -1.01471940E-01
  7.20603738E-03  7.69618069E-02  3.52090590E-02  3.72335200E-03  8.09621868E-03
  3.86513140E-03  9.38678093E-02 -4.17238507E-02  3.78651428E-02  4.81579691E-01
  9.62774432E-03 -7.80428988E-03 -2.62493443E-02 -2.33296299E-02 -3.89430471E-01
 -9.87384277E-03  8.69453849E-03  2.61895468E-02 -2.37460369E-02  3.88597997E-01
 -4.15151829E-03 -9.43357622E-02  4.25341095E-02  3.88619788E-02 -4.82052811E-01
 -3.65980317E-05 -1.29367985E-04  4.92697570E-04 -2.44134707E-04 -2.18325903E-01
 -3.48203759E-04  3.56292108E-05  1.50612827E-01  2.42907013E-04  3.80683875E-04
  4.10012256E-04  6.14182046E-02 -1.70750875E-05  2.06788867E-01  8.29011082E-03
  2.95938487E-02 -1.33010692E-01 -1.85371857E-02 -1.66548117E-01  1.52370735E-02
 -1.37578555E+00 -1.04860762E+00 -2.55427245E-03 -1.41925768E-01  4.53787019E-02
 -2.42187259E-02  9.01878482E-02 -3.96772256E-02 -8.89189783E-03 -3.14343027E-02
  1.05179663E-01 -4.60234948E-02  1.41950139E-01 -3.54832691E-02 -1.09153167E+00
  9.39938185E-01  4.16276622E-02 -7.25247869E-02 -8.14788412E-03 -2.52639467E-02
 -7.75835422E-02  9.94419481E-02  7.94320882E-06  2.78743253E-05 -7.74286857E-05
  1.21196234E-04  1.36766824E-01  8.97438266E-04 -1.95300666E-03 -1.00279495E+00
 -2.35487090E-03 -6.74951392E-05 -7.96850921E-04 -5.27204444E-03 -1.67741892E-04
 -7.24950218E-03  8.86951359E-03  3.13503304E-02 -1.04739668E-01  4.60984070E-02
  1.41872775E-01  3.48288302E-02  1.09458381E+00  9.42978282E-01 -4.26156962E-02
  7.26677837E-02  7.77641485E-03 -2.58995646E-02  7.73623642E-02  9.96149554E-02
 -8.25200861E-03 -2.94486575E-02  1.32179220E-01  1.88185822E-02 -1.66278107E-01
 -1.62206988E-02  1.37788649E+00 -1.05106065E+00  3.17066419E-03  1.41432556E-01
 -4.50428596E-02 -2.39418093E-02 -9.01994989E-02 -3.90424644E-02  1.43048168E-05
  5.33076645E-05 -1.72219911E-04 -5.40439194E-04  3.72592009E-01  2.98511264E-04
 -2.00972059E-04  1.39059851E-01 -8.33517170E-04 -9.98661956E-05  5.55764699E-04
  5.22246256E-02  1.08132000E-04  1.00890522E-01 -2.82672171E-06 -1.11747193E-05
  4.85587102E-05  6.12883053E-05  3.42959572E-01  3.76789887E-04  1.18673605E-04
  3.37049308E+00  2.13201320E-03  5.79834550E-05 -8.02038857E-05  9.28503930E-02
  7.64313052E-05  9.66178327E-02  1.31672528E-01  3.78228037E+00 -1.46279707E+00
  6.84985684E-01 -3.02344111E-01 -1.31557591E-01 -3.78117229E+00  1.46317959E+00
  6.83154453E-01  3.04050844E-01 -6.09671067E-03 -2.21592281E-02  1.22846371E-01
  4.73022088E-02  4.52508052E-02  2.66791296E-02  1.00023646E-01  1.62516714E-01
  1.29622792E-02  1.03625641E-01 -1.26715830E-02  8.40457902E-03  4.85605590E-02
 -7.60164499E-02  6.09130376E-03  2.21390518E-02 -1.22717267E-01 -4.72121845E-02
  4.53184074E-02 -2.61062497E-02 -9.98778535E-02  1.62794463E-01 -1.29183857E-02
 -1.03675659E-01  1.33656715E-02  8.05671201E-03 -4.84772350E-02 -7.59845927E-02
 -5.27601266E-02 -1.43162368E+00  3.75447839E-01 -3.57869640E-01  3.81180532E-02
 -4.48269316E-02  8.30730388E-01  8.51508546E-02  2.41778192E-01 -7.72842592E-02
  4.46857553E-02 -8.34980894E-01 -8.49089740E-02  2.42452860E-01  8.01450359E-02
  5.29267476E-02  1.43454568E+00 -3.76481481E-01 -3.58621802E-01 -3.99138208E-02
  9.38198736E-04  2.65914457E-03  1.25852374E-02 -3.45585061E-02 -3.72009786E-04
  5.26875030E-02 -1.87611961E-02 -1.21816221E-04 -9.05475912E-02 -2.29913862E-02
 -2.39301398E-01 -6.29217520E-05 -2.48091181E-02  4.53404451E-04 -1.40244842E-03
 -5.71637431E-03  3.91513046E-02 -2.68267429E-02  2.22975055E-02  2.65470041E-01
 -5.91883408E-02 -3.73110842E-02 -2.67815036E-01  7.11947750E-03 -1.48178700E-01
  5.01142148E-04  2.76783385E-02  2.12168394E-02 -2.52926813E-03 -9.88915535E-03
  7.21619546E-02  1.60667189E-02  4.24552686E-02  1.50662425E-01 -7.89495737E-02
  1.96985762E-01  4.57655103E-01  3.05322231E-02  1.27363308E-01 -2.20972304E-01
  2.92942957E-03 -2.43362792E-02  4.99657520E-03  1.68891035E-02 -4.75896792E-02
 -4.01130401E-02  3.80901412E-04 -5.90127536E-01  5.07536526E-01 -1.67323074E-03
  1.28134743E+00 -7.33813296E-02  5.10630580E-01 -3.59582801E-04  5.27327272E-02
  7.56892449E-05 -2.49450269E-03 -9.76571822E-03  7.16994280E-02  1.63979583E-02
 -4.20036553E-02  1.50443407E-01 -7.61673588E-02 -1.94691943E-01  4.58830824E-01
  3.08114450E-02  1.27214113E-01  2.21233860E-01  3.11596532E-03  2.46490680E-02
 -1.43470604E-03 -5.83402773E-03  3.97625272E-02 -2.68218520E-02 -2.30848418E-02
  2.65194695E-01 -5.44460518E-02  3.45582393E-02 -2.67263426E-01  7.83950197E-03
 -1.48150155E-01 -8.76804704E-05  2.70813298E-02 -2.10848476E-02  1.91120734E-04
  7.32325367E-04 -3.34058677E-03 -1.47876628E-02  7.33012615E-04 -1.09356973E-01
 -1.86427712E-02  3.25311874E-04  7.90076006E-02  1.54227108E-02  4.35060537E-04
 -6.65204716E-06  1.84225717E-03  2.17579746E-04 -2.91357053E-03 -1.04909740E-02
  2.24857865E-02 -3.95143592E-02  5.39256123E-04 -7.30915984E-02  2.08523557E-01
  4.79831939E-03 -1.92680714E-01  7.45280483E-02  8.43918931E-02 -1.58464870E-04
  1.70156580E-03  2.05316752E-04 -5.50325964E-02 -1.80764805E-01  4.59219138E-02
 -8.77419655E-02 -3.15538076E-01 -5.55310268E-02 -1.92102886E-01  5.01059782E-02
  9.03659983E-02 -3.14124526E-01 -3.17236141E-04 -1.24777306E-03  8.39141750E-03
  1.02186876E-02 -1.86888493E-02 -6.37916231E-02  5.71000630E-03  1.74009218E-03
  3.18945872E-02  5.82536281E-03  6.40742457E-04 -5.15190872E-02  5.30569111E-03
  2.30112323E-03 -2.94409901E-04 -1.16534170E-03  7.94919137E-03  1.01645357E-02
  1.88722209E-02 -6.37213499E-02  5.14933559E-03 -1.17368586E-03  3.18999975E-02
  5.34501738E-03  5.37774030E-04  5.14965746E-02  4.96985555E-03 -2.76749426E-03
 -1.18396099E-02 -5.72283326E-02  1.10664229E-01 -7.64186081E-02 -1.25286181E-02
 -3.77580940E-03  1.70326843E-01 -3.85212332E-02  4.82348089E-02 -7.03904891E-01
 -3.65622252E-03  1.67886065E-01 -3.91251474E-02 -4.72166718E-02 -7.04722021E-01
 -1.16308413E-02 -5.26360604E-02  1.08809589E-01  7.48810750E-02 -1.29914332E-02
 -3.40858145E-04 -1.35929631E-03  1.02513175E-02 -4.65248225E-03 -1.56388427E-04
  5.08413632E-01  4.72488851E-03  3.60777614E-03 -2.33134912E-01 -1.28814205E-02
  1.88024530E-01  6.81713597E-04 -8.13270494E-03 -3.08886797E-04 -6.12247403E-04
 -2.34925572E-03  1.60228033E-02  1.16959683E-03 -4.44946978E-03 -9.97959818E-02
 -4.78973001E-02 -1.52286622E-02 -5.21421552E-01 -1.41472265E-03  1.58790601E-01
  1.12379711E-01 -8.04105652E-03  8.40218627E-03  9.20884963E-04  3.46014312E-03
 -2.04561692E-02 -6.56137094E-03 -5.85477555E-04 -6.80410882E-02 -1.51287512E-02
 -3.81738832E-02  1.88823649E-01 -5.13747997E-03 -4.27781679E-02 -6.01501259E-02
  7.10265828E-03  1.02798466E-02 -3.63819881E-05 -2.84899806E-06 -6.91675412E-03
 -1.37747447E-02 -1.65985808E-04 -3.16069156E-02 -1.18154432E-01 -5.48946747E-03
  1.01823730E-01  2.58861389E-02 -9.48964509E-02  5.11831192E-04  9.63740970E-03
 -2.60330191E-04  9.12803247E-04  3.42913812E-03 -2.01634084E-02 -6.80809234E-03
  6.41477744E-04 -6.66076382E-02 -5.71783210E-03  3.75046269E-02  1.84380254E-01
 -4.55268137E-03 -4.27187953E-02  5.93474074E-02  7.01802360E-03 -1.00465824E-02
 -5.91461987E-04 -2.27056180E-03  1.55986666E-02  1.32750487E-03  4.09836483E-03
 -9.87715034E-02 -3.95183797E-02  1.27616649E-02 -5.25220062E-01 -1.76001425E-03
  1.58125868E-01 -1.13389994E-01 -7.81077498E-03 -8.80528930E-03  9.17404576E-05
  2.98557638E-04  5.01183013E-05 -1.57242474E-03  4.30222351E-05 -8.18441545E-02
 -9.85326322E-03  1.48670010E-04  6.33798554E-01  2.54797542E-03 -5.00991287E-01
  5.36265299E-05  6.18299155E-03 -2.91981434E-04  5.48622397E-04  2.34080182E-03
 -1.12615905E-02 -4.93295869E-03  7.18313552E-04 -4.80488257E-04 -8.39743321E-02
  6.86940848E-03  5.39973176E-02  5.57411137E-04  5.47439746E-02  1.87144156E-04
 -2.37633196E-02  2.94659073E-04  3.15929197E-03  4.74513632E-02  1.15429021E-02
  4.38641577E-02 -1.43077072E-02  2.61629831E-03  3.23401994E-02  1.62957263E-02
 -4.07328813E-02 -1.41705110E-02  1.04141571E-04  3.59640605E-04 -2.00110019E-03
  5.02120612E-03 -1.45980066E-03 -2.55909305E-01 -8.24810138E-04 -2.24442472E-03
 -5.55544177E-02  1.37703129E-03 -2.79669928E-01  1.96318852E-02  3.95687335E-04
  5.05884976E-04  1.11604884E-04  3.88888462E-04 -2.20609270E-03  4.77549209E-03
  1.52960798E-03 -2.56232935E-01 -6.71969959E-04  2.19695192E-03 -5.57097320E-02
  1.61536858E-03 -2.79408201E-01 -1.98231546E-02  7.29189377E-04 -7.17568151E-04
 -2.84475109E-03 -6.02871801E-02  7.27687778E-03 -1.75770518E-02  6.63344953E-01
  3.89650778E-03  2.27799481E-02  2.94322389E-02  2.39740831E-02 -1.78921628E-01
  4.02917372E-03  2.10947916E-02  2.91849820E-02 -2.38626877E-02 -1.75154187E-01
 -2.46562775E-03 -5.35120449E-02  8.37934905E-03  1.67104721E-02  6.65690467E-01
 -2.78392586E-05 -1.02862057E-04  4.21804663E-04  2.39623460E-03  1.21692198E-02
 -8.11782865E-04  2.89696804E-03  1.90662014E-01  5.53146063E-04  1.65785290E-03
 -5.81343569E-04  1.94469774E-01  1.35160940E-03 -1.30606512E-02 -1.84942688E-03
 -7.04362933E-03  4.44582559E-02  5.25720201E-03  5.23181706E-04 -3.36522867E-01
 -6.46519824E-02  2.03045273E-01  1.15429109E+00  2.66871658E-03 -8.18318398E-02
 -1.04843724E-01 -2.31579873E-02 -1.04060769E-02  8.75006145E-04  2.83725342E-03
 -5.05741720E-03  1.06624010E-02 -2.99659540E-02 -3.74333450E-01 -1.13859463E-01
 -3.12522053E-01  1.18469042E+00 -2.01813938E-02  1.24918246E-01 -1.03639784E-01
  1.61999738E-02 -2.61157053E-03 -5.76656254E-05 -2.41912679E-04  2.30951837E-03
 -1.27145683E-03 -3.13169620E-02 -3.42780226E-04 -3.04206042E-03 -3.35275422E-01
  1.04837896E-03 -1.38514450E-03  6.27879109E-04  1.14849861E-01 -4.21472697E-04
 -2.47689582E-02 -9.89332910E-04 -3.32018725E-03  9.44347378E-03 -1.01807709E-02
 -2.86858214E-02  3.74847412E-01  1.22119409E-01 -3.01380288E-01 -1.18455864E+00
  1.92412880E-02 -1.24543413E-01 -1.03226081E-01 -1.82640093E-02 -2.06908273E-03
  1.94527897E-03  7.36717211E-03 -4.50635159E-02 -4.28722673E-03  1.30433286E-03
  3.37193229E-01  7.38033765E-02  2.04814777E-01 -1.15248765E+00 -2.69735681E-03
  8.09732445E-02 -1.04284045E-01  2.20255285E-02 -7.31472374E-03 -2.81842092E-05
 -1.02861174E-04  2.93672778E-04  8.76513642E-04 -2.57989522E-02  5.40584088E-07
  3.68902768E-03 -7.14911096E-03 -1.19510588E-03 -5.97700572E-04  8.94205751E-04
  8.83928582E-03 -1.77510588E-03 -1.54467160E-03 -3.21082655E-05 -1.22392177E-04
  4.32786601E-04 -1.75860024E-04  2.55507513E-02 -3.19265588E-05 -1.43202222E-03
  2.44954593E-01 -5.49747046E-04  9.44199416E-04 -1.43053917E-04 -5.07093505E-02
  3.02947436E-04  2.71698186E-02  7.77001278E-03  2.78501715E-01  1.85411050E-03
  1.18807440E-01 -2.90012153E-02 -7.98567953E-03 -2.76243860E-01 -2.17514832E-03
  1.18540850E-01  2.89604098E-02  6.02549331E-04  2.16693293E-03 -1.17842569E-02
 -2.17117736E-03  9.20396666E-03  5.20781347E-02 -9.08376181E-03 -1.88432503E-02
 -3.50211535E-02 -8.89009992E-03 -8.25336321E-03  4.89954560E-02 -1.08744577E-02
  6.95715051E-03 -6.69191842E-04 -2.41540620E-03  1.34893577E-02 -2.18218005E-05
  6.82773889E-03 -5.10123157E-02  8.26804104E-03 -2.00297603E-02  3.51995037E-02
  8.63508459E-03  9.21305043E-03  4.90448079E-02  9.75850821E-03  6.28873433E-03
 -1.63502914E-03  6.78538394E-02 -7.67677469E-02  2.93479304E-02 -7.46120691E-01
 -3.28892600E-03 -2.22612178E-01  2.44745594E-02 -5.06459883E-02 -8.73611017E-01
  2.28568536E-03  2.04435173E-01 -2.34752416E-02 -4.73487970E-02  8.72444379E-01
  1.86478696E-03 -6.09402197E-02  6.84677112E-02  2.24504874E-02  7.43366762E-01
  5.45661208E-03  2.04929766E-02 -8.97793714E-02 -4.73938595E-01  2.27915885E-04
 -1.54500760E-02 -5.24953848E-01  5.59976258E-03  1.97184062E-02 -3.07365430E-01
  7.71448268E-03  1.22773907E-03 -2.73351568E-01 -1.53627351E-04 -9.39812585E-03
 -3.16816803E-02  5.67050474E-02 -9.25895782E-02  9.53021201E-02 -9.37260125E-03
 -8.29325955E-01  9.54485500E-02  1.94025285E-02 -1.64037626E-02  3.19574091E-03
 -1.47552300E-03  1.02451312E-01  3.00235204E-01  1.28227836E-02  5.38755695E-02
 -4.79801901E-01 -5.26781222E-02  1.21177814E-01 -2.73859094E-03 -9.46078016E-01
  1.23589971E+00 -3.07605312E-02  8.20558751E-02 -4.02735864E-03  2.18687366E-02
  1.63483197E-01  7.02026381E-02  7.75243701E-03  3.45544175E-02 -3.83264257E-01
  2.45928075E-01 -3.18931614E-04  3.66828974E-02  1.01460728E+00 -7.93288088E-03
 -7.32607660E-02  2.54070598E-01 -1.94805082E-02  7.55138876E-04  7.99599523E-02
 -3.48710491E-04  1.27862217E-02  5.37435847E-02 -4.79110758E-01 -5.33683170E-02
 -1.21478246E-01  1.38135368E-03 -9.38113623E-01 -1.24710673E+00 -4.38525576E-02
  8.27047373E-02 -5.12393906E-03 -2.31153327E-02  1.62949519E-01 -7.04306821E-02
 -9.33035907E-03 -3.14295631E-02  5.54219105E-02 -9.27504586E-02 -9.50454227E-02
 -6.20428508E-03 -8.21834168E-01 -8.69219866E-02  8.72500925E-03 -1.61156167E-02
  3.50617441E-03  2.62403439E-04  1.03155715E-01 -3.00866738E-01  3.71144461E-03
  1.33136508E-02 -3.56845304E-02 -1.82746855E-01 -4.87398629E-04  5.49734779E-03
 -6.70701972E-01 -7.44356868E-04 -1.50063225E-02  8.09224253E-02  6.34900118E-03
  5.62685015E-04  3.34918529E-01  5.13125102E-04  5.94493076E-03  2.22714322E-02
 -7.55722102E-02  6.74109069E-02  6.25315883E-04 -1.71822612E-02  5.06470736E-01
  5.57417405E-03  8.91478359E-02 -2.17032234E-01  4.46278315E-02  1.11741380E-04
 -2.56363440E-02  3.53290935E-04  1.52396745E-02 -3.89436697E-01  2.72150149E-02
 -1.12972081E-01  1.55706204E-02  1.48230526E-02 -4.02383271E-01  2.92238007E-02
  1.17186113E-01  1.65842079E-02  5.97792176E-03  2.22940359E-02 -1.52974973E-01
  2.12854914E-01 -2.42141694E-01  6.87619926E-03  6.98792740E-02 -9.88613783E-02
 -7.87745529E-04  2.28792316E-02  4.85252091E-03  2.03157106E-03  9.90586713E-02
 -4.69718219E-02  5.98020219E-03  2.23036093E-02 -1.53066001E-01  2.12675070E-01
  2.42403046E-01  6.20107173E-03  6.94745505E-02  9.79530378E-02 -8.45772329E-04
  2.33302609E-02  5.06127590E-03 -1.51043537E-03  9.91438358E-02  4.71466759E-02
 -1.85187114E-02 -6.30296813E-01  7.92271920E-01 -6.16070872E-01 -7.64286802E-03
  1.07782027E-01  1.90911238E+00 -7.99423730E-02  3.68476206E-01  4.67737754E-02
  1.07871720E-01  1.91493222E+00 -7.99279512E-02 -3.69485258E-01  5.52320553E-02
 -1.83086169E-02 -6.31307002E-01  7.93208989E-01  6.16437636E-01  8.03005973E-05
 -1.56019117E-05 -6.01489183E-05  4.55617152E-04 -5.20303215E-04 -4.49380747E-02
  5.28072972E-04 -9.25016509E-04 -1.46770925E+00 -1.68610452E-03 -3.44479628E-04
  3.25815808E-04  5.10188991E-03  4.68209134E-05  8.79657306E-02  1.98992761E-02
  7.75106237E-02 -5.37203035E-01  5.43329090E-02  1.15489556E-01 -8.63177052E-02
  8.51324347E-01 -1.12727837E+00  2.11331269E-01  8.67819594E-02 -1.95973213E-02
 -7.81954793E-03  2.22796375E-01  1.16268428E-01 -1.62499591E-03 -2.81154172E-03
 -5.01593394E-02 -1.45494748E-01  2.10370104E-01  2.36389576E-02  1.42475753E+00
  2.24498821E+00  5.94382507E-02  2.47923546E-01 -2.90096629E-02  2.69733742E-03
 -1.29617655E-01 -2.32860376E-02  1.16101017E-05  4.88405458E-05 -4.68568732E-04
 -1.13385266E-05  2.14055639E-01  2.07580314E-04  4.94545472E-05  3.29063741E+00
  1.90974229E-04  4.93237480E-04 -1.35298819E-04  9.22879497E-02  1.21973127E-04
  1.84903782E-01  1.66384751E-03  2.96591172E-03  4.89707741E-02  1.45545816E-01
  2.10092821E-01 -2.40874717E-02 -1.42568000E+00  2.24535049E+00 -5.86880086E-02
 -2.47973612E-01  2.87066861E-02  2.75960088E-03  1.29680860E-01 -2.35528509E-02
 -1.99135531E-02 -7.75614895E-02  5.37422589E-01 -5.41706990E-02  1.15496532E-01
  8.63214458E-02 -8.53369390E-01 -1.12658374E+00 -2.11575253E-01 -8.69281428E-02
  1.99573162E-02 -7.67387444E-03 -2.23044637E-01  1.16164035E-01 -2.02055082E-06
 -1.01500972E-05  7.38612011E-05 -2.69759939E-04  1.79799797E-01  9.23937752E-05
 -1.19655257E-03 -8.91853807E-02  6.85404211E-04  6.40864478E-05 -1.37999917E-04
 -4.17023390E-02  6.42138384E-04 -5.20934664E-02  1.33636144E-05  5.46484275E-05
 -2.34209677E-04 -2.36510983E-04 -3.99106264E-01 -1.69412522E-04 -2.06645244E-03
 -3.97124829E+00 -1.93711876E-03 -9.07890493E-06 -1.56405536E-04 -1.97596933E-02
 -3.49087386E-04 -2.23382524E-01 -1.62341319E-01 -4.48528058E+00  8.35462392E-01
 -1.40753532E+00  4.68649226E-01  1.62388928E-01  4.48659725E+00 -8.35957107E-01
 -1.40764122E+00 -4.70307751E-01 -5.01425333E-03 -1.77125218E-02  9.02645636E-02
 -3.83914268E-02 -1.27100826E-01 -1.14461450E-02  8.69747943E-02  2.04916878E-01
 -1.31358882E-02  6.97783922E-02  9.78406638E-03  2.00099086E-03  1.22528990E-01
 -7.01970201E-02  5.03063246E-03  1.77733930E-02 -9.06901550E-02  3.87772845E-02
 -1.26448752E-01  1.09103797E-02 -8.63426542E-02  2.05836662E-01  1.31208346E-02
 -6.98290898E-02 -1.00611996E-02  1.90346832E-03 -1.22300366E-01 -6.99666746E-02
  5.20882628E-02  3.00671851E-01  7.48148804E-01 -1.04875630E-01 -1.35779043E-01
  5.46182666E-02  1.68679316E+00 -2.11753760E-01  4.21331311E-01 -5.30816762E-02
 -5.44234180E-02 -1.68452912E+00  2.11844758E-01  4.20409329E-01  5.36523181E-02
 -5.21823328E-02 -3.02669917E-01 -7.47022270E-01 -1.03904872E-01  1.36911730E-01
  2.73008573E-02  1.07291116E-01 -8.25726775E-01 -1.89410766E-01 -6.10201140E-04
 -1.86797533E-03  3.49659327E-01 -5.82823654E-03  1.76118461E-03  3.14611502E-01
  2.12359888E-02  6.70597570E-05  1.09114757E-01 -1.78540039E-04  4.48539085E-03
  2.28891997E-02 -3.42983172E-01  4.81023708E-02  2.66422491E-01 -1.32442246E-02
  3.99408927E-02  3.57431543E-01 -5.21505960E-02  2.43455852E-02  1.55495389E-02
  3.46407669E-02  3.67311264E-01 -4.35578124E-02 -8.78958131E-03 -3.02246548E-02
  1.04679022E-01  8.09936481E-02  9.75756961E-02  1.08625943E-02  6.12990681E-01
  1.59227727E+00  1.46546451E-02 -1.10096516E-01  8.33939145E-03  2.72602796E-02
  2.50734343E-01 -2.12980253E-01  8.50267124E-03  3.24652640E-02 -2.40085675E-01
  4.29036653E-01 -4.59385192E-05 -3.78410040E-02  2.25699363E+00  5.22005957E-03
 -1.24009020E-01 -9.06484763E-02 -1.48327860E-02 -5.61307540E-06 -2.01068977E-01
  4.71787378E-04 -8.73814300E-03 -3.00282433E-02  1.03462472E-01  8.08744160E-02
 -9.75117995E-02  1.13748900E-02  6.08061867E-01 -1.58451349E+00  1.33652024E-02
 -1.10070658E-01  8.36695628E-03 -2.72300907E-02  2.51515119E-01  2.13266405E-01
  4.47764366E-03  2.28775931E-02 -3.43464602E-01  4.87997852E-02 -2.67409701E-01
 -1.37380628E-02  3.13481542E-02 -3.69903398E-01 -5.22085851E-02  2.46367612E-02
  1.51235907E-02 -3.48839790E-02  3.67131142E-01  4.32559913E-02  1.77656734E-04
  2.26299881E-03 -4.74595559E-02 -9.80012781E-02 -3.44596002E-05  1.11353918E-02
  2.51421661E-01  5.41041890E-04 -1.64177283E-03 -4.55207278E-02 -1.10130876E-02
  6.17773044E-05 -2.78017819E-01 -2.20228160E-04  1.47311513E-02  5.36530398E-02
 -1.46696531E-01  1.58055010E-01 -6.64816441E-04  7.77509732E-03  1.66535038E+00
 -4.68909085E-03  1.29887179E-01 -1.16541695E-02  9.48258493E-03 -2.69627759E-04
 -6.53454739E-02 -2.95062853E-04  6.62475958E-02 -9.91869691E-01 -1.20663349E-01
 -6.54303887E-01  5.84474392E-02  6.62742902E-02 -9.82740444E-01 -1.21964170E-01
  6.51867750E-01  5.82306435E-02 -7.01030825E-03 -2.49589986E-02  1.50616965E-01
 -2.27197728E-01 -1.87898650E-02 -7.23478293E-03  1.39396393E-01  1.08524945E-01
  5.21641807E-03 -3.42102439E-02 -2.46713073E-03 -4.00407105E-04 -2.98577880E-02
 -3.34929111E-04 -7.00086842E-03 -2.49215527E-02  1.50322333E-01 -2.27349506E-01
  1.85789296E-02 -7.17451030E-03  1.39580833E-01 -1.08514590E-01  4.99739217E-03
 -3.41655370E-02 -2.18535917E-03  1.72532254E-04 -2.96965239E-02  2.24601135E-04
  4.54120318E-02  1.10773884E+00  4.69218862E-01  1.55219994E-01  8.02708600E-02
 -1.12174182E-02  5.16668377E-01 -1.27546993E+00 -6.00374589E-01 -3.77266877E-03
 -1.11608935E-02  5.15288602E-01 -1.27795254E+00  6.01457550E-01 -3.22559914E-03
  4.54449707E-02  1.11528463E+00  4.70035123E-01 -1.57105454E-01  7.95273305E-02
 -1.18101966E-03 -6.00136213E-03  5.11926053E-02 -6.47320131E-02  1.23011337E-03
  6.64515830E-02  1.24599442E+00  8.71411386E-03 -4.97168544E-02  7.73825508E-02
 -6.57696613E-02 -1.11465195E-03 -2.14624717E-02  4.33766990E-04 -3.39065791E-03
 -1.59452600E-02  2.06828401E-01 -1.39754524E-01 -4.34376737E-02 -2.58429292E-02
 -9.27076717E-01 -2.80413746E-01  3.00265822E-01 -2.24643056E-01 -1.29069277E-02
 -1.42465251E-01  2.52736761E-01  3.77757825E-02  3.93763370E-03  1.90293401E-02
 -2.45789701E-01 -2.12449886E-01  6.54542871E-02 -7.46067193E-03  8.03449215E-02
 -3.88289123E-01  1.38652828E-01  7.03827772E-02  1.05215320E-02 -1.23419977E-01
 -6.53945868E-02 -2.13580673E-04  7.38585414E-03  3.23133902E-02 -3.59301479E-01
  2.09551090E-02 -5.18885781E-04  1.14697997E-01 -1.15699551E+00 -1.21635171E-02
  1.50987708E-02  1.90583578E-01  6.48344057E-02  3.77873588E-03  8.45186398E-02
 -1.25435319E-03  3.72402968E-03  1.82383286E-02 -2.41381255E-01 -2.13067511E-01
 -6.56159840E-02 -1.36223387E-02  7.40030947E-02  3.61239359E-01  1.53694351E-01
  7.31486691E-02  1.67139966E-02  1.21905846E-01 -6.94006894E-02 -1.35300419E-03
 -3.35380193E-03 -1.58641062E-02  2.07973059E-01 -1.45146844E-01  4.64712627E-02
 -1.98285046E-02 -9.16499733E-01  3.07449245E-01  2.85202151E-01 -2.26370374E-01
 -1.30426563E-02  1.40628794E-01  2.54874560E-01 -3.77928786E-02  1.09067620E-02
  4.20492421E-02 -1.62708831E-01 -6.45417492E-02  5.46471490E-05 -2.60775070E-02
  6.08542521E-01 -1.89431933E-03 -4.10550061E-03  1.33397731E-01  8.27148049E-03
 -2.97372736E-03 -4.56069482E-01 -1.18022629E-03  1.73744954E-03  8.12632322E-03
 -4.73673807E-02 -5.61547192E-02  3.41519397E-03 -5.52823971E-02 -6.27053067E-01
  2.07281831E-02 -4.46376497E-02 -1.34795206E-01  3.88501475E-02  5.04114795E-03
 -4.21131007E-02  1.71405995E-03  5.20415139E-04  4.17096746E-01  6.05163284E-02
  3.98063975E-01 -2.16312888E-02 -9.17739520E-04  3.62381836E-01  6.76526965E-02
 -3.78423342E-01 -3.29064917E-02 -1.51591847E-02 -5.66747871E-02  3.81220105E-01
 -2.29305014E-01  1.87901425E-01  3.16654564E-02  7.57022944E-02  1.13610923E-01
 -3.42649674E-02  1.53657301E-01 -1.38696248E-02  2.19304741E-02 -1.42812492E-01
  1.65761252E-01 -1.51895158E-02 -5.68007701E-02  3.82325754E-01 -2.27180804E-01
 -1.89240056E-01  3.37292960E-02  7.47212443E-02 -1.12783807E-01 -3.26968419E-02
  1.53003549E-01 -1.51555222E-02 -2.18408049E-02 -1.43538426E-01 -1.67220572E-01
  1.46835629E-02 -6.80468410E-01  5.37205208E-01 -4.69941553E-01 -2.90632166E-01
  3.18976882E-02  9.85768506E-02  4.05977529E-01  4.23874149E-01 -2.11961931E-01
  3.17752742E-02  1.15887115E-01  4.13426536E-01 -4.27942849E-01 -2.20711421E-01
  1.43889121E-02 -7.00209326E-01  5.34249524E-01  4.75327220E-01 -2.78479222E-01
 -2.36974608E-06 -1.06789932E-05 -2.40231093E-04 -5.97919050E-04  4.81216463E-02
  3.63329806E-03  8.51532461E-03  9.40842959E-01 -3.19889078E-03  2.28266093E-04
 -2.99633988E-03  1.15493971E-01  5.65017599E-04 -5.27915537E-03  7.13893887E-03
  2.95451032E-02 -2.58541976E-01  5.64715887E-02  1.46777273E-01  3.24231000E-01
 -3.75622879E-01  7.51402460E-01 -8.43493815E-01  1.07551805E-01  8.09018594E-03
  9.14515422E-02  4.80742897E-02 -5.66816125E-03  4.00071335E-03  1.57277587E-02
 -1.11845775E-01 -4.53463565E-02 -1.81075213E-02 -3.24942381E-01 -3.04117647E-01
 -2.56567502E-01  7.86915916E-01  6.06216060E-02  3.22468033E-01  6.21643537E-02
 -2.85504887E-02  1.31791175E-02  5.31288300E-05  2.37692913E-04 -2.91714614E-03
 -2.32892719E-04 -7.47817748E-02  4.49554266E-03 -2.17177553E-02 -3.11869803E-01
 -1.19818633E-03  2.22125816E-03  3.02489612E-03 -4.02347994E-01  5.21603038E-04
 -7.93408948E-02 -3.83738538E-03 -1.50517011E-02  1.05618658E-01  4.28153081E-02
 -1.92720463E-02  3.24048069E-01  3.11543823E-01 -2.42257203E-01 -7.70396513E-01
 -6.09130853E-02 -3.21039703E-01  7.42183123E-02  3.02021560E-02  1.32253888E-02
 -7.17684150E-03 -2.97008751E-02  2.60117523E-01 -5.69560789E-02  1.47753641E-01
 -3.26724899E-01  3.60824237E-01  7.54387997E-01  8.71110395E-01 -1.09198079E-01
 -8.56115828E-03  1.04303463E-01 -4.66037386E-02 -6.06612758E-03  6.77760367E-05
  2.59707305E-04 -9.48207982E-04 -2.70558368E-04 -4.47725987E-03 -9.65832876E-04
  2.95111584E-03 -1.90591467E-01 -8.28745004E-05  5.90463925E-04  1.65829383E-04
  2.82470020E-01 -2.52162167E-03 -5.52314257E-02  8.24185292E-05  3.41568376E-04
 -1.49846606E-03 -7.75735124E-04 -4.95891189E-02 -1.95376405E-03 -1.14037992E-02
 -2.60243572E-01 -2.00239755E-03 -1.11018619E-03  3.59907224E-04 -4.39738387E-01
 -1.82508276E-03  1.08279239E-02 -5.02483227E-02 -5.46166670E-01  8.92081835E-02
 -3.20065538E-01 -7.37524513E-01  5.10939014E-02  5.63769039E-01 -8.90904797E-02
 -3.31194519E-01  7.37658098E-01 -6.80483008E-04 -2.10758819E-03  3.50297604E-03
 -4.98745826E-02 -4.33051582E-02  7.27825086E-02  4.23790958E-02  4.50936326E-02
  9.19139012E-02 -1.12149659E-02 -7.74428849E-02 -1.45033022E-02  3.04929702E-02
 -2.52613436E-02  5.19757328E-04  1.50491447E-03  5.89211505E-04  4.71681073E-02
 -4.56819709E-02 -7.01201665E-02 -4.11745080E-02  4.39750151E-02 -9.47072559E-02
  1.27276885E-02  7.57908748E-02 -1.63730512E-02 -3.22362964E-02 -2.67187472E-02
  2.99880070E-02  8.01446405E-01  1.73304090E-01  1.47424665E-01  6.22654351E-01
  3.32337479E-03  1.22388398E-01 -1.52053313E-01  2.09008067E-02 -4.36244066E-01
 -2.80251093E-03 -1.25278782E-01  1.54360075E-01  1.64176238E-02  4.12678012E-01
 -3.00175584E-02 -8.11566243E-01 -1.68098574E-01  1.51833912E-01 -6.47635447E-01
  1.70453502E-03  7.36022574E-03 -8.18019997E-02 -3.93782764E-05  4.07203207E-03
  2.84097645E-01 -2.16891736E-01  3.05162166E-02 -2.38339885E-01 -3.56304429E-02
 -2.34576647E-01 -2.34023495E-03  4.27054666E-02  2.18153032E-03  1.29129905E-03
  6.74951799E-03 -9.59794660E-02  8.31982546E-02  3.36489755E-02 -1.35895248E-01
  6.97810803E-02  1.91878902E-01  1.16874540E+00  9.31775458E-02 -1.21487502E-02
 -5.10388464E-01 -8.91646285E-02  2.03808238E-03  3.47152445E-03  1.26011988E-02
 -7.16776342E-02  2.90348581E-02 -3.42046918E-03 -3.16185190E-03  3.20578745E-01
 -3.86181339E-01  6.79942693E-01 -7.33351120E-02  9.66623482E-02 -4.89169630E-01
  9.37222364E-02 -2.13816783E-03 -1.38980310E-03 -5.38267787E-03  2.89428489E-02
 -3.09338547E-02 -2.94207181E-03  3.39426683E-01 -8.00653837E-01 -3.67325397E-02
 -2.14395020E-01  4.51442035E-02  2.68201259E-01  5.10302072E-03 -7.20079395E-03
 -4.78346506E-03  2.77866135E-03  1.00426544E-02 -5.78661937E-02  2.83396422E-02
  9.21919177E-04 -1.31604683E-02  3.01616587E-01  3.04352154E-01  7.05496485E-01
 -6.60818745E-02  1.06064775E-01  4.86652108E-01  8.26921019E-02 -1.71137624E-03
  1.20487612E-03  6.19629194E-03 -8.59971397E-02  6.52839060E-02 -2.14515188E-02
 -1.27009932E-01  1.00919260E-01 -9.91475461E-02  1.14591565E+00  8.47591873E-02
 -1.13431111E-02  5.07408572E-01 -8.35751288E-02 -1.64995702E-03 -2.86409797E-03
 -1.09359590E-02  4.15222928E-02  4.78642569E-03  1.24115658E-04 -7.68437841E-02
 -1.70137630E-01 -7.78912516E-03 -3.66812065E-02 -3.53457056E-02  7.92272222E-03
 -4.56172339E-03  1.11206628E-01 -2.29660740E-03  5.45119414E-03  2.20116479E-02
 -9.02446662E-02 -9.45033175E-03  9.29287768E-03 -1.36003385E-01 -4.03790484E-01
  5.82916607E-02 -1.31868375E-01  3.67974206E-02 -5.91119632E-03  8.19235173E-03
 -1.05445264E-01  5.35767024E-03  2.23274652E-02  4.33085272E-01 -2.84936678E-02
  1.71698558E-01  7.02212415E-02  1.90510538E-02  2.83147182E-01 -9.83256490E-03
 -1.20223852E-01  5.79588000E-02  4.21606137E-03  1.58441799E-02 -1.07435444E-01
  3.67242168E-02 -5.43443748E-02  1.21552642E-01 -8.26636757E-04 -2.52442874E-02
 -1.29408349E-01 -4.55712800E-02 -6.58010068E-02  9.37252898E-02  3.47786090E-02
 -5.64076246E-02  4.08984905E-03  1.53265633E-02 -1.03055061E-01  4.32159317E-02
  5.04333853E-02  1.23309584E-01 -4.07956708E-03  2.90155294E-02 -1.25911589E-01
 -4.82990972E-02 -6.84136481E-02 -9.30666291E-02  3.11194369E-02  5.31548783E-02
 -4.53909692E-03  2.53680879E-01 -1.24731166E-01  1.90099717E-01 -1.02756281E+00
 -3.34510322E-03 -2.78946485E-01 -1.96353327E-01 -1.17392694E-01 -1.00802007E+00
 -3.59592385E-03 -2.27702201E-01 -1.72215409E-01  1.05096800E-01 -1.02227360E+00
 -6.40630710E-03  1.75120834E-01 -1.36919005E-01 -1.70554772E-01 -1.00931880E+00
 -9.77335202E-06 -2.63426906E-05 -6.94470681E-04 -4.70348622E-04 -1.91208989E-01
  7.02117865E-03  4.33207278E-03 -1.66188268E+00 -6.18964140E-03 -1.04364311E-03
 -6.09121895E-03  4.12104095E-02  6.45620396E-04 -9.14576949E-02 -4.63173394E-03
 -2.33604753E-02  3.14504565E-01 -4.20222584E-01 -3.13480737E-01  4.67418946E-02
  8.63912356E-01 -2.24021297E+00 -9.18367274E-02 -2.34729885E-01  6.06614596E-03
  7.04526347E-03  8.94575767E-02 -2.44287640E-03 -1.66130605E-02 -6.17278554E-02
  3.43802156E-01  3.05254862E-03  6.15162054E-02 -6.12576981E-02 -2.98778779E-01
  1.82472440E+00  1.94831491E-01  1.20123781E-01  6.58539264E-02  1.09091922E-02
 -2.40075303E-01  9.29773341E-02  4.31739313E-05  1.97521721E-04 -2.72295654E-03
 -1.43226610E-03  1.41770225E-01  8.77549443E-03 -3.78490978E-02  1.76687000E+00
 -4.02641746E-03  3.40386178E-03  6.79776060E-03 -5.30753000E-02  9.98451605E-04
  2.30101433E-01  1.69220555E-02  6.29433222E-02 -3.53422022E-01 -5.18629189E-03
  6.01791315E-02  6.04128289E-02  3.16510847E-01  1.85592848E+00 -1.59607051E-01
 -1.21996761E-01 -6.12582939E-02  3.56431012E-02  2.43714564E-01  9.24486199E-02
  4.60453226E-03  2.32860254E-02 -3.14534098E-01  4.21868840E-01 -3.13123407E-01
 -5.30534176E-02 -8.78627199E-01 -2.24131086E+00  1.47664797E-01  2.35234126E-01
 -7.00143426E-03  3.25560722E-02 -9.11005725E-02 -3.40510972E-03  3.35046292E-05
  1.30704504E-04 -4.81439800E-04 -6.08477647E-04 -1.08638122E-02 -2.25140850E-03
  1.83716920E-04  4.00284170E-01 -4.75347134E-04  2.79526657E-04  2.40908817E-04
  6.18238915E-02 -7.07798110E-04  1.24587531E-01  1.55748074E-04  6.50745569E-04
 -2.93923161E-03 -1.44739088E-03 -3.78628689E-01 -3.69511328E-03 -2.13397573E-02
 -2.37100074E+00 -5.10713602E-03 -6.22816381E-05 -1.12736142E-04 -1.65262492E-01
 -3.44652911E-03 -2.37047898E-01 -4.51525136E-02 -2.97843958E+00  3.20309663E-01
 -1.00343243E+00  6.55246591E-02  4.61518798E-02  3.01054724E+00 -3.20306025E-01
 -1.02153455E+00 -6.50421414E-02 -2.37092920E-03 -1.00110178E-02  9.08288166E-02
  1.66607517E-01  9.95953269E-02  1.89797017E-02 -9.43576704E-02 -9.82630779E-02
  1.77508752E-02 -4.96557768E-02 -1.87998936E-02 -8.68034904E-04 -8.94377888E-02
  8.87659911E-02  2.35684596E-03  9.95980742E-03 -9.05037440E-02 -1.67770998E-01
  9.88764824E-02 -1.29465429E-02  9.52352726E-02 -9.82939811E-02 -2.42484607E-02
  4.99711950E-02  1.54802868E-02 -5.15041239E-03  8.87256230E-02  8.89985768E-02
 -4.98122056E-02 -1.93857541E+00 -3.45984964E-01 -4.51803331E-01  9.59673681E-02
 -6.57506322E-03  1.04898169E+00  5.78278360E-01  2.75232648E-01 -1.45336310E-01
  7.03546868E-03 -1.06087481E+00 -5.78043673E-01  2.71743245E-01  9.57777776E-02
  4.93480254E-02  1.93328991E+00  3.46805654E-01 -4.53142352E-01 -1.48556988E-01
  9.73397736E-05  3.52904686E-04 -7.46463888E-05  1.76428470E-03  2.45096161E-01
  5.37941046E-04 -1.33306281E-02  3.66646503E+00  1.26177902E-03  4.17710939E-03
 -2.43712258E-04  2.84563426E-03 -4.72806424E-03 -2.41335417E-01  9.33652831E-03
  3.83860831E-02 -3.38197099E-01 -2.88630809E-01  2.59156337E-01 -6.12845780E-02
 -2.83922333E+00  1.05092539E+00  1.89773865E-01  5.12144523E-02  1.50413705E-02
 -2.27231562E-02  1.50096907E-01  6.58559765E-02  5.54886625E-03  2.60528732E-02
 -3.25608263E-01 -2.70492833E-01  9.47662700E-02  5.99799131E-02 -3.06196759E+00
 -1.47782332E-01 -1.52370872E-01  9.76306018E-02 -5.41496126E-02 -9.80389206E-03
 -2.52334987E-01  1.81452616E-01 -8.00731975E-05 -3.52737194E-04  4.67346472E-03
  6.15315159E-03 -2.37004506E-01  7.51196486E-04  1.23407916E-01 -2.31068625E+00
 -4.94544723E-03 -9.85110095E-03  1.07666154E-03  7.67546219E-02 -4.04649082E-03
 -2.58187209E-01 -6.60534810E-03 -3.01400208E-02  3.55913714E-01  2.76054458E-01
  1.02306228E-01 -5.84156900E-02  2.98600542E+00 -2.59064249E-01  1.54183153E-01
 -8.90374610E-02  5.62719453E-02 -8.29300434E-03  2.37479109E-01  1.80407703E-01
 -9.31188172E-03 -3.84295943E-02  3.41389576E-01  2.77508624E-01  2.60529726E-01
  5.92454219E-02  2.87720299E+00  1.05334656E+00 -1.80844887E-01 -5.81483553E-02
 -1.40048718E-02 -2.05192909E-02 -1.38631961E-01  6.83937676E-02 -4.60989808E-05
 -1.80588448E-04  5.42307024E-04  1.33747847E-03 -1.67263737E-01  2.58571086E-04
  1.68872765E-03 -2.82413337E-01 -1.33789455E-03 -3.22114503E-04 -3.77334171E-04
 -3.62348136E-02 -5.80169126E-04 -4.75565394E-02 -5.89924207E-04 -2.45843537E-03
  1.10583381E-02  5.74499310E-03  1.41651328E-01 -8.03592979E-05  5.95282799E-02
  8.66798798E-01  5.35782778E-03 -4.61280563E-03  8.63606729E-04  1.08807977E-01
  7.15782410E-03  1.09277477E-02 -4.14774660E-02  4.65231923E-01 -9.69114723E-01
 -8.25139949E-01  3.45366360E-02  3.83668606E-02 -5.65506111E-01  9.70516315E-01
 -7.72831479E-01 -2.65973105E-02  1.59058893E-03  5.75080931E-03 -3.31087416E-02
 -7.60949020E-03  2.79166247E-02 -2.43520036E-03 -2.76053404E-02 -1.21446048E-01
 -1.81268945E-02 -1.21186896E-01  1.11303035E-02  7.43107393E-03 -3.70169029E-02
  4.13047532E-02 -1.64622278E-03 -5.95136997E-03  3.42748619E-02  1.02268725E-02
  2.77710135E-02  3.68860788E-03  2.36587924E-02 -1.22040366E-01  1.71507930E-02
  1.21233934E-01 -1.17071591E-02  6.47246510E-03  3.87730976E-02  3.84260378E-02
 -2.61347354E-03  3.30935200E-02  1.46570134E-01  1.71590812E-01 -1.03881090E-01
  6.75708573E-03  1.51056379E+00 -5.85884953E-01  3.54497986E-01  3.88645282E-02
 -8.59421059E-03 -1.46059813E+00  5.95216279E-01  3.64732854E-01 -4.53604196E-02
  3.80557478E-03 -2.88889339E-02 -1.44333130E-01  1.87017315E-01  9.97026765E-02
  3.35938971E-03  1.18999474E-02  2.72643550E-02  8.45143289E-02 -5.45216536E-03
  4.95793811E-02 -6.67203994E-01 -7.99614284E-02 -2.80242844E-02  2.02221020E-01
 -6.59445652E-03 -1.55914726E-04 -2.35171813E-01  5.01110185E-03  4.27640686E-04
 -1.92842051E-03  9.34377306E-02 -2.64559273E-01 -5.51362439E-02 -7.01909310E-02
  9.46409333E-01 -7.26557782E-02  2.97889714E-01 -1.72398972E-01  3.68311004E-02
 -6.78283570E-02  2.60968565E-01 -4.97336079E-02 -2.51197881E-02 -9.72170568E-02
  7.21534823E-01  1.22264307E-01 -1.68479524E-01  4.23502696E-02 -1.68480426E+00
  2.53944654E+00  7.40424721E-02  2.10858919E-01  6.89053987E-02 -5.16460511E-02
 -3.45069720E-01  1.78928758E-02 -3.51551627E-03 -1.57521835E-02  2.18496863E-01
  2.97593889E-01  5.28301860E-03  5.48479672E-02  5.76375054E+00  5.30788321E-02
 -2.96904048E-01 -4.72421792E-01  5.46461798E-02 -1.74404436E-03 -1.73588108E-01
  5.98402896E-03 -2.48272061E-02 -9.59094544E-02  7.06905286E-01  1.10175454E-01
  1.64801547E-01  4.54859087E-02 -1.81515255E+00 -2.52049017E+00  6.53525270E-02
  2.14229367E-01  6.63439195E-02  5.21542690E-02 -3.54724389E-01 -2.50845756E-02
  7.97824613E-04 -3.99635729E-04  7.98632168E-02 -2.75524732E-01  4.40886540E-02
 -7.32171366E-02  8.19091513E-01  2.07240472E-02  3.08485075E-01 -1.69786294E-01
  3.70511802E-02  6.89242050E-02  2.66898774E-01  4.64400346E-02 -1.67576044E-03
 -6.71735734E-03  2.16215994E-02  6.11209600E-02  3.66174822E-03  1.65617997E-02
  6.57287894E-02  5.96935966E-03 -5.88912775E-02 -1.20854889E-02 -3.20902855E-02
  7.48915183E-04 -2.51229965E-02  1.00507572E-03 -2.81636675E-02 -1.17223048E-01
  5.25995792E-01  2.68405021E-01 -3.90339963E-03 -8.94662097E-03  2.77336170E+00
 -2.51042732E-02  2.42120936E-01 -2.29757961E-01  3.12220111E-02 -2.74725823E-03
  3.37472677E-01 -1.00777769E-03 -7.46638752E-02 -2.37703041E+00  6.71525254E-02
 -1.20881226E+00  2.07957368E-01 -7.60966539E-02 -2.34019829E+00  2.63614338E-02
  1.23593945E+00  2.10401388E-01 -1.39702095E-03 -5.09739924E-03  3.01589052E-02
  7.77675841E-02  1.29214282E-02  3.23558771E-02 -1.05414300E-01  3.76840419E-04
 -3.44821845E-02  5.68874651E-03 -2.15169581E-02  3.82993298E-02  4.49642469E-02
  7.40890110E-02 -1.30108657E-03 -4.74678153E-03  2.80740487E-02  7.71281830E-02
 -1.38532504E-02  3.24533921E-02 -1.06860506E-01  4.42808702E-03 -3.54413063E-02
  1.15200237E-03 -2.08334257E-02 -3.86603682E-02  4.36392689E-02 -7.56950160E-02
  2.83903869E-02  9.26641270E-02  5.21927463E-02 -3.81727342E-01 -1.21320418E-01
 -3.88671264E-02  1.12178711E+00  2.67755047E-01 -2.29969686E-01 -2.13489720E-01
 -3.85433083E-02  1.17905121E+00  2.43136364E-01  2.15473157E-01 -2.11269787E-01
  2.83662352E-02  9.57418770E-02  5.86477103E-02  3.73998939E-01 -1.27232194E-01
  6.49669700E-03  2.38312748E-02 -1.31580083E-01  1.42374545E-01 -1.82585645E-04
 -2.24609765E-02  1.02155490E+00 -6.39415006E-03  1.20394753E-01  7.05282584E-02
  6.14600336E-02  1.30166372E-04  2.38763535E-01  1.24298727E-05  1.61457786E-02
  6.37235360E-02 -4.89100056E-01  5.36317571E-02  3.23519906E-01 -5.22131621E-02
 -3.78541672E-01 -6.21512252E-02  1.82047786E-01  1.70591579E-01  5.87707544E-02
  1.90735301E-02  3.07338279E-01 -1.54991984E-01  1.69020630E-03  6.34514996E-03
 -4.35206742E-02 -2.11950458E-01 -1.28869019E-01  7.29261330E-02  2.51653981E-01
 -9.30772205E-01 -2.94043359E-01 -2.84203376E-02  7.35117752E-02  2.55586240E-03
 -4.23508816E-01  1.28756077E-02 -2.32827173E-02 -8.83230799E-02  6.09039332E-01
 -1.09664694E-01  4.68374900E-04 -2.57957789E-02 -5.92651581E-01  6.88599751E-03
  6.29019259E-02 -1.38623182E-01  6.48999589E-02  9.65512439E-05  8.56703808E-02
  1.08807810E-04  1.72327842E-03  6.47209367E-03 -4.43075570E-02 -2.12486309E-01
  1.28805181E-01  7.36712474E-02  2.41444344E-01  9.42177701E-01 -2.97177477E-01
 -2.84687427E-02  7.38666830E-02 -2.68655197E-03 -4.23567264E-01 -1.32600599E-02
  1.61333470E-02  6.36789712E-02 -4.88984779E-01  5.34671433E-02 -3.23510062E-01
 -5.30584306E-02 -3.90236480E-01  5.11803245E-02  1.84439226E-01  1.70544925E-01
  5.88459733E-02 -1.92612753E-02  3.07427276E-01  1.54334824E-01 -6.50563651E-03
 -2.13398267E-02 -7.64132282E-03 -5.57753426E-02 -1.84264652E-04  4.22477726E-02
  3.54004184E-01  4.62451939E-04 -1.10125974E-01 -9.36024929E-02 -6.08948045E-02
  5.06019779E-04 -1.69631421E-01 -1.50984090E-04 -5.55410116E-03 -2.15354658E-02
  8.12095793E-02  1.03680755E-01 -3.03710794E-04 -9.51616551E-03 -8.74174610E-02
 -2.23984843E-03 -9.09496460E-02  3.65857605E-02 -7.66040458E-02 -3.73103190E-04
  3.03900793E-01 -3.32500884E-04 -9.65554310E-02  1.28009267E-01 -1.06922554E-01
  3.54743729E-02  4.78668431E-02 -9.64245474E-02  1.33468225E-01 -1.07371064E-01
 -3.74402547E-02  4.82372866E-02 -8.62313328E-03 -3.14858030E-02  2.04999949E-01
 -2.33133953E-01 -3.08726977E-01  2.92116753E-02  2.83164998E-01  4.47022593E-01
 -3.15415280E-02 -4.09777457E-02 -1.16643540E-02  4.36853942E-02  4.31702408E-02
 -1.23116813E-01 -8.63084053E-03 -3.15122637E-02  2.05114029E-01 -2.33141954E-01
  3.08670193E-01  3.09259849E-02  2.83440936E-01 -4.47428964E-01 -3.45685545E-02
 -4.08574474E-02 -1.03229155E-02 -4.54808652E-02  4.32394965E-02  1.22965792E-01
  6.52120127E-03  7.89135395E-01  4.88895618E-01  7.07605679E-02  4.25255135E-02
 -2.59888683E-02 -8.73989052E-01  7.13338934E-01  4.56772870E-01  3.19914770E-02
 -2.58642530E-02 -8.75987972E-01  7.13845564E-01 -4.57933316E-01  3.30592955E-02
  6.45236983E-03  7.91511145E-01  4.89660104E-01 -7.03526217E-02  4.16113797E-02
 -2.16356696E-02 -8.47753650E-02  7.20580104E-01 -3.50393939E-01  5.42182774E-03
 -2.06541475E-02  6.65843529E-01 -1.41233338E-02  1.30160478E-01 -3.25239497E-01
  6.36502146E-02  6.95050100E-05  2.41772160E-01 -2.58470136E-03 -2.13993744E-03
 -5.46810941E-03 -1.18549265E-01  8.47284764E-02 -4.86464586E-02 -5.75036091E-02
  2.38042429E-01 -1.18338550E+00  2.35892355E-01 -4.24100019E-02  5.93441542E-02
  1.43725997E-02 -2.30355694E-01 -2.10614535E-01  8.54673291E-03  3.35140119E-02
 -2.30845741E-01  3.01720169E-01  4.81651950E-02  8.55646932E-02 -9.23614765E-01
  1.52195786E+00 -3.01451312E-01  1.68850440E-01  1.08151115E-01 -3.36456660E-03
 -1.59277060E-02 -1.40059376E-01  4.05743925E-03  1.29604486E-02 -1.25326277E-02
  4.70583481E-02  3.36926047E-03 -4.11059725E-02  2.20395725E+00 -7.06593060E-03
  2.59897111E-02 -1.10409960E-01  7.24895655E-02 -3.34961979E-04 -1.11719969E-01
  2.88183484E-04  8.93879106E-03  3.50686739E-02 -2.42569863E-01  2.99922752E-01
 -5.19660848E-02  8.56557347E-02 -9.45162881E-01 -1.52512917E+00 -3.02303271E-01
  1.74534231E-01  1.07723786E-01  3.55133324E-03 -1.61866140E-02  1.35413248E-01
 -1.86654205E-03 -4.41094864E-03 -1.25685394E-01  8.78772618E-02  4.95311500E-02
 -5.77273031E-02  2.41293323E-01  1.16905158E+00  2.36556185E-01 -3.79140815E-02
  6.00426764E-02 -1.41436991E-02 -2.34634485E-01  2.16464391E-01  1.42058215E-02
  5.48053393E-02 -2.15838903E-01  3.07566844E-02 -8.98075723E-04  4.96472062E-02
 -3.98567143E-02  1.14978015E-03 -1.37980087E-01  4.15344150E-02 -7.53951743E-02
  3.34904555E-04  1.91616169E-01  1.38170556E-04 -1.12730402E-02 -4.63323702E-02
  2.00260524E-01  5.92675200E-02 -6.13453974E-04 -1.86603011E-02  7.56002414E-01
 -2.74140809E-04  5.10160733E-02 -3.88058486E-02 -6.04370002E-02  4.06680581E-04
  5.55238029E-02 -9.24315928E-04 -2.67427772E-02 -6.58553008E-01  5.35388630E-02
 -4.43573663E-01  5.86880585E-02 -2.58163686E-02 -6.50485347E-01  5.44984739E-02
  4.38805808E-01  5.84332316E-02 -5.37258822E-03 -1.99984145E-02  1.29053721E-01
 -1.82828978E-01  2.47104640E-02  3.82568061E-02  4.61388817E-01  2.18663569E-02
 -4.27275469E-02  2.52576306E-01 -1.42350744E-02  5.64376683E-02 -2.08760823E-01
 -1.26206290E-01 -5.48138012E-03 -2.04020592E-02  1.31551845E-01 -1.83622122E-01
 -2.59447601E-02  3.77902465E-02  4.64563290E-01 -2.15516057E-02 -4.24111796E-02
  2.51170652E-01 -1.43910202E-02 -5.60388564E-02 -2.10486652E-01  1.27010702E-01
 -1.83272346E-02 -5.55775934E-01 -3.88620157E-01  3.08485905E-01  3.58870453E-02
  9.98128099E-03  9.98913274E-01 -1.34868789E-01 -9.47970014E-02  4.41648407E-04
  1.11999233E-02  1.02940829E+00 -1.26938337E-01  8.52214770E-02  6.12513477E-04
 -1.79873920E-02 -5.33767689E-01 -3.93794174E-01 -3.13198789E-01  3.55613616E-02
 -1.60969847E-04 -6.29250297E-04  5.14675661E-03 -2.71715122E-03 -6.53908390E-01
 -1.07942347E-03  3.07132914E-03  1.48512741E+00  4.70453325E-03 -2.59795626E-03
  2.12972394E-03 -6.81994240E-03  1.50929699E-03  2.39467271E-01  1.78512739E-02
  6.94136400E-02 -4.83892566E-01  1.79759864E-01 -4.73224482E-02 -2.55179428E-02
  5.11666586E-01  7.49028553E-01  1.30129272E-01  3.12851328E-01  1.88111022E-02
 -2.93492836E-02 -2.06068610E-01 -3.66146598E-01  2.12263933E-02  8.36324090E-02
 -6.16742594E-01 -9.66886993E-02  1.44998338E-01  3.70275748E-02 -1.04997115E+00
  4.27580624E-01 -2.06641597E-01  3.27769746E-01 -1.76535609E-02 -2.17301854E-02
 -5.47156228E-02  3.10060730E-01  3.21432602E-05  1.12086168E-04 -3.45981705E-04
 -7.57335370E-05 -4.52437900E-01 -1.44444428E-03  8.64602072E-03  1.01166435E+00
  3.11617994E-03 -2.71531620E-04  2.00319035E-03 -8.19156157E-03 -3.61842902E-04
 -6.37518221E-02 -2.10316364E-02 -8.28629712E-02  6.10841560E-01  1.00474924E-01
  1.43955648E-01 -3.19357070E-02  1.04087959E+00  4.14427631E-01  1.87536963E-01
 -3.25906902E-01  2.33187788E-02 -2.15228719E-02  5.53551144E-02  3.11596738E-01
 -1.79033250E-02 -6.95758419E-02  4.83040106E-01 -1.78749792E-01 -4.57594247E-02
  2.26944825E-02 -5.06165156E-01  7.61661894E-01 -1.18662487E-01 -3.13127725E-01
 -1.64950044E-02 -3.06219393E-02  2.01472913E-01 -3.64064632E-01  1.13092702E-04
  4.31579991E-04 -1.57074873E-03  2.03335210E-04  1.28465593E-01  1.21042240E-03
 -1.02077865E-03 -1.58419937E-01 -4.04280798E-03  4.43285210E-04 -2.29856836E-03
 -3.20275665E-02  1.61191805E-03 -1.01965409E-02 -4.81610832E-05 -1.92953341E-04
  7.51475233E-04 -1.92260369E-05  7.51374947E-02 -6.53529230E-04  2.72843968E-03
  2.00055810E-01 -7.02893730E-04 -3.26308837E-04 -2.15683919E-03 -7.54494233E-02
  5.59173810E-04  1.19348784E-01  7.31251785E-02  6.91873778E-01  2.04058071E-03
  3.49042028E-01 -7.83838730E-02 -7.36851109E-02 -6.95215189E-01 -2.04178718E-03
  3.52306040E-01  7.97984751E-02 -7.77687114E-03 -2.88966889E-02  1.80576705E-01
 -2.33573423E-02  4.75990142E-02  2.95534465E-02  1.68206873E-01  5.84447532E-02
 -5.85528604E-02 -9.40665138E-02  2.48557044E-02  2.88136330E-02 -7.81906764E-02
 -6.41636346E-02  7.72809932E-03  2.87135084E-02 -1.79407131E-01  2.13221109E-02
  4.64210258E-02 -2.69979574E-02 -1.62306883E-01  5.93125856E-02  5.54098754E-02
  9.76597747E-02 -2.52880891E-02  2.54903750E-02  7.51407292E-02 -6.23992466E-02
  2.25577753E-02  1.49208863E+00 -3.38178936E-01  3.01504175E-01 -6.29318686E-02
  6.02490076E-02  1.72786850E+00  5.49347493E-01  4.79817548E-01  6.13192741E-02
 -6.00522689E-02 -1.71687923E+00 -5.51709421E-01  4.80531697E-01 -5.90591694E-02
 -2.30076014E-02 -1.49886399E+00  3.32184916E-01  2.96979893E-01  6.68459902E-02
 -6.28715189E-04 -2.73376707E-03  5.99189175E-02 -4.96232532E-02 -3.31540377E-03
  1.24213397E-01  3.58589145E-01  9.84935123E-03 -6.50556570E-01 -2.24314286E-02
 -2.81837142E-01  1.25022470E-04  6.83885313E-02  1.14114144E-03  2.89822974E-04
  1.70141201E-03 -4.97584053E-02  1.21446971E-02  4.65777440E-02  1.93736402E-01
  1.50953935E-01 -2.70123000E-01 -8.08507051E-01  8.10473514E-03 -2.25697935E-01
 -7.97147638E-02  8.38287527E-02 -1.25550234E-01 -2.48783680E-03 -1.07712949E-02
  1.28788673E-01  8.38382191E-02 -1.00913388E-01 -3.34729863E-01 -3.42864195E-01
  6.61449508E-01  1.46642425E+00  2.70479728E-02 -3.89320535E-01  1.10985656E-02
 -9.81252308E-02 -3.27567278E-02 -2.24771069E-03 -9.33289144E-03  7.18740743E-02
 -2.80641890E-02 -2.33160381E-03  1.87597458E-01  1.34001370E+00  3.43167338E-04
 -5.82935597E-01 -7.99935227E-02 -2.70261344E-01 -1.46731173E-03 -5.16571319E-02
 -1.87782376E-04 -2.57821572E-03 -1.10963450E-02  1.30171038E-01  8.33239442E-02
  9.99209431E-02 -3.36901813E-01 -3.30020414E-01 -6.60746817E-01  1.47940328E+00
  2.47942287E-02 -3.91074043E-01 -1.12997736E-02 -9.73419267E-02  3.55401501E-02
  1.13520398E-04  1.01630820E-03 -4.50446537E-02  9.86473131E-03 -4.68797031E-02
  1.94870380E-01  1.46560211E-01  2.82137609E-01 -8.16856546E-01  4.79433273E-03
 -2.25703323E-01  7.81851218E-02  8.52919856E-02  1.21314865E-01  1.17477338E-03
  5.61143598E-03 -5.13778032E-02  1.30032448E-02  5.10919131E-04 -1.89350963E-01
  8.66784353E-02 -8.78991601E-04  5.52251860E-01 -2.72252136E-02  3.09824184E-01
 -8.68357485E-04  1.87898546E-03 -3.34161463E-05 -8.84906145E-03 -3.64801260E-02
  1.62548489E-01  7.64882124E-02 -8.24334277E-05  1.22080540E-01  4.11798727E-01
  3.08975424E-03  2.10180140E-01 -3.53341497E-02  2.85906200E-01 -1.16786353E-03
 -2.44358474E-02  2.85465739E-04 -8.99317839E-04 -5.75757732E-01  1.30813027E-01
 -2.09237256E-01  4.16724163E-03 -1.99832415E-03 -5.84249470E-01  1.31012367E-01
  2.13547037E-01  7.40255757E-03 -4.24436825E-03 -1.55211962E-02  9.91027018E-02
 -1.06359415E-01 -8.96956798E-02 -1.51253626E-01  1.99761252E-01  1.47284390E-01
  1.74731585E-01  4.77101203E-02  5.01373421E-02 -2.24760114E-01 -3.25003817E-02
 -6.47652821E-02 -4.15814242E-03 -1.52019016E-02  9.71359936E-02 -1.05832416E-01
  8.96080051E-02 -1.58757867E-01  1.97704899E-01 -1.45937906E-01  1.86060449E-01
  4.81689740E-02  4.56334437E-02  2.30377742E-01 -3.21194802E-02  6.39104255E-02
 -2.91368941E-03  1.11734053E-01  2.19024356E-02  1.15634836E-03 -1.96459128E-01
 -9.49220257E-03  1.49404120E-01  1.51481938E-01 -8.69752950E-02 -2.04589205E-01
 -9.65498559E-03  1.40573541E-01  1.43285556E-01  8.81128891E-02 -2.07749698E-01
 -3.57009454E-03  9.29486900E-02  2.51769502E-02  1.95029690E-03 -1.95097039E-01
 -7.71589932E-05 -3.05452755E-04  2.82130171E-03 -8.81041789E-04 -5.94115679E-02
  9.69015941E-04  2.27673289E-03  3.31564380E-01 -4.31520277E-03 -8.11057975E-04
 -2.59687211E-03 -8.13669144E-03  1.20670430E-03  2.38062651E-02 -2.05687683E-03
 -9.59781765E-03  1.28360639E-01 -7.96499029E-03 -7.19463986E-02  2.59081345E-02
 -6.30767837E-01  1.35113826E-01 -2.74003701E-01 -4.36439220E-02 -4.72529597E-02
  1.01179485E-01 -5.46499487E-02  4.46001259E-02  8.82944441E-03  3.60241687E-02
 -3.03147114E-01 -1.44226623E-01  1.50566063E-01 -8.11405141E-02 -3.46211374E-01
 -2.59290081E-01  5.84483086E-01  8.28157062E-02 -1.07969468E-01  1.26774661E-02
  4.11287655E-02  3.58081295E-02  3.61562303E-05  1.26277009E-04 -8.00251093E-04
 -1.38261035E-04 -2.25010274E-02  1.82016531E-03  1.44442425E-02 -2.39482645E-01
 -6.08275641E-03 -5.55112191E-04 -1.94060912E-03  1.88032659E-01 -9.61089185E-04
 -2.09256178E-02 -8.88279168E-03 -3.62621645E-02  3.06311680E-01  1.47484767E-01
  1.51990182E-01  7.54558277E-02  3.36665785E-01 -2.79400222E-01 -5.56265935E-01
 -8.15703106E-02  1.01820956E-01  1.30722522E-02 -4.13619528E-02  3.71708692E-02
  2.01816755E-03  9.45063750E-03 -1.27877980E-01  8.95983219E-03 -7.15078350E-02
 -2.24384917E-02  6.32387057E-01  1.46154166E-01  2.59454186E-01  4.27996375E-02
  4.30318910E-02  1.02992729E-01  5.41955454E-02  4.65564232E-02  3.32164866E-05
  1.27529703E-04 -4.80083921E-04  2.11236306E-04  1.96071103E-02 -1.84237630E-03
 -4.72602962E-04  1.95087259E-02  4.57797507E-03 -2.62178365E-04  2.36077497E-03
  1.46149591E-01  7.90790818E-04  1.82645587E-02 -8.35579663E-05 -3.45784031E-04
  1.55750096E-03  4.84291114E-04  7.89702812E-02  9.74760144E-04  3.71574727E-03
 -2.89796663E-02  2.03335872E-03 -1.54476970E-04  2.60533956E-03  1.41052922E-01
 -8.20479621E-04  5.79808337E-02 -2.00858321E-02  2.61212540E-01  1.23904565E-01
  2.21719879E-01  1.55300972E-01  2.04900409E-02 -2.72148246E-01 -1.20732513E-01
  2.26392801E-01 -1.55151522E-01  1.10324334E-03  3.94981098E-03 -2.34025689E-02
  3.79432820E-02  4.37797342E-02 -4.10670840E-01 -4.32048544E-02 -6.29988604E-02
  6.46812561E-01  1.13121999E-02 -2.61729365E-01 -3.01408925E-01 -1.43985562E-02
  1.55143066E-02 -1.11136150E-03 -3.97655437E-03  2.34922549E-02 -3.88360355E-02
  4.39529312E-02  4.08635414E-01  4.59849310E-02 -6.32978134E-02 -6.44676556E-01
 -9.44229043E-03  2.62777640E-01 -2.97817760E-01  1.33770338E-02  1.68000020E-02
 -1.33966669E-02 -3.28923295E-01  3.07456429E-02 -9.73916747E-02 -3.45092989E-02
  4.34671767E-02  4.95095598E-01 -5.67673383E-02  2.67520307E-01 -7.93632951E-02
 -4.35609433E-02 -4.86550586E-01  5.60656271E-02  2.71827127E-01  7.40973739E-02
  1.35388139E-02  3.23839870E-01 -3.35530143E-02 -9.93496831E-02  2.98730037E-02
 -2.49677844E-05 -1.05335981E-04  1.07429931E-03 -3.75763665E-05 -1.00841945E-02
 -1.18333969E-04 -2.06951902E-03 -5.92039076E-01 -4.94063295E-04 -2.50831387E-04
 -3.64945931E-04  1.67418933E-02  1.45604148E-04 -1.33301582E-03  1.04073491E-02
  4.54116510E-02 -5.06618815E-01  7.89899822E-02  2.03749881E-01 -4.12299705E-02
  1.99613281E+00 -4.19199296E-01  1.64701886E-01  2.02252064E-01  1.71717875E-02
  5.22919148E-03  6.16632651E-02 -2.47405370E-01 -2.05710827E-02 -8.46260776E-02
  7.34615029E-01  4.22911130E-01 -3.71882548E-01  2.56354800E-02  7.46418727E-01
  9.99482800E-01 -7.54477901E-02 -1.89176827E-01 -7.74915683E-02 -7.37970076E-03
 -1.21262926E-01 -3.80422835E-02  1.28730534E-05  4.73077640E-05 -3.32619941E-04
 -8.95645574E-05 -3.58152201E-02 -1.16613477E-05  7.20411742E-04  1.03055514E+00
  4.92367231E-04  1.15670009E-04 -4.50159330E-04  1.02802673E-01  7.97886905E-05
  7.83527136E-02  2.05911095E-02  8.47031827E-02 -7.35147218E-01 -4.22863069E-01
 -3.72120635E-01 -2.66915166E-02 -7.45751604E-01  9.97841915E-01  7.94722286E-02
  1.89291600E-01  7.57157207E-02 -7.64229558E-03  1.22125139E-01 -3.80265551E-02
 -1.04160854E-02 -4.54497033E-02  5.07119218E-01 -7.84572039E-02  2.03749224E-01
  4.23532094E-02 -1.99570207E+00 -4.17315498E-01 -1.68931675E-01 -2.02070416E-01
 -1.83863528E-02  5.43104175E-03 -6.28995733E-02 -2.47990768E-01  1.29351194E-06
 -1.27983888E-06  1.69466272E-04  9.88880109E-05 -3.59037433E-02 -4.40548909E-04
 -7.29040180E-04 -7.33206592E-02  8.93110636E-04  1.03520382E-05  3.97764811E-04
  3.71005855E-02  3.39515356E-04 -4.69106667E-02  5.28611268E-06  2.17162608E-05
 -9.76589184E-05 -9.74670791E-05 -1.58121148E-01  2.79746104E-04 -1.08818951E-04
  2.52775740E-01  6.87737849E-05  1.25748076E-06  3.96036509E-04 -3.10637186E-02
 -5.06247262E-04 -1.70248083E-01  9.31857531E-02 -3.16792529E-01 -5.24353947E-01
 -5.07569313E-01  3.09011398E-02 -9.30324894E-02  3.16294354E-01  5.24602863E-01
 -5.08129935E-01 -3.16577234E-02 -5.09566939E-03 -1.85652261E-02  1.14379782E-01
 -1.29160877E-01 -1.02843238E-01 -1.46612397E-01  1.86848933E-01  1.84457352E-01
  2.25791737E-01 -6.25541429E-02 -9.33938393E-02 -1.00342636E-01  8.80663123E-04
 -6.52733694E-02  5.13996295E-03  1.87292474E-02 -1.15482518E-01  1.30012871E-01
 -1.03591121E-01  1.46633801E-01 -1.87992172E-01  1.85919373E-01 -2.26024060E-01
  6.26967623E-02  9.38403400E-02 -9.96770283E-02 -7.96069761E-04 -6.53682922E-02
  3.87836656E-02  1.23000723E+00 -2.45715250E-01  4.41223806E-01 -1.22389038E-01
 -1.12447733E-01 -9.36517181E-01  2.35684590E-01 -6.60435200E-01  4.36974321E-02
  1.12536176E-01  9.38492667E-01 -2.36915949E-01 -6.60195118E-01 -4.34301453E-02
 -3.85965532E-02 -1.23099691E+00  2.45588451E-01  4.40327595E-01  1.23068800E-01
 -2.12667014E-02 -8.46469559E-02  7.41459150E-01  1.14665299E-01  1.08012138E-03
  3.29940389E-02 -3.16824510E-01  2.09389456E-02 -2.27115624E-01  1.92776323E-03
 -5.06761307E-02 -1.14594976E-05  2.13211959E-01 -8.63668676E-04  2.18056804E-02
  8.63663288E-02 -7.23038267E-01  1.16174144E-01  2.14909167E-01  3.82048780E-03
 -7.04652504E-01 -1.36685478E+00 -2.79518123E-02 -9.70032143E-02 -1.53561257E-02
  5.33761566E-03 -2.52157723E-01  4.09306699E-02  5.49605287E-03  2.70504558E-02
 -3.56400865E-01 -1.53311034E-01  4.69363342E-01 -4.60717315E-02 -1.30990244E+00
  1.51008437E+00  3.52890650E-01  3.65926961E-01 -4.00925187E-02  1.50820394E-02
 -1.72024503E-01 -2.23523485E-02 -4.35743733E-03 -2.05693998E-02  2.85426971E-01
  3.62341040E-01 -1.99198638E-03  3.43135166E-02  2.16226136E+00 -2.32999592E-02
 -3.92057504E-01 -2.34487101E-01 -3.37804160E-04 -5.03402215E-04 -3.63671421E-02
 -2.88130162E-03  5.43574286E-03  2.67974063E-02 -3.53642630E-01 -1.49625399E-01
 -4.72128747E-01 -4.66791035E-02 -1.26465037E+00 -1.51992711E+00  3.56851163E-01
  3.63502185E-01 -4.02696581E-02 -1.54821597E-02 -1.70275897E-01  2.73579895E-02
  2.18378928E-02  8.65118432E-02 -7.24514395E-01  1.19858420E-01 -2.17470028E-01
  3.91757287E-03 -6.65983299E-01  1.40664901E+00 -3.06170433E-02 -9.83877632E-02
 -1.51768474E-02 -5.39418367E-03 -2.56827750E-01 -3.95424069E-02  2.05040376E-03
  6.61426364E-03  1.69667560E-02 -1.37641925E-01 -3.05162592E-04 -6.95361907E-03
  6.52839143E-02 -5.93810208E-04  8.01952379E-02  3.27231191E-02  6.62619635E-02
  2.72864202E-04  1.62920973E-02 -9.77575937E-05 -3.72976535E-03 -1.73177120E-02
  1.00523381E-01  2.21205780E-01  9.28785751E-04  6.12597204E-02  1.17904067E+00
  1.04287836E-02 -8.81612132E-03  4.03555351E-02 -3.13787098E-02 -4.24537865E-04
  3.01351277E-01  9.97592573E-04 -6.90011173E-02 -6.35461934E-01 -1.38845622E-01
 -6.30433532E-01  1.47113650E-01 -6.91729039E-02 -6.58595243E-01 -1.37343185E-01
  6.38311557E-01  1.49997428E-01  6.76721788E-03  2.46264273E-02 -1.53598506E-01
  1.07016621E-01  1.50951460E-01 -4.24463256E-02 -2.82500156E-01 -2.39753251E-01
  6.56544717E-02 -5.72048855E-03  3.32190673E-03 -5.40822691E-02  2.30451430E-03
  9.16726107E-02  6.89689382E-03  2.51087289E-02 -1.56784004E-01  1.07966963E-01
 -1.53669802E-01 -4.27345912E-02 -2.84891089E-01  2.44188497E-01  6.57162574E-02
 -4.96363286E-03  3.26273105E-03  5.41886415E-02  1.71489403E-03 -9.19324583E-02
  4.09595127E-02 -6.21810604E-01  6.07711839E-02  5.38127168E-01 -4.29093850E-02
  1.45269510E-02  2.13833449E+00 -2.01446336E-01  6.00030214E-01 -1.23609312E-01
  1.40251736E-02  2.12240626E+00 -2.06802563E-01 -5.98727192E-01 -1.25261101E-01
  4.14362029E-02 -6.28455349E-01  5.46707787E-02 -5.49847665E-01 -4.16406536E-02
  1.52384465E-04  5.98789077E-04 -5.01616054E-03 -4.62268009E-04  2.77239501E-01
 -8.68778794E-05  1.41548630E-05  2.28400262E+00  1.44296493E-03  4.01952644E-07
  4.54103212E-04 -1.27483683E-02 -1.27460124E-03 -1.64979765E-01 -3.94487238E-03
 -1.63495075E-02  1.20908176E-01 -3.14180035E-01 -2.05691998E-01 -7.64004437E-03
 -2.31128098E+00  3.00217730E+00  5.43565387E-02  1.36503164E-01  9.02668773E-03
 -2.15858017E-02  4.50975317E-01  1.15673635E-01  1.01003317E-03  4.59703626E-03
 -9.29283054E-02 -2.55083832E-01 -3.27018202E-01  1.43851112E-02 -2.81297479E+00
 -2.35128280E-01 -1.03716757E-01  1.55353481E-01 -1.88643055E-02 -2.75059597E-02
 -1.26646931E-01  3.97024549E-01  1.58866085E-05  8.65651711E-05 -1.52430148E-03
 -2.27688582E-03 -2.73876938E-01 -1.45210441E-04 -1.45212049E-02 -2.98773135E+00
  1.51589213E-03  1.48466893E-03  2.00998876E-04 -1.17153187E-02  8.68664611E-06
 -5.09278983E-01 -1.07088586E-03 -4.89888803E-03  9.68283271E-02  2.56623748E-01
 -3.21093142E-01 -1.39338282E-02  2.82797555E+00 -2.16706970E-01  9.89563620E-02
 -1.59635121E-01  1.96234465E-02 -2.74230345E-02  1.28153990E-01  3.96730174E-01
  3.68848902E-03  1.53286831E-02 -1.12147041E-01  3.12612539E-01 -2.04011387E-01
  7.05701661E-03  2.31991844E+00  2.98242980E+00 -5.27774697E-02 -1.35294037E-01
 -8.32635584E-03 -2.15837749E-02 -4.47023068E-01  1.16142196E-01 -1.83671070E-05
 -6.47252660E-05  4.72750689E-05  7.64013090E-04 -1.95313309E-02  4.82809445E-05
 -1.21004678E-03 -4.99756977E-02 -4.51899138E-04 -1.22112391E-04 -4.23546042E-04
 -1.08158295E-02 -2.61301668E-04 -9.26518347E-03  8.03040242E-06  4.77838656E-05
 -3.93624553E-04 -1.19576477E-03  1.66579289E-01 -3.09709689E-04 -6.88413804E-03
  1.91532060E+00  5.82243655E-04 -3.09528692E-04 -1.40808169E-05 -1.38303443E-03
 -1.33551395E-03  1.65286567E-01  2.56948779E-02  2.05176677E+00 -1.67752243E-01
  6.88525155E-01 -1.58173008E-01 -2.51680196E-02 -2.04301005E+00  1.69421668E-01
  6.80611590E-01  1.57683609E-01 -1.08879625E-02 -4.05955130E-02  2.70494206E-01
 -4.63519439E-02 -2.27064388E-01 -1.60845044E-02  1.68235030E-01  3.67341090E-01
  1.65181999E-02 -7.88882136E-02 -6.43212956E-03 -5.52900459E-03  7.91225380E-02
 -2.12720117E-02  1.08359525E-02  4.04114601E-02 -2.69464679E-01  4.55276847E-02
 -2.25578494E-01  1.67996507E-02 -1.65698409E-01  3.65723808E-01 -1.78410851E-02
  7.82777031E-02  6.37614055E-03 -6.19030556E-03 -7.87520073E-02 -2.02503361E-02
 -4.16246163E-02  6.41205147E-01  5.88442861E-01 -1.07024380E+00 -5.18918600E-02
  2.69963203E-02  1.09823582E+00  4.14510185E-01 -1.03971760E-01  3.30271603E-02
 -2.73012463E-02 -1.12418437E+00 -4.11429321E-01 -9.71161417E-02 -3.16063788E-02
  4.11346842E-02 -6.32272987E-01 -5.86455583E-01 -1.06246702E+00  5.29235792E-02
 -1.72463921E-02 -6.42809297E-02  4.38888531E-01  5.74984316E-01 -7.87682573E-04
 -9.88298483E-03  1.42422661E+00 -2.41947089E-02  1.55330883E-01  1.94913231E-01
  1.61945246E-02 -9.53573657E-05  3.15209086E-01 -1.15765292E-03  7.14559832E-03
  2.16949836E-02 -1.11097544E-02  1.12967814E-02 -3.79768756E-01  9.14680358E-03
 -2.34941000E+00 -2.68882969E+00 -6.05483367E-02 -4.63301510E-01 -1.61591483E-03
 -2.49649109E-02 -5.02938955E-02 -1.14501168E-01 -1.49234095E-02 -5.63534743E-02
  4.37450620E-01 -5.90498646E-02  2.72501428E-01  1.25376346E-02 -1.76047927E+00
  3.01449473E+00 -1.52952444E-01  4.57018600E-01 -4.59233921E-03 -4.92538752E-03
  2.61561864E-01  3.22124852E-02  3.21181321E-02  1.23902067E-01 -1.02724982E+00
  1.36091369E-01 -3.39607694E-03 -9.91899284E-03  1.41673419E+00  2.50548851E-02
  2.52610612E-01 -1.46534693E-02 -2.69240847E-02  2.79278756E-05 -1.78727558E-01
 -2.91846776E-03 -1.47927323E-02 -5.57663277E-02  4.30562297E-01 -5.68126532E-02
 -2.78979982E-01  1.20584420E-02 -1.81129012E+00 -2.96682453E+00 -1.50605258E-01
  4.55269825E-01 -4.08058513E-03  4.23281529E-03  2.67943970E-01 -3.17745166E-02
  6.76661144E-03  2.02119847E-02 -6.82607248E-04  8.19354040E-03  3.84728787E-01
  9.81675230E-03 -2.39717908E+00  2.64698641E+00 -6.11791527E-02 -4.66210498E-01
 -1.93005405E-03  2.45365288E-02 -5.45162757E-02  1.12732193E-01 -9.35310333E-03
 -3.37478775E-02  7.91636226E-02  3.98083229E-03  2.32088784E-03 -2.77945830E-02
  5.03983564E-01 -3.34567614E-03  6.26990961E-03 -1.46846452E-01 -3.73212728E-02
 -5.90709159E-05 -9.84438827E-02 -2.12977929E-03 -6.86438358E-03 -2.72727878E-02
  1.05381359E-01 -5.60530571E-02  8.80131463E-04 -3.55536494E-02  1.95796311E-01
  1.02262839E-02  1.84831841E-01 -8.50152403E-02  1.28675934E-01 -6.16267267E-05
 -2.38535394E-01  7.48079477E-04  2.09462441E-02 -3.49172342E-01  2.25117924E-01
 -8.44592427E-02 -1.06739838E-01  1.96097173E-02 -3.76177868E-01  2.28578039E-01
  9.44094111E-02 -1.04654837E-01 -2.11746671E-03 -7.83562579E-03  6.16442627E-02
 -1.40090401E-01 -1.90857365E-01  3.56568320E-02  5.65869323E-02  3.87827213E-01
 -6.85178416E-02 -9.01737636E-02  2.30989070E-03  3.80751813E-02  3.58477595E-02
 -9.58273031E-02 -2.43034850E-03 -9.00326624E-03  6.97210905E-02 -1.51961297E-01
  1.94590856E-01  3.54108667E-02  7.58052949E-02 -3.95532258E-01 -6.83336614E-02
 -9.10011531E-02  2.15941110E-03 -3.84341393E-02  2.81083080E-02  9.93940931E-02
 -4.34537909E-02 -2.94476790E+00  4.97586425E-02 -3.16436583E-01  2.83288591E-02
 -1.75428238E-02  3.03350025E+00 -1.24906785E-01  3.68093371E-02  6.85482712E-02
 -1.70018202E-02  3.03353077E+00 -1.29028895E-01 -4.39999092E-02  6.72313428E-02
 -4.62872727E-02 -2.95635181E+00  5.13410199E-02  3.24591147E-01  3.11697435E-02
  2.56070061E-04  9.68165946E-04 -7.16701383E-03 -7.11688669E-03 -5.14931517E-02
  1.19478559E-04 -1.96039729E-02 -1.81369485E+00 -4.08937339E-03 -2.09816020E-03
 -2.58829631E-04 -6.15330584E-04 -4.48452420E-03 -1.02207638E-01  1.37158803E-02
  5.41601346E-02 -3.96873173E-01  1.23657814E-01  1.80969741E-01 -1.11098734E-02
  1.86255444E+00 -1.60698485E+00  9.19072968E-02  1.12664439E-01  1.10329331E-02
 -1.78542077E-02  1.59111930E-01 -8.15974282E-02 -4.31639387E-03 -1.92466334E-02
  2.19037000E-01 -7.52543253E-02 -2.25519785E-01  1.43842907E-02  1.98021383E+00
  1.84861923E+00 -1.23331164E-01  5.66340298E-02 -1.13489499E-02 -1.81694428E-02
 -2.02948561E-01  5.73080684E-03 -4.39023070E-04 -1.69784022E-03  1.43657985E-02
 -1.10821133E-03 -2.05406470E-01  1.39711665E-04 -1.94720452E-02  1.99913288E+00
 -4.74808734E-03 -1.47913337E-05  7.74101602E-04 -1.42128095E-02  2.67711631E-03
 -2.00155982E-01  4.72235914E-03  2.08038491E-02 -2.32011617E-01  7.56173617E-02
 -2.19681859E-01 -1.45877848E-02 -1.93232216E+00  1.93208548E+00  1.27955429E-01
 -6.84820647E-02  1.17718490E-02 -1.83568335E-02  1.96031144E-01  5.60867903E-03
 -1.39028607E-02 -5.47410149E-02  3.97773893E-01 -1.25034987E-01  1.72217344E-01
  1.06076337E-02 -1.80176759E+00 -1.68101301E+00 -8.73998338E-02 -1.00884340E-01
 -1.06081862E-02 -1.88245926E-02 -1.57541156E-01 -8.52694696E-02  1.08307005E-04
  3.88153587E-04 -8.69801654E-04  4.74162532E-05  1.93894420E-01  9.63697470E-04
 -6.49248094E-03 -3.10186021E-01 -6.36922020E-04  1.88064619E-03  9.88832921E-04
 -2.90487228E-03  1.35656084E-03 -1.52722231E-01  1.14830260E-04  4.57043858E-04
 -1.80008394E-03  8.45897152E-04  5.25097383E-02  6.00692144E-04 -1.05947560E-03
  6.46482770E-01 -2.87385541E-03  1.16197770E-03 -2.50818889E-03 -4.23783707E-02
  3.85921881E-03  4.59896247E-02  4.08790942E-02  8.55141146E-01 -1.07218842E-01
  3.11100048E-01 -9.03132385E-02 -4.17564930E-02 -8.44800509E-01  9.97488298E-02
  3.09169814E-01  9.47861737E-02  1.16501570E-02  4.34590426E-02 -3.01120957E-01
  4.61516926E-01  1.63648042E-01 -1.04511547E-02 -7.32133465E-01 -3.17328097E-01
  1.48560315E-02  1.64354504E-03 -7.57326534E-03 -3.53373291E-03  3.00414680E-01
  1.30704961E-01 -1.15908945E-02 -4.32389949E-02  2.99392976E-01 -4.57995307E-01
  1.58299783E-01  8.26735265E-03  7.30856481E-01 -3.06392797E-01 -1.04375028E-02
  1.31683338E-04  7.22641447E-03 -1.78658828E-03 -3.01301970E-01  1.27785734E-01
  9.82521313E-02  4.84177041E-01 -5.10441564E-04  2.96789595E-01 -5.06434360E-02
 -2.34573939E-02  4.02875309E-02  1.24408186E-01 -2.61636571E-01  3.20388333E-02
  2.39591377E-02 -1.18892865E-01 -1.21690236E-01 -2.62917347E-01 -3.43939162E-02
 -9.74113453E-02 -4.06714542E-01 -1.21792153E-04  2.90581340E-01  4.96904419E-02
 -3.06472269E-03 -1.35536562E-02  1.91005421E-01 -8.51810343E-02  2.28314951E-04
 -2.29510748E-02 -1.46144229E-01 -4.66900401E-03  1.10598649E+00 -2.78039483E-02
  8.72640583E-02 -4.50575777E-05  9.88817880E-02  2.60799746E-04  7.10679116E-04
  4.55311298E-03 -9.49336187E-02  2.02003959E-01  2.81221544E-01  9.20724211E-02
  2.88085536E-01 -3.94046335E-01 -1.14197368E+00  4.86046801E-02  4.44466672E-02
 -1.69725325E-01  6.09045548E-02 -1.68085942E-01  4.36546665E-04 -4.61689698E-04
  1.10777798E-01  8.54032814E-02 -1.14292146E-01 -3.66738372E-02 -7.23773203E-03
  1.01329075E+00 -2.57456550E-01  6.52383550E-02 -2.50539951E-01 -1.96277959E-03
 -8.44718679E-02 -1.62792462E-01  6.23524650E-03  2.49073581E-02 -3.00150514E-01
 -2.86233251E-01  3.76730581E-04 -5.93697309E-02  1.79436152E+00  3.67660896E-03
  1.05222118E+00  4.47762918E-02 -2.78228303E-01 -5.35892921E-04 -6.76960671E-02
 -3.72164105E-05  3.92557206E-04 -6.43564643E-04  1.12563766E-01  8.47048882E-02
  1.14485162E-01 -3.69891672E-02 -1.46232802E-02 -1.00587259E+00 -2.55513942E-01
  6.49245990E-02 -2.51132651E-01  1.16283241E-03 -8.54546263E-02  1.62861386E-01
  7.05300398E-04  4.51757155E-03 -9.41086572E-02  2.01213242E-01 -2.81822987E-01
  9.15957853E-02  2.78263833E-01  3.94100954E-01 -1.14289553E+00  4.81653681E-02
  4.44211950E-02  1.68094944E-01  6.20511143E-02  1.67248383E-01  2.32964363E-03
  8.75122929E-03 -2.28155102E-02 -1.09579182E-01  4.19089676E-04 -3.88605046E-01
  1.90089563E-02 -1.16623372E-03  5.37139579E-01  2.35706856E-02 -1.81584840E-01
 -1.39328801E-04 -3.68968467E-02 -8.19248495E-04 -1.95996012E-02 -7.92667176E-02
  3.39497941E-01  9.56883349E-02 -5.73358265E-05 -2.06129419E-02 -1.06938357E-01
 -1.08094501E-03  3.89601283E-01 -1.65050530E-01  3.88981629E-01 -2.05645084E-04
 -2.78647764E-01 -3.48864641E-07  1.13391308E-02 -7.52124153E-01  4.79328550E-01
 -1.02098392E-01 -2.55056679E-01  1.14181306E-02 -7.50252573E-01  4.79742060E-01
  1.00378491E-01 -2.54070281E-01  2.05792670E-03  7.74082365E-03 -5.30091888E-02
  4.30760336E-02  4.94769777E-02  2.52082337E-01 -1.22933019E-01 -9.88805436E-02
 -5.82460801E-01  1.11270435E-02  6.62855372E-02  2.28435278E-01  2.30848624E-02
  5.81498071E-02  1.97728544E-03  7.43469674E-03 -5.07804987E-02  4.07687955E-02
 -4.87610536E-02  2.51482146E-01 -1.18610325E-01  9.72436816E-02 -5.81510106E-01
  1.11092704E-02  6.58940846E-02 -2.28107692E-01  2.11869885E-02 -5.76756310E-02
  4.49051381E-02  6.37102868E-01  1.60412711E-01  3.19263527E-01  3.66606096E-01
 -1.04965944E-02  1.94988120E-01  1.34566484E-02 -1.97445786E-01  2.56907325E-01
 -1.06100820E-02  1.92160756E-01  1.64312490E-02  1.95788379E-01  2.57487482E-01
  4.50094590E-02  6.33384283E-01  1.62090979E-01 -3.19410822E-01  3.66661083E-01
 -6.02479203E-03 -2.51113423E-02  2.89131797E-01 -4.19470597E-02 -4.21548904E-04
 -1.03825909E-02  2.17643597E-01  4.39200717E-04 -7.10570528E-01 -3.56182791E-02
 -5.40934181E-02 -9.32447235E-04  2.05061427E-01 -2.20633052E-03 -4.60065196E-04
 -9.15210184E-04 -2.43122807E-02  2.77095910E-01  2.81062706E-01 -6.90540965E-02
 -1.60768282E-01 -9.56676292E-01  1.09229974E+00 -5.43957436E-03 -7.92343542E-02
  9.56559806E-02  8.98787928E-02 -2.51660726E-01 -1.55186520E-03 -9.46167240E-03
  2.37901701E-01  1.15739863E-01 -2.02802244E-01  8.76439254E-02  7.31804145E-03
  1.45559468E+00 -3.83956121E-01  1.15540368E-01  2.26741371E-01 -3.86758564E-02
 -2.11382694E-02 -2.44016281E-01  1.56176145E-02  6.32350331E-02 -7.09594584E-01
 -4.29485496E-01 -2.07712373E-03  4.62397496E-02  1.51099134E+00  2.85775136E-03
 -3.42339134E-03  1.19597475E-01  1.94600004E-01  8.57278342E-04 -1.21659082E-01
  2.92552051E-04 -1.45182843E-03 -9.00855127E-03  2.31868551E-01  1.17891122E-01
  2.02129058E-01  8.85258163E-02  4.23275267E-05 -1.47169680E+00 -3.93865404E-01
  1.16526168E-01  2.28285034E-01  3.75567089E-02 -1.71590069E-02  2.43503044E-01
 -4.71067360E-04 -9.14597029E-04 -2.64291771E-02  2.77361847E-01 -2.78539795E-01
 -7.00985707E-02 -1.59146234E-01  9.37736247E-01  1.10249578E+00 -4.87684359E-03
 -7.91867125E-02 -9.56973971E-02  8.80509242E-02  2.54308390E-01  1.66834404E-03
  6.58917287E-03 -2.01457648E-02 -1.55175938E-01 -5.30657901E-04  3.68040595E-01
  1.04899141E-01 -3.22344264E-05 -6.45412648E-01  1.25351201E-02  8.85316811E-02
 -1.02847353E-03 -7.84960688E-02 -1.16671943E-04 -2.52183435E-02 -1.01075226E-01
  4.22584042E-01  3.62338288E-02  3.78828339E-05 -1.28749583E-01 -5.59584701E-01
  2.49998845E-03  3.47838343E-01 -2.67799041E-01  1.08372017E-01  9.59656739E-04
 -4.13002552E-01  2.95033261E-04  2.28484671E-02 -5.77577255E-01  6.10239425E-01
  7.85797457E-02 -1.86998052E-01  2.20923218E-02 -5.85455869E-01  6.08534363E-01
 -7.16558760E-02 -1.88238532E-01  1.97165652E-03  7.44690028E-03 -4.98445902E-02
  2.77939450E-02  2.16590737E-02 -1.76341763E-01 -1.42695359E-01 -4.29310344E-02
  4.60167614E-01  4.63032813E-03 -7.41746008E-02 -1.38249224E-01  3.99282198E-02
  6.40447333E-02  2.01791784E-03  7.62501416E-03 -5.12025800E-02  2.81806267E-02
 -2.29085195E-02 -1.75921952E-01 -1.43329273E-01  4.50098826E-02  4.60904812E-01
  5.07129774E-03 -7.54869100E-02  1.38215083E-01  3.98576134E-02 -6.38937824E-02
  5.28403125E-02  2.80282271E-01  2.40800474E-01  3.20420511E-01 -3.67248124E-01
 -2.16273342E-02  3.17133679E-01  4.72962919E-02 -3.47203259E-01  3.14126176E-02
 -2.19520631E-02  3.33324649E-01  3.76150948E-02  3.51951748E-01  3.43551563E-02
  5.22176474E-02  2.90658474E-01  2.40084126E-01 -3.17425457E-01 -3.69473231E-01
  3.08535612E-05  1.20129250E-04 -1.12929591E-03  2.90463165E-05  1.14447265E-01
  1.25912199E-04 -2.06381315E-03 -3.14190635E+00  2.18409544E-03 -2.69863592E-04
  2.18796991E-04 -3.14262908E-02 -7.87046173E-04 -4.86670098E-01 -5.44810498E-03
 -2.61238809E-02  4.13587443E-01 -1.16641128E-01  2.83170843E-01  4.98957547E-03
  2.44789051E+00 -2.34222989E+00 -4.22689762E-02 -1.16254458E-01  1.32486376E-02
 -3.85876078E-02  2.19703623E-01  4.91009971E-01 -7.13802061E-03 -3.44683582E-02
  5.49472790E-01 -2.28339028E-01 -9.54180866E-03  3.31468119E-03  3.15374372E+00
 -2.04537774E+00 -4.72160476E-02 -1.44142271E-01 -3.01672814E-02 -5.20027892E-02
 -4.83643602E-01  5.48242542E-02 -8.07241428E-05 -3.23604641E-04  3.27720882E-03
  8.67667601E-04 -5.86951136E-01 -6.30325419E-04 -6.38963807E-03  3.77902708E+00
  3.60820497E-03 -5.55709702E-04 -1.50245352E-03 -2.34395220E-02  6.96532418E-04
  4.80707482E-02  7.16298279E-03  3.45714301E-02 -5.50905224E-01  2.27655601E-01
 -9.51084707E-03 -3.76469007E-03 -3.15131275E+00 -2.02951688E+00  4.37632712E-02
  1.43027930E-01  2.67842517E-02 -5.29308750E-02  4.82999556E-01  5.35856218E-02
  5.44074990E-03  2.60842323E-02 -4.12809026E-01  1.15092981E-01  2.84628753E-01
 -4.64998412E-03 -2.44630732E+00 -2.35086595E+00  3.29706296E-02  1.16953486E-01
 -1.11505101E-02 -3.76153800E-02 -2.19711213E-01  4.89314163E-01 -7.56372877E-06
 -2.99061161E-05  1.16182830E-04  5.18284026E-04 -1.48614654E-01 -1.85893494E-03
 -7.44658159E-04  1.64103740E-01  3.75703881E-03  7.13964461E-05 -2.53605810E-04
 -3.46317698E-02  2.84158479E-04 -1.56260377E-02  6.66473591E-05  2.69620044E-04
 -1.14552239E-03 -2.05017385E-04 -4.13856489E-02  6.49043532E-04  1.52176939E-03
  9.58193464E-02 -1.45786921E-03  7.36078331E-04 -5.79622553E-04 -1.11456509E-01
  1.76413823E-03  6.76755995E-02  8.98650605E-02  5.04015166E-01  2.56638905E-01
  6.62580969E-01 -7.95033612E-02 -9.03173076E-02 -4.99522529E-01 -2.60677342E-01
  6.62417467E-01  8.17277956E-02 -1.56038418E-03 -5.81124995E-03  4.59613440E-02
 -6.78698856E-02 -1.71500738E-01 -1.52915848E-02  4.79418817E-02  2.50153255E-01
  7.04428443E-04  5.82702934E-02  6.77910917E-03  6.33918896E-04  2.50981080E-02
  2.34367467E-02  1.56567366E-03  5.83310002E-03 -4.61941142E-02  6.80192805E-02
 -1.71478010E-01  1.71533327E-02 -4.74749616E-02  2.50434875E-01 -5.52675945E-03
 -5.83877359E-02 -6.19588280E-03 -6.92053111E-04 -2.51582785E-02  2.37395249E-02
  3.93244150E-02 -1.00421493E+00 -1.44078084E-01  2.41505020E-01 -3.49823803E-02
  5.24122025E-02 -2.48587231E+00  1.04504604E+00  7.04708081E-01 -2.82125079E-03
 -5.22953918E-02  2.47830868E+00 -1.04244025E+00  7.02191250E-01  5.10656416E-03
 -3.96014761E-02  1.00606044E+00  1.42925193E-01  2.43301862E-01  3.85726251E-02
 -1.56688974E-04 -6.33173554E-04  5.93170878E-03 -1.12581172E-03  5.56043585E-02
 -3.33022235E-06  1.25834302E-02 -8.64560324E-01  1.57233373E-03 -6.88752963E-04
  8.53206369E-04  4.37924295E-01  5.00437478E-03  3.13007961E-02 -2.56205492E-03
 -1.01822475E-02  7.76369672E-02  5.16354419E-03 -1.49804852E-02 -2.42687099E-01
  6.68748214E-01  1.79599420E-01  2.79369518E+00 -2.39315883E-02 -1.08103466E-03
  9.38655491E-02 -2.06786974E-02  5.36056615E-02  2.68828722E-03  1.07488936E-02
 -8.46541878E-02  4.07775020E-03  2.43577925E-02  2.13828765E-01  7.02907633E-01
 -2.32298618E-01 -2.54557071E+00  1.70253793E-02  3.86484287E-01  3.09954077E-01
  1.02100669E-02  2.58784931E-02  9.16632289E-05  3.92023296E-04 -4.73551980E-03
  1.43119451E-03 -2.83140732E-02  2.17183841E-05 -4.37827442E-02  7.98464470E-01
  1.09161714E-03  1.11329384E-03  5.16503867E-04 -4.40150264E-01 -4.06008340E-03
  1.89210249E-03 -3.02552138E-03 -1.21442836E-02  9.77073105E-02 -6.67121403E-04
  3.42375596E-02 -2.13466348E-01 -7.07123417E-01 -2.34809856E-01  2.53916427E+00
 -1.86300890E-02 -3.86378955E-01  3.10836242E-01 -9.64527534E-03  3.32375712E-02
  2.87258440E-03  1.14060892E-02 -8.78334132E-02 -2.92520829E-03 -1.73297946E-02
  2.41986638E-01 -7.05948455E-01  2.24267068E-01 -2.79197914E+00  2.20228727E-02
  4.85156583E-03  9.34541479E-02  2.07925908E-02  5.68717014E-02  1.17677273E-05
  4.36204746E-05  1.67721162E-05 -2.50367223E-03 -6.38480375E-03  3.51677900E-04
  1.17485821E-03  2.07590891E-02 -2.16925886E-04 -4.24035854E-04 -2.17176188E-04
  5.94837780E-01 -1.15091077E-03  9.01614569E-03  2.15041942E-04  8.91493012E-04
 -4.03400355E-03 -3.63915666E-03 -3.46382949E-02 -7.82188316E-04 -1.40317973E-02
 -1.38558163E-01 -2.52503471E-03  3.70992533E-03 -1.98454218E-03 -2.71015071E-01
  2.85151319E-03  1.98781898E-02  1.89085906E-03 -1.93638034E-01  5.95435875E-02
 -8.12117131E-02 -3.60164615E-01 -9.49345573E-04  2.37213036E-01 -7.17502529E-02
 -9.54304817E-02  3.59036377E-01  2.29477569E-03  8.75037435E-03 -6.23359428E-02
 -3.70534946E-03  4.43738640E-03  1.50609212E-01 -2.00658898E-02 -3.67512846E-02
  1.53743533E-01  5.46717635E-02 -3.10851519E-01  1.38393096E-02  5.21127371E-04
  2.85831266E-03 -2.25600496E-03 -8.61630874E-03  6.16368437E-02  4.81222295E-03
  4.68775689E-03 -1.50946696E-01  1.64143515E-02 -3.74891804E-02 -1.52902695E-01
 -5.30712382E-02  3.10739098E-01  1.44838625E-02  4.74468952E-04  4.00000494E-04
 -2.57607915E-03  1.71712475E-01 -3.41160986E-02 -3.64129699E-02 -5.45730742E-01
  8.58927810E-03 -2.41752197E-01 -5.93303855E-02  4.37663736E-02  8.77072355E-01
 -9.86918973E-03  2.22283567E-01  7.25020412E-02  5.25324533E-02 -8.76689521E-01
  4.07639645E-03 -1.99008061E-01  4.07496634E-02 -4.11876518E-02  5.47538398E-01
  1.67835190E-02  6.88463990E-02 -6.87886719E-01  1.08611017E-01  6.42813019E-04
 -6.09794342E-03 -1.36523000E+00 -1.30475027E-02  1.05069965E-02  7.50612026E-02
  6.60933280E-03  4.47781318E-03 -5.41771502E-01  2.21781397E-04 -1.46171348E-02
 -5.65263033E-02  4.31550049E-01 -6.56091742E-02 -1.05918221E-01 -1.42931043E-02
  1.99354999E+00  2.35210442E+00  9.12194732E-02  1.25135590E-01  1.46511773E-02
  3.44315588E-03  4.40954393E-02  9.41184670E-02  1.74862362E-02  7.21870167E-02
 -6.70549283E-01 -1.34081441E-01  4.23227862E-01  2.26025667E-02  2.39321855E-01
  4.65251253E-02 -2.02350369E-01  1.11061370E-01 -2.12377118E-02 -1.05849068E-02
 -8.76060709E-03  3.59626947E-01 -4.88761299E-03 -2.10742061E-02  2.58723119E-01
 -2.45291675E-01 -1.61421900E-04 -4.90555454E-03  4.49923351E+00  1.09404421E-02
  1.97286340E-01 -8.30780018E-02  1.94827679E-02 -4.01865487E-03  3.65932170E-01
 -3.61677408E-04  1.74547318E-02  7.20585258E-02 -6.69509432E-01 -1.33633168E-01
 -4.22568449E-01  1.83711295E-02  2.17061289E-01 -4.79252287E-02 -1.53002932E-01
  1.11198410E-01 -2.88345758E-02  1.71315850E-02 -8.63669156E-03 -3.58747146E-01
 -1.45758403E-02 -5.63600567E-02  4.30195851E-01 -6.52323524E-02  1.05841798E-01
 -9.37769196E-03  1.97380121E+00 -2.35500200E+00  3.56280461E-02  1.25597061E-01
  1.45958539E-02 -5.81578351E-04  4.35797069E-02 -9.22540676E-02 -1.02572459E-03
 -3.66081379E-03 -7.22704900E-03  1.97544474E-01 -1.91813091E-05  3.30450214E-02
 -1.00460624E-01  7.73931163E-04 -6.06504053E-02  1.16325634E-03  9.10733260E-03
  5.82504239E-03  3.16874579E-02  4.11030563E-04 -2.62749742E-02 -1.07958181E-01
  4.77008792E-01  3.64794375E-01 -4.12030050E-04 -1.28309334E-02  1.15356436E+00
 -2.29552031E-03  3.35711813E-01 -4.56033738E-01  1.19297837E-01 -2.08663128E-03
 -3.87278985E-01  4.82846308E-04 -5.21502759E-02 -2.18050902E+00  7.27424636E-01
 -6.31735562E-01  1.30277816E-02 -5.20873870E-02 -2.17640433E+00  7.26104437E-01
  6.29753964E-01  2.04502687E-02 -1.52774825E-03 -5.19929823E-03  2.54234864E-02
 -4.51167469E-02  1.09283174E-02 -1.30867878E-02  1.25377771E-01 -2.18703521E-02
  4.22191360E-02 -7.09803192E-02 -1.13122882E-02 -1.26662701E-02 -1.48381447E-02
 -1.02322752E-01 -1.54103899E-03 -5.25130078E-03  2.57943859E-02 -4.43120592E-02
 -1.08975150E-02 -1.56071563E-02  1.24189496E-01  2.15340359E-02  3.86289090E-02
 -7.18974802E-02 -4.48475986E-03  1.29766334E-02 -1.41276118E-02  1.02338016E-01
 -9.47055782E-02  1.70360303E+00 -2.73398638E-01 -2.50616979E-01 -2.73035981E-02
  4.43093679E-02  9.71948967E-01 -6.02108579E-01  3.24257176E-01  7.48222144E-02
  4.41000124E-02  9.77983970E-01 -6.00638389E-01 -3.23001736E-01  5.69702948E-02
 -9.46462030E-02  1.70229773E+00 -2.74290831E-01  2.49539524E-01 -1.80310064E-02
 -3.73377448E-07 -3.10157990E-06  1.16123288E-04 -2.81420837E-04  3.74240662E-01
 -2.01009601E-04 -2.93935739E-04 -7.11086681E+00  9.72648406E-04  5.50196524E-05
  2.66167247E-04 -5.35564403E-02 -7.28390955E-05  3.88546839E-01 -7.50951410E-03
 -2.70173034E-02  5.72956449E-02  6.60369027E-03 -7.57105796E-02  2.05056992E-02
  6.67791199E+00  1.78036208E+00 -2.73915321E-01  5.03212454E-02  3.09399850E-02
 -5.02497478E-02 -1.67753917E-01  1.60595704E-01  1.28906682E-02  5.13284080E-02
 -4.06373250E-01  1.83877876E-01  5.09283071E-02 -1.29955080E-02  5.37327617E+00
  6.87097921E-03  1.96472970E-01  6.32240735E-02 -7.25207965E-02 -6.77534094E-02
 -1.10791415E-01  4.05564857E-01  7.10817359E-06  3.41621020E-05 -5.85035810E-04
 -2.62095385E-04 -3.14648960E-01 -6.31505716E-05  4.46945806E-03  7.27450869E+00
  1.94757695E-03 -9.41343438E-05  2.19770995E-04  4.79604931E-02  1.21819205E-04
 -4.85931199E-02 -1.28882916E-02 -5.13110483E-02  4.05964672E-01 -1.84280519E-01
  5.10879166E-02  1.30070355E-02 -5.37177471E+00  7.32662796E-03 -1.98641760E-01
 -6.33652779E-02  7.18162113E-02 -6.74166311E-02  1.10905373E-01  4.05455842E-01
  7.52394662E-03  2.70865806E-02 -5.82651601E-02 -6.77834188E-03 -7.64836669E-02
 -2.03979543E-02 -6.67612746E+00  1.78132728E+00  2.72499781E-01 -5.01364826E-02
 -2.85475924E-02 -5.07300684E-02  1.68108681E-01  1.60677418E-01  8.33827510E-06
  3.45186165E-05 -1.90776546E-04  2.61784305E-04 -3.23169098E-02  1.02071215E-03
 -4.84660217E-05  8.61265190E-02 -1.37138221E-03  2.01069656E-04  6.35815109E-04
 -1.01525973E-01  5.30457784E-05  7.67137743E-02 -1.60051051E-05 -6.53045552E-05
  2.85258569E-04  2.17561398E-04 -9.42566631E-02 -3.72541928E-04  3.13314071E-04
 -9.34199847E-01  4.09303945E-04 -3.11386362E-04 -8.30275434E-05 -9.94713484E-02
 -4.06143856E-04 -5.69574111E-02  7.07060092E-02 -8.32306607E-01 -2.86463171E-01
 -6.32021147E-01 -8.92679529E-03 -7.08412851E-02  8.29739149E-01  2.87212073E-01
 -6.31609396E-01  7.90815485E-03  1.82094008E-02  6.97326224E-02 -5.07335859E-01
  8.32549424E-03  5.67780982E-02 -3.42915488E-02 -1.76041203E-01 -3.55278285E-01
 -8.46439768E-03  4.33486769E-01  4.18834462E-02 -1.79115040E-03 -1.75149946E-03
  2.08940071E-02 -1.82390534E-02 -6.98462773E-02  5.08150788E-01 -8.15206086E-03
  5.68548932E-02  3.32386867E-02  1.76821351E-01 -3.55077561E-01  1.14546554E-02
 -4.33091931E-01 -4.25345957E-02 -1.59549814E-03  1.58381598E-03  2.06904538E-02
 -7.96540679E-03  2.65059651E+00 -4.49553708E-01 -1.32687208E-01  1.11756014E-02
  4.74070621E-02 -1.00218476E+00 -4.19965311E-01  7.38203969E-02 -1.12196344E-01
 -4.75617987E-02  1.00241179E+00  4.20048905E-01  7.34982857E-02  1.12932161E-01
  8.08747750E-03 -2.64681448E+00  4.50824702E-01 -1.33158273E-01 -7.95866260E-03
  9.01285285E-05  3.94936314E-04 -4.13047094E-03  3.87096182E-04 -2.14547274E-01
 -1.78333219E-03 -2.15693164E-02 -3.25929017E+00  7.14314467E-02 -8.66896767E-04
  1.31269697E-02 -2.17628655E-03 -3.87308561E-03  3.92678175E-02  1.08399367E-02
  3.97388495E-02 -1.54889333E-01 -1.02394310E-01  2.30348124E-01 -9.13566663E-03
  2.89503746E+00 -5.21727900E+00  2.02768336E-02 -7.01887141E-02  5.57035513E-02
 -2.40010832E-02 -1.39354031E-02 -2.05102742E-01 -4.71704297E-03 -1.76973178E-02
  5.26525977E-02 -2.24468949E-01 -2.52050107E-01  8.62585172E-03  2.82230847E+00
  6.12568248E+00 -2.25832495E-01  1.97977680E-01 -4.51888554E-02 -2.98078500E-02
 -2.40420911E-01 -1.39958811E-01  2.21827508E-04  9.78165468E-04 -1.14631612E-02
  6.29671999E-04  7.49033408E-02 -4.98320953E-03  1.39404985E-03  2.78403212E+00
  1.86825185E-01 -1.04359649E-03 -5.42684880E-03 -2.09247253E-02 -9.06880395E-03
 -4.61661218E-01  4.68818188E-03  1.78026145E-02 -6.31269753E-02  2.27564692E-01
 -2.48509778E-01 -5.67371353E-04 -2.86784382E+00  6.10600174E+00 -1.07084486E-01
 -1.98871500E-01 -5.54635210E-02  4.13775399E-03  2.38788486E-01 -1.44889124E-01
 -1.03874392E-02 -3.77608671E-02  1.30609787E-01  9.57214548E-02  2.29023035E-01
 -6.61075841E-03 -2.86438487E+00 -5.22968072E+00 -6.25453939E-02  7.09941486E-02
  5.67425143E-02 -1.49401337E-04  1.47969170E-02 -1.98110339E-01  3.77771301E-05
  1.45121032E-04 -5.97901547E-04 -5.76718452E-05 -2.24780536E-01 -5.09288915E-03
 -3.03462071E-03  2.01637374E-01  2.88904075E-02  5.17614974E-04  1.64225980E-02
  2.23533697E-03  5.54303552E-04  1.25111610E-01  2.57559286E-04  1.12038671E-03
 -6.56586894E-03 -1.05950414E-03  1.23101848E-01 -2.48621038E-02 -8.00385087E-03
  6.57310470E-01  3.20079965E-02  3.77488814E-03 -3.87633615E-03  1.95834412E-02
  1.05264939E-03  6.66346418E-02 -3.71634554E-02  1.03373673E+00 -6.77539554E-02
  3.48375190E-01 -7.60878359E-02  2.91551192E-02 -1.00901350E+00  6.15867028E-02
  3.39931356E-01  4.52457355E-02  8.09534431E-03  3.07242672E-02 -2.14488549E-01
 -7.95488678E-02 -1.12777753E-02 -3.67802888E-03  7.83392115E-02 -1.76847777E-01
  7.14770758E-03  4.28011414E-01 -7.04089820E-03 -8.35567710E-03 -2.48620922E-01
  1.27518520E-01 -7.92867501E-03 -3.00871639E-02  2.09695324E-01  7.98385314E-02
 -1.37517967E-02 -1.72914935E-03 -7.97204114E-02 -1.70323679E-01  1.09220765E-03
 -4.28055864E-01  4.10584805E-03  1.11859486E-02  2.49269530E-01  1.28127371E-01
  1.92312964E-01 -1.17274831E+00 -1.38704085E-01  5.97013547E-01 -1.00483207E-02
 -5.12442608E-02  1.93958826E+00 -2.45346160E-01 -5.56634301E-01  5.96639015E-02
  4.47255823E-02 -1.91761705E+00  2.60825869E-01 -5.52941266E-01  4.18156176E-02
 -1.96032677E-01  1.19932090E+00  1.34092254E-01  5.95902205E-01  3.42711655E-02
  1.12441973E-03  4.93666757E-03 -4.63775916E-02  1.68535530E-02  1.26107337E-02
 -2.77168383E-02 -2.96513955E-01  2.36298250E-01  1.05695198E+00 -9.81883978E-04
  1.95155929E-01 -8.63472885E-04 -4.56472330E-02 -2.24184975E-03  3.28801250E-03
  1.45291731E-02 -1.88168675E-01 -5.50652772E-02 -3.61383347E-03 -1.25696266E-01
  2.85627626E-02  4.04829970E-01 -2.73703993E-01  1.20999730E-02  8.58328612E-01
 -1.77963831E-01  1.47924893E-02 -4.83661282E-02 -3.88863201E-04  3.04670337E-04
 -7.63577874E-02  2.77871250E-02 -5.98061549E-03  6.45934203E-02 -6.14139877E-01
 -1.75826474E-01 -2.61715576E+00 -1.76463534E-02 -7.84858537E-01 -2.60409759E-01
  9.17188942E-04  4.76632110E-02  3.64234135E-03  1.60773592E-02 -1.90169823E-01
  1.20810885E-02 -4.16686524E-03 -7.86475639E-02  9.59700723E-02 -2.06697189E-01
  2.93229446E+00 -2.54598669E-02 -9.04048913E-02  3.44230118E-03 -1.50460012E-01
  3.00989699E-02 -9.64882994E-04 -1.85967136E-03 -6.99739641E-02 -1.19426869E-03
  3.83756844E-02  6.57466757E-02 -2.03265642E-01 -6.26446045E-01 -2.63892338E+00
  8.13125903E-03 -7.82936813E-01  2.61526107E-01 -3.08005750E-02 -3.04535040E-02
  4.63020085E-03  1.94416404E-02 -2.06750207E-01 -6.81275185E-02 -2.65116154E-02
 -1.26569262E-01  4.43717418E-01  2.82713495E-01 -2.56253796E-01  2.27048593E-03
  8.59876484E-01  1.80082797E-01  1.46135341E-02  7.24144482E-02  2.96229408E-04
  1.13393045E-03 -4.98467142E-03  1.12435025E-02  1.45272305E-02 -7.52058086E-02
 -5.14080308E-02 -1.41651900E-02  4.41162878E-01  3.25259960E-03  2.61801517E-01
 -4.46973719E-04  1.69816176E-02 -8.22864280E-03  4.59835792E-03  1.98001354E-02
 -1.12730574E-01 -1.68857523E-02 -7.53939173E-03 -3.91778835E-01 -9.78022406E-02
 -3.97032193E-02  5.14275741E-01  5.66816331E-02 -4.98293625E-02  1.02916406E-03
  6.78089607E-03 -4.64577317E-03 -5.89822046E-02  9.36177268E-02 -3.89645708E-02
  4.15709618E-02 -2.47719722E-01 -6.31203284E-02  2.21348678E-01 -4.68269166E-02
 -8.37920764E-02 -2.59662192E-01  6.38507257E-04  2.47002811E-03 -2.00581620E-02
  5.43980932E-03  1.93353709E-02 -4.61827681E-02 -7.07345376E-03 -3.65341374E-02
  7.24728231E-02 -2.97658838E-02 -2.30752302E-02 -1.58943089E-01  1.69791058E-02
 -1.42039618E-02  1.72203565E-03  6.58191717E-03 -4.87222143E-02 -4.96902649E-03
 -1.83726117E-02 -4.60384651E-02  2.77467984E-03  6.07703367E-02  7.30101606E-02
  2.54901898E-02 -2.44540159E-02  1.58600827E-01 -1.51474451E-02 -2.09044558E-03
 -3.80824032E-02  2.48526714E-01 -3.04509413E-02 -3.47555352E-02  1.68710993E-01
 -4.79762112E-02  1.06246114E-01  1.41563342E-01  1.04140774E-02  7.99789777E-01
 -5.41672728E-02  3.50522607E-01  1.07101604E-01  6.10978714E-02  8.04525251E-01
 -1.34332880E-02  1.01100670E-01 -4.82576495E-02 -4.27769292E-02  1.62898529E-01
 -1.84818384E-02 -8.11624461E-02  9.46199425E-01 -1.27026424E-01  1.81930546E-04
  9.02800289E-04  2.47136789E+00 -6.25238748E-04  1.85340214E-01  1.69765211E-01
  3.46753085E-02 -1.35085572E-04  5.98998171E-01 -2.31281868E-04 -1.08559458E-02
 -5.43241443E-02  9.00027935E-01  1.42835442E-01 -3.35151126E-02 -2.67107097E-02
 -1.64776158E+00 -1.34769457E+00 -4.70009620E-02 -2.07717528E-02  1.85180884E-01
 -3.58116160E-02 -3.47543512E-02  3.68149243E-01 -1.03501715E-02 -5.14256620E-02
  8.64424511E-01 -2.11132468E-01  6.65202556E-02  8.69048323E-03  1.96711531E+00
 -6.26662338E-01 -4.19521885E-01 -7.16140921E-03 -1.33079054E-01 -4.17894269E-02
 -9.46502952E-02 -3.66048634E-01 -1.87277635E-02 -8.35440418E-02  9.99421585E-01
  6.44827904E-02  3.03246078E-04 -2.20659670E-02  3.09779732E-01 -9.09740159E-04
  4.04224213E-01 -9.70070572E-03  2.10599018E-03 -1.28775360E-03  6.37729420E-01
 -7.88251858E-04 -1.03762322E-02 -5.15508697E-02  8.66366572E-01 -2.11052901E-01
 -6.64920547E-02  8.09938795E-03  1.96965919E+00  6.33103799E-01 -4.12170500E-01
 -7.63980169E-03 -1.33545463E-01  4.01209852E-02 -9.45134944E-02  3.66294038E-01
 -1.08502778E-02 -5.43074827E-02  9.00074930E-01  1.43624915E-01  3.36087702E-02
 -2.67310094E-02 -1.64746289E+00  1.34368432E+00 -5.15741421E-02 -2.01412947E-02
  1.84256199E-01  3.35018117E-02 -3.51380987E-02 -3.68533165E-01 -5.62979168E-03
 -2.28129111E-02  1.18173572E-01  4.11372370E-02  2.74411163E-06 -2.75837242E-02
  2.27064695E-01  5.05777035E-04  1.24392870E-01 -5.23144430E-02  5.41262011E-02
 -1.40453227E-04  2.69149370E-03  4.76853505E-05 -5.69406567E-03 -2.63576626E-02
  1.87821810E-01  5.10290826E-02 -2.24058282E-04 -1.97889988E-02  1.12105138E+00
  5.40399651E-04 -4.57473961E-02 -2.12028346E-01 -1.00754469E-01 -1.49527438E-03
 -1.10105064E-01  5.22535481E-04  1.44476500E-01 -1.02072052E+00  3.62639173E-02
 -3.44377016E-01  1.41099838E-01  1.44475993E-01 -1.02074814E+00  3.59071271E-02
  3.43202618E-01  1.44220126E-01 -8.64237876E-03 -3.35375554E-02  2.57569443E-01
  5.31221140E-02 -1.13700162E-01 -4.92376326E-03  6.04884635E-02  2.98115216E-01
  5.33666047E-05  7.72013513E-02 -3.07719956E-03 -3.00925771E-02 -6.69722258E-02
  6.40734019E-02 -8.63439744E-03 -3.35063538E-02  2.57315622E-01  5.30972069E-02
  1.14020184E-01 -4.94723425E-03  6.04781849E-02 -2.98466745E-01  2.49495344E-04
  7.77883090E-02 -3.09162108E-03  3.00797601E-02 -6.69708964E-02 -6.44306668E-02
  2.53425310E-01 -1.57096557E+00  1.15102641E-01  1.44720594E-01  4.30031727E-02
  2.42102353E-01 -1.24809706E+00 -7.63853134E-01  3.22913577E-02  9.26808443E-02
  2.42338340E-01 -1.25265506E+00 -7.64302065E-01 -3.19726007E-02  9.28799497E-02
  2.53599523E-01 -1.56860795E+00  1.14952363E-01 -1.44950112E-01  4.63962042E-02
  2.03888511E-05  8.52026976E-05 -1.37398218E-03  7.45990399E-05 -2.98568962E-02
 -2.65180801E-03  1.74448958E-03 -7.50111583E-01  3.52290182E-02 -1.13552024E-03
  7.63060373E-03  1.95545709E-01  1.03102147E-03  9.39322830E-03  9.18983412E-04
  2.96756942E-03  1.37602237E-03  7.06424982E-03  8.66288326E-04 -5.79133276E-02
  8.90840876E-01  9.73821999E-02 -7.46501311E-01  9.07204535E-02 -1.85224676E-01
  8.88638428E-01 -3.03890232E-02 -2.07958519E-03 -2.21596457E-03 -1.10465468E-02
  1.83257954E-01  4.85915935E-03 -3.51753951E-02 -1.14954585E-01  6.90871861E-01
  6.94613277E-02  1.47541700E+00 -2.33071936E-02 -2.51686810E-02  7.29294904E-01
 -9.89177818E-02  8.26903610E-02 -1.38836701E-05 -7.07429393E-05  9.04082778E-04
 -1.53198165E-03 -1.65424749E-01  2.34699257E-03 -8.99803270E-03  1.15852523E+00
 -3.87250256E-02  1.00712975E-03  9.11207549E-03  7.21857037E-01  2.48687189E-03
  7.78243873E-03  2.31200684E-03  1.13537483E-02 -1.83012985E-01 -3.27426911E-03
 -3.36734664E-02  1.11036111E-01 -6.79326840E-01  7.62543148E-02 -1.40544410E+00
  2.52354357E-02  3.15072402E-02  7.33309709E-01  1.00364047E-01  8.46853249E-02
 -1.07596398E-03 -3.60910564E-03  4.76881188E-03 -3.09168695E-03  1.23928971E-03
  6.04614321E-02 -9.04145713E-01  9.78660634E-02  6.73812563E-01 -9.06544562E-02
  1.99906260E-01  8.83709800E-01  3.14439888E-02 -2.33066569E-03  2.43543820E-05
  1.00155487E-04 -4.28653877E-04 -7.59981060E-04 -2.17037424E-02 -6.92938027E-04
 -4.45600682E-04  4.11064351E-02  1.55184548E-03  1.16644603E-04 -1.53044360E-03
  3.68172350E-01 -9.61382647E-04  1.72066475E-02 -1.47518940E-04 -5.96507628E-04
  2.74875585E-03 -2.26223488E-04  1.21874996E-01  1.54250969E-03 -3.09377459E-03
 -3.32110832E-01 -9.08191236E-03 -1.43898660E-03 -9.41570586E-03  1.11979022E+00
 -9.69686360E-05 -2.32821587E-01  3.98785872E-03  1.23034676E-01 -2.36268972E-01
  1.68254296E-01  9.32311965E-01 -3.78565189E-03 -1.18464039E-01  2.37008694E-01
  1.67167307E-01 -9.16063013E-01  2.21032170E-04  8.91180315E-04 -6.72066478E-03
  1.58831615E-02 -3.58864891E-02  1.76876662E-01 -2.30908385E-02  4.19969949E-02
 -8.27365262E-02  4.50336751E-02  4.04274049E-02 -1.02831427E-01  9.08633999E-03
  1.18644149E-02 -1.70249236E-04 -6.92951375E-04  5.19578624E-03 -1.63903854E-02
 -3.66468355E-02 -1.76120467E-01  2.25476898E-02  4.32851838E-02  7.95320645E-02
 -4.57551226E-02 -3.82707272E-02 -1.02208020E-01 -8.44572933E-03  1.21715996E-02
  1.94414903E-02  3.88220131E-01 -1.38671799E-01  4.44136282E-02  9.78100681E-01
  3.00960002E-02 -1.55885718E-01  8.51016479E-02  1.74615857E-02  3.33402379E-01
 -2.92501914E-02  1.49095238E-01 -8.66679532E-02  1.80417459E-02 -3.62711200E-01
 -1.98790287E-02 -3.91920528E-01  1.44900958E-01  4.64842109E-02 -9.46987814E-01
 -4.13981569E-04 -2.75453568E-03  8.07046282E-02 -1.73828211E-02 -8.60731262E-04
  2.63283711E-01  4.95689189E-02 -5.86346188E-03 -3.40939729E+00  9.17500604E-02
 -6.65580567E-01  3.14130879E-03  1.25677743E-02  5.35196849E-04  2.64921730E-03
  1.00681301E-02 -6.69964214E-02 -9.07416592E-02  2.47834129E-02 -1.25914812E-01
  1.52795803E-01  8.01401764E-03  3.40667299E+00  1.78435857E-02 -6.39996657E-01
 -1.97724123E-01 -3.18249388E-03  5.21711937E-02 -4.50834746E-03 -1.73933813E-02
  1.30745936E-01 -4.55481968E-02  6.97273514E-02  1.72248371E-01 -1.48054157E-01
 -1.05465747E-01 -3.02915010E+00 -6.51973318E-02 -2.09467178E-01  2.30460501E-01
 -8.59430579E-02  1.93922837E-02 -3.70986676E-03 -1.59216186E-02  2.12526253E-01
  1.12358310E-01 -2.13343231E-03 -2.28308280E-01  4.69696316E-01  1.28828195E-02
  3.24287810E+00 -3.71563367E-02 -7.50745670E-01  8.13232592E-03 -4.10613742E-02
 -4.76336304E-04 -4.48421208E-03 -1.72461825E-02  1.27570096E-01 -4.53985840E-02
 -7.10062018E-02  1.74580832E-01 -1.61918696E-01  1.18035612E-01 -3.05684923E+00
 -6.63028503E-02 -2.09528581E-01 -2.12475899E-01 -8.32995397E-02 -1.71229714E-02
  2.65668260E-03  1.01352595E-02 -6.90958048E-02 -9.05078339E-02 -2.46036526E-02
 -1.24156558E-01  1.30386384E-01 -1.02355000E-02  3.41704616E+00  1.64633131E-02
 -6.36027900E-01  2.19330093E-01 -1.29257128E-03 -5.23625070E-02 -1.15229460E-03
 -4.88983638E-03  2.57505690E-02  7.62532872E-02 -6.26170598E-04  8.74722089E-03
 -4.49652885E-02 -4.78432243E-05  2.22152071E-02 -1.45680953E-02  9.61142964E-02
  4.58933609E-03  5.64444771E-02  3.22372683E-04  9.01503449E-03  3.61339340E-02
 -1.57625519E-01 -8.87660705E-03  1.62413520E-03 -5.85166183E-02  3.89583819E-01
 -3.34396023E-03  5.35282204E-01  1.70845041E-01  7.30622912E-01  1.28212885E-02
  1.00313524E-01 -3.16415549E-03  1.18384737E-02 -2.19376998E-01 -8.83189044E-02
 -1.18815454E-01 -5.56381988E-01  1.18444801E-02 -2.24372105E-01 -8.16734750E-02
  1.23108988E-01 -5.77224346E-01 -1.46090683E-03 -5.62145441E-03  4.10680124E-02
  1.64062933E-02  1.13940737E-03 -1.22720159E-02  4.47391123E-02 -5.53854666E-04
  6.34938444E-02  1.32444867E-02 -6.94483278E-02  5.44142253E-02 -3.68793806E-02
 -2.87982509E-03 -1.49681172E-03 -5.76068713E-03  4.21251406E-02  1.59119304E-02
 -2.53716989E-03 -1.62064350E-02  4.55430960E-02  1.78289298E-03  6.47295839E-02
  1.06736945E-02 -6.96402146E-02 -5.66974438E-02 -3.72021517E-02  3.31895402E-03
  3.19444786E-02 -2.44066496E-02 -6.64303468E-02  3.45958829E-02 -1.36449768E+00
  1.42624303E-02 -7.13745644E-02  3.36430262E-02  9.15417606E-02  1.25797821E+00
  1.34246279E-02 -7.47130724E-02  3.24243374E-02 -9.24074418E-02  1.24785835E+00
  3.09642526E-02 -3.44059227E-02 -6.14310931E-02 -3.14437899E-02 -1.38643839E+00
 -9.39318235E-03 -4.24919158E-02  6.69593706E-01 -4.03196383E-03  1.08988792E-04
 -1.64911103E-01  7.88049483E-01 -9.24542181E-03  2.15571223E+00  3.54773372E-01
  2.24513583E-01  4.56522200E-04  2.70038017E-01 -9.10095237E-04  1.55899548E-02
  6.00971130E-02 -4.42313167E-01 -3.55572857E-01  1.53354436E-01  1.33297323E-01
  3.13580917E-01 -8.62974547E-01 -1.82098706E+00  1.09512601E-01 -2.70930904E-03
 -2.35986757E-03  1.77149489E-01 -1.56787712E-01 -1.41337031E-02 -5.07046863E-02
  2.71174557E-01 -3.36350185E-01  1.61384619E-02 -7.43224387E-02 -7.28484735E-01
  1.48869525E+00  1.51309562E+00 -9.78277082E-02  1.87681539E-01 -1.82847668E-01
 -2.04310403E-01 -2.18426668E-02  3.80816924E-03  2.00541742E-02 -3.96896789E-01
  5.69934886E-02 -7.31728743E-04  1.65588572E-01  2.63847707E+00  7.67553909E-03
 -1.05975311E+00 -2.95380495E-01  5.69751246E-02  6.82434130E-04 -5.56026431E-01
 -9.93584280E-04 -1.41226349E-02 -5.06536966E-02  2.70655699E-01 -3.35385157E-01
 -1.74540920E-02 -7.36903851E-02 -7.41501131E-01 -1.46174742E+00  1.51362784E+00
 -9.90701092E-02  1.88209240E-01  1.87230833E-01 -2.02050144E-01  2.21109533E-02
  1.55957124E-02  6.01364515E-02 -4.43487811E-01 -3.54780375E-01 -1.51887989E-01
  1.33937317E-01  3.01290526E-01  8.34637427E-01 -1.82133344E+00  1.10865959E-01
 -3.55710397E-03  6.80256248E-03  1.76089433E-01  1.57128138E-01 -7.57938757E-03
 -3.11219840E-02  1.55776430E-01  2.95728752E-01  1.03576232E-05  1.88540155E-01
 -2.09034147E-01  2.78423074E-04 -7.24555004E-01 -6.80716182E-02 -1.30639809E-01
  6.13604441E-04  1.97848681E-01  3.24820763E-04  2.01638226E-02  8.13700005E-02
 -3.81670814E-01  1.22488122E-01  3.24668445E-04 -2.80600373E-01  3.81403726E-01
  1.22561264E-03  1.27520148E+00  3.26715298E-02  5.54687028E-01  1.01514304E-03
 -3.07889726E-01 -4.10381697E-04  9.05950335E-03 -8.92750729E-01  3.02050758E-01
  2.92329828E-02 -5.81264057E-01  8.92862570E-03 -8.98779453E-01  3.02270783E-01
 -2.54548716E-02 -5.82259994E-01 -5.13503707E-03 -1.98758766E-02  1.45957196E-01
  8.39907008E-02 -9.60315380E-03  1.47487851E-02  1.37410801E-01  1.45423483E-02
  7.74133227E-02  8.61658985E-02 -4.96495588E-02  2.90140826E-02 -1.34287793E-01
  3.36373003E-02 -5.13030955E-03 -1.98568495E-02  1.45770786E-01  8.41922653E-02
  9.75381908E-03  1.40142416E-02  1.36963328E-01 -1.45126522E-02  7.79816899E-02
  8.60897375E-02 -5.00355298E-02 -2.96370828E-02 -1.33646554E-01 -3.36664080E-02
  1.43531096E-01  1.81632176E-02 -1.91114550E-01  1.69487626E-01  5.08408231E-01
 -7.53774025E-02  7.49126437E-01  4.06815142E-02 -8.06853039E-02 -5.03638205E-01
 -7.53535959E-02  7.40255400E-01  3.82141561E-02  8.01210127E-02 -5.08382088E-01
  1.43101684E-01  2.89789268E-02 -1.92639666E-01 -1.68192302E-01  5.03653725E-01
  1.00222200E-02  4.28824069E-02 -5.74032217E-01 -3.38935143E-02 -3.91695693E-03
 -1.51343412E-01 -7.81532848E-01  7.44414146E-02  2.47141687E+00 -1.52808044E-01
  1.23810914E-01 -1.45914973E-04 -2.60065205E-01  5.34659098E-04 -1.23837522E-02
 -4.88011725E-02  4.03253699E-01  2.04452206E-01 -1.00621145E-01  1.45039424E-01
 -7.16472182E-02  9.62768426E-01 -1.79720969E+00 -1.13188494E-01  4.67908601E-02
 -1.55745631E-01 -1.98740981E-01  3.18571791E-01  4.70022859E-03  1.32480501E-02
  5.08095082E-02  2.91388874E-01  1.44588838E-01 -7.37734303E-02  3.57778666E-01
 -2.07940449E+00  1.05276425E+00 -4.84930290E-02  1.11802409E-01 -2.06482997E-01
 -3.15986860E-02  3.10070196E-02 -1.04146450E-02 -4.91340147E-02  8.20249361E-01
  1.61405376E-01 -4.92495369E-04  1.69831415E-01 -1.95733126E+00 -6.41784053E-02
 -4.26485270E-01  3.18192380E-01 -1.67058914E-01 -5.87527153E-04  4.80085770E-01
  9.62313257E-04  4.62581772E-03  1.30314589E-02  4.92935477E-02  2.90316830E-01
 -1.42906809E-01 -7.43769472E-02  4.79374216E-01  2.03283220E+00  1.05520477E+00
 -5.19131416E-02  1.10285913E-01  2.04314553E-01 -3.51915209E-02 -3.44505405E-02
 -1.21019689E-02 -4.75364501E-02  3.86191095E-01  2.03113749E-01  9.79783055E-02
  1.44763690E-01  4.31469324E-02 -9.33348785E-01 -1.80035253E+00 -1.12704064E-01
  4.71420794E-02  1.53418046E-01 -1.89346698E-01 -3.18163504E-01  6.28490125E-03
  2.54534523E-02 -1.25134510E-01 -1.65141059E-01 -1.29872940E-03  2.36572532E-01
  1.66293957E-01 -5.28934957E-03 -9.11615874E-01  4.31371063E-02 -8.43672062E-02
 -1.48215741E-04 -9.75145998E-02 -1.53151778E-03 -5.36861266E-03 -2.18121481E-02
  1.15688562E-01 -1.08380955E-01  2.87814090E-05 -3.98352477E-01  4.38630361E-02
  3.19515087E-03  1.66191251E+00  4.27189115E-01  8.06371136E-01 -2.43977904E-04
  5.16173744E-01 -1.86059557E-03  9.74206749E-03  6.08606048E-01 -4.11303565E-01
 -2.55273715E-01 -9.07954599E-01  9.99562912E-03  6.12970833E-01 -4.05767350E-01
  2.48368516E-01 -9.08305614E-01  2.14907939E-03  8.43406734E-03 -6.19069975E-02
 -5.79785214E-02  1.33148996E-02  2.77165526E-02 -5.66154990E-02 -1.13182485E-02
  1.05941493E-01 -8.09935593E-02 -1.20157436E-01  3.29076185E-02  6.76455297E-02
 -4.98078519E-02  2.13982566E-03  8.39389161E-03 -6.14093104E-02 -5.99262737E-02
 -1.92024248E-02  2.77745278E-02 -5.21550630E-02  2.21808042E-02  1.05984018E-01
 -8.41120543E-02 -1.19833801E-01 -3.29121501E-02  6.35865562E-02  4.98001346E-02
 -7.47382388E-02 -1.34208494E-01  8.38633148E-02 -9.67134642E-02  4.02069470E-01
  1.24709213E-01 -1.16077522E+00  1.24495501E-01  3.19494701E-01 -3.69302439E-01
  1.22683082E-01 -1.17561757E+00  1.25974302E-01 -3.16337819E-01 -3.67227256E-01
 -7.66487270E-02 -1.01887813E-01  9.75269606E-02  9.75663835E-02  4.05229228E-01
  5.97730396E-06 -2.56045859E-05  2.28397303E-03  6.51467370E-04 -3.96706892E-01
  3.10975804E-04  1.06643124E-02  9.02215308E+00 -7.48718045E-03  2.10122818E-03
 -9.93244761E-04 -3.15280563E-03  5.98264868E-03  8.01420546E-02 -1.79503422E-02
 -7.91682402E-02  1.01227249E+00  2.12015554E-02 -9.74226012E-02  5.77069670E-03
 -6.89487292E+00  1.26149208E+00  5.44403592E-02 -1.45826635E-01  1.61079652E-02
 -6.43607449E-02 -5.63018330E-01  7.30983576E-03  6.97744550E-03  2.51334585E-02
 -1.12969879E-01  8.54872954E-02  7.13004465E-02  6.71125795E-03 -7.62662479E+00
 -2.08384145E+00 -6.60086068E-02  2.75430062E-01  1.40549664E-02 -3.65101357E-02
  2.12355837E-01 -1.83959095E-01  1.18413716E-04  5.50884754E-04 -9.35370018E-03
 -9.76752214E-04  4.03211410E-03 -1.54075098E-03 -2.38098940E-03 -8.05320078E+00
  3.15183514E-03 -2.37219534E-03  2.04026277E-03 -3.59302727E-02 -3.71777584E-03
  6.67382848E-02 -7.10050448E-03 -2.55490038E-02  1.13981691E-01 -9.19999924E-02
  7.54987240E-02 -5.66252717E-03  7.62816275E+00 -2.11036296E+00  5.33991862E-02
 -2.75362231E-01 -1.49236534E-02 -3.95983589E-02 -2.13360563E-01 -1.80978781E-01
  1.81274503E-02  7.98043184E-02 -1.01563527E+00 -2.57604055E-02 -9.90059662E-02
 -7.07799316E-03  6.87641415E+00  1.27684443E+00 -4.08089824E-02  1.47058429E-01
 -1.56919530E-02 -6.58969148E-02  5.68985921E-01  1.12307725E-02 -7.24510351E-05
 -2.92149491E-04  1.60752937E-03  3.18473023E-03 -1.67906067E-01 -4.50290835E-04
 -5.50571328E-03 -7.28260895E-01  2.79463902E-03 -5.53060917E-04  1.43280222E-03
 -2.78377230E-02  2.18943402E-03 -2.03532698E-01 -3.08657192E-05 -1.17109503E-04
  3.26065411E-04  2.45622302E-03 -1.11791140E-02  5.23952201E-03 -1.01526215E-02
  6.38060129E-01 -2.08499716E-02 -3.00818397E-03 -7.89372198E-03 -1.57053864E-03
 -3.96864737E-03 -8.71332273E-02 -1.62548296E-02 -8.56821713E-02 -3.02356785E-01
 -4.30360239E-01 -3.35555231E-02  1.43055907E-02  9.17172126E-02  3.09443538E-01
 -4.38365618E-01  5.26219437E-02  3.45478112E-03  1.36046265E-02 -1.17143266E-01
  1.03020519E-01 -3.20040590E-01 -1.17017531E-02 -2.77061116E-01  5.59964905E-01
  4.50622835E-03  2.07114261E-01 -3.39799953E-03  1.14289804E-02  2.52581254E-01
 -2.31059942E-02 -3.38891528E-03 -1.33472285E-02  1.14931212E-01 -1.01915898E-01
 -3.21917807E-01  1.16000613E-02  2.80210645E-01  5.65122376E-01 -4.23745375E-03
 -2.07514529E-01  3.18509814E-03  1.17209545E-02 -2.55848714E-01 -2.20493333E-02
  1.07710102E-01 -2.17271145E+00 -7.68038317E-01  8.59315115E-02 -5.93896828E-02
  7.74754642E-02  1.34520979E+00 -4.97158792E-02  1.28677066E-01 -4.19522379E-02
 -8.09467217E-02 -1.33433719E+00  4.78275419E-02  1.32222544E-01  4.52992799E-02
 -1.07131935E-01  2.17180619E+00  7.76207995E-01  8.55173705E-02  5.67172141E-02
 -1.39488054E-03 -5.66779679E-03  3.44222218E-02 -1.50460242E-02  2.85695909E-03
 -9.90897123E-02  2.72561852E-01 -3.74151241E-02  3.32926824E+00 -6.50875642E-02
 -3.92745487E-01  6.35583260E-04  9.55431626E-02 -1.64277966E-03  2.73704919E-03
  1.06527486E-02 -9.62669189E-02 -1.95818336E-02 -4.97952335E-02  1.32299765E-01
 -3.40084045E-01 -1.49529750E-01 -1.67425056E+00  1.12249189E-02  2.68575292E-01
 -5.90905754E-01  2.00738240E-02 -5.43027358E-03  1.46686542E-03  6.33932836E-03
 -8.96515424E-02 -4.01343454E-02 -6.97453573E-02 -1.33196670E-02  9.07750800E-02
 -1.01568326E-01 -6.34137096E-01  5.93962132E-03 -4.04927155E-01 -1.30344615E-01
  3.69998210E-02 -1.89703624E-02 -1.25696311E-03 -4.06245796E-03 -5.09322772E-02
  4.33628470E-02  1.47299650E-03 -9.23383104E-02 -9.39885069E-01  3.27673642E-02
  2.22384797E+00 -8.05579743E-02 -2.85309117E-01  5.50046267E-04 -5.47890383E-02
 -9.50887948E-04  1.38934194E-03  5.91860401E-03 -8.09506741E-02 -4.13858983E-02
  6.95420391E-02 -1.29101500E-02  3.88608685E-02  1.45995871E-01 -6.31628548E-01
  7.10380228E-03 -4.03594766E-01  1.33699960E-01  3.70450491E-02  2.17954890E-02
  2.70477742E-03  1.04172231E-02 -8.96029134E-02 -1.66600267E-02  5.19265304E-02
  1.33030338E-01 -4.06781018E-01  1.08043518E-01 -1.67571481E+00  1.54415817E-02
  2.67453596E-01  5.94089970E-01  1.55078803E-02  3.22381750E-03 -6.00877094E-04
 -2.38066325E-03  1.45614582E-02 -3.24871827E-02  8.97022904E-04  3.82390128E-01
 -2.79348316E-02 -5.36458539E-04 -1.52531869E+00  6.51568332E-03  1.23227072E-01
  5.10871082E-04 -1.76351856E-02 -5.30863940E-04 -1.00156741E-03 -4.27146869E-03
  2.71396002E-02  1.29543623E-01 -1.25818049E-05  4.97437343E-01 -7.20868744E-01
 -1.56703712E-03 -1.74059341E+00 -8.41572114E-03 -2.48685489E-02 -7.62861527E-04
 -1.10658733E-01  1.33396505E-03 -1.72087570E-02  4.96601932E-01  7.26106167E-02
  1.93462219E-01  5.00884196E-01 -1.72311104E-02  4.93212678E-01  6.75330596E-02
 -1.87749196E-01  5.01619290E-01  9.20394210E-04  3.33994841E-03 -2.31506239E-02
  2.69020514E-03 -5.88665219E-03  1.03376873E-01 -1.85316228E-02  4.36071336E-03
  1.51400153E-01  1.89224341E-02 -4.13032114E-01  6.49298407E-02  1.61455884E-02
  1.54070847E-02  8.82215367E-04  3.19084866E-03 -2.19672911E-02  3.70991811E-03
  7.94204744E-03  1.02965790E-01 -1.91527211E-02 -7.38367643E-03  1.51619150E-01
  2.09976124E-02 -4.14430418E-01 -6.68193108E-02  1.63096960E-02 -1.66091835E-02
 -2.25353028E-02 -1.63646474E-01  3.29519198E-02 -3.98539142E-02  1.50420577E-01
 -4.43419690E-02 -2.00938385E-02  7.01619793E-03 -2.99045680E-02  1.37245895E-01
 -4.19735409E-02 -2.79796219E-02  2.41247921E-03  2.84030948E-02  1.32990333E-01
 -1.95660780E-02 -1.66128842E-01  3.26075228E-02  4.12069508E-02  1.47573786E-01
 -8.25291430E-03 -2.70885510E-02  1.74666441E-01  1.16789226E-01 -5.71089405E-05
 -1.31836281E-02 -1.52592134E+00  1.28868904E-02  4.58431671E-01 -9.36071387E-02
 -4.51624965E-02 -1.81145846E-04 -8.75599243E-01 -3.40263079E-04  1.20194732E-03
  1.24145913E-02 -3.25297516E-01  8.91578267E-02  1.02129582E-01  2.06034853E-02
  2.68211273E+00  7.26068392E-01 -2.71363779E-01  1.00990276E-01  5.86943132E-02
 -7.61754351E-02 -9.35929497E-02 -2.43989740E-01  4.06208208E-04  2.92044797E-03
  3.17738790E-02  1.31463913E-01  2.36535967E-01 -1.97074786E-02 -1.27629290E+00
  2.73025124E+00  1.33183864E-01  2.08917076E-01  3.61963633E-03  2.03880990E-03
  1.49446546E-01  3.72794228E-01 -1.01913176E-02 -4.74809292E-02  8.91204984E-01
 -1.66645886E-01  1.60833770E-04 -8.54982354E-03  7.37034456E+00 -1.02497638E-02
 -2.60532366E-01 -9.35057986E-02 -1.35146638E-01  6.02929954E-04  1.59608193E-01
 -9.37376223E-04  2.32724935E-04  2.18341400E-03  4.04861910E-02  1.29620123E-01
 -2.36828594E-01 -1.91414321E-02 -1.24816436E+00 -2.70260578E+00  1.31458159E-01
  2.04595860E-01  5.11528797E-03  9.53894292E-04  1.47108581E-01 -3.71831088E-01
  1.40953079E-03  1.32627761E-02 -3.33647717E-01  9.07472099E-02 -1.01101632E-01
  2.10249995E-02  2.69240052E+00 -7.59195005E-01 -2.66312215E-01  1.06538604E-01
  5.65261766E-02  7.95608662E-02 -9.07828955E-02  2.44422297E-01  1.33377526E-03
  5.64591342E-03 -6.50081939E-02 -5.16585567E-02 -5.40227967E-04  3.86985736E-02
  4.32471208E-01 -4.05466474E-03 -1.58698081E-01 -3.75921356E-02  2.26961376E-02
 -1.23431152E-03 -6.12929668E-02 -1.77398106E-03  1.47112382E-02  5.53556916E-02
 -2.03505562E-01 -5.88809837E-01  6.54005641E-05  1.89235438E-03  4.66672990E+00
  9.04874046E-04  2.83542121E-01 -7.37837130E-01  1.49954604E-03  5.24986872E-04
 -3.59507914E-01  3.09632669E-04  3.53026116E-01 -3.95587166E+00  5.18031040E-02
 -7.69588836E-01  2.93615331E-01  3.52603379E-01 -3.95831483E+00  5.38041820E-02
  7.67417528E-01  2.94883533E-01 -4.81562955E-03 -1.79320981E-02  1.34133783E-01
 -6.27829039E-03 -1.03456563E-01  1.42521416E-02 -1.04661855E-01  2.89120150E-01
  1.01197768E-02  1.11077967E-01 -5.23767248E-02  5.93136230E-03  9.02368546E-02
  1.04334977E-01 -4.92559262E-03 -1.83606274E-02  1.37621558E-01 -6.65339262E-03
  1.01578923E-01  1.50267364E-02 -1.01359388E-01 -2.86022358E-01  1.01909655E-02
  1.10112522E-01 -5.13804192E-02 -4.04637363E-03  8.72779013E-02 -1.05907165E-01
  8.89595770E-02  1.25762205E+00 -7.09003604E-01  6.03866825E-02  4.52126958E-02
  2.17365392E-01  1.94782869E+00 -2.01964331E-01 -2.75921084E-01 -6.28442236E-02
  2.17940689E-01  1.92130185E+00 -2.02643171E-01  2.75200725E-01 -6.58036000E-02
  8.94266365E-02  1.28374256E+00 -7.01343091E-01 -5.79024931E-02  3.84737598E-02
 -1.32127548E-04 -5.16987766E-04  4.38149490E-03 -7.11472571E-04 -3.02574421E-01
 -3.34438089E-04  4.96205612E-03  1.64171018E+00  1.34070764E-02 -1.69993055E-03
 -9.13426967E-04 -2.95059535E-01 -1.75290213E-03  1.71883065E-01  8.33436004E-03
  2.86305859E-02 -5.32288736E-02  1.91617293E-01 -1.67630684E-01  1.25343450E-01
 -1.88924227E+00  3.03071840E+00 -2.54459203E-01  4.74757474E-01 -4.73544215E-01
 -5.62420889E-01 -1.18420511E-01  8.94491749E-02 -1.24732585E-02 -5.77253587E-02
  8.73769715E-01 -1.49659606E-01  1.32507242E-02  1.12188298E-01 -4.89330137E-01
 -2.79825616E+00  8.87665817E-01 -1.32139640E-01  4.55551899E-01 -5.63628645E-01
 -1.08605601E-01 -1.51177194E-01 -8.13322275E-05 -3.25211977E-04  2.89362190E-03
 -1.32275810E-04 -1.99361559E-01 -5.54855330E-04  1.64146871E-02 -1.31184050E+00
  8.73997125E-03 -2.64910153E-03 -8.05984692E-04  5.46768300E-02 -1.27025819E-03
  1.74977811E-01  1.24895299E-02  5.78219215E-02 -8.75275553E-01  1.47965666E-01
  1.31385137E-02 -1.11901881E-01  4.82112468E-01 -2.80884794E+00 -8.92663183E-01
  1.32786370E-01 -4.56792193E-01 -5.62208734E-01  1.09051902E-01 -1.53427282E-01
 -8.16306269E-03 -2.79174451E-02  4.59836417E-02 -1.92389793E-01 -1.65350852E-01
 -1.24294194E-01  1.90119160E+00  3.02678923E+00  2.43640179E-01 -4.72886572E-01
  4.73888429E-01 -5.58240679E-01  1.18252444E-01  8.92122861E-02 -3.47248674E-05
 -1.40743690E-04  5.94728392E-04 -1.66277608E-03 -4.72585423E-03  1.45139068E-03
  2.95920422E-03  4.24239496E-01 -6.89180583E-03 -1.30267422E-04 -5.31134409E-04
  4.13813851E-02 -1.42974123E-03  1.97394850E-01  9.75230786E-05  3.81942047E-04
 -1.60194902E-03  8.73301591E-04  6.19619583E-02  2.33916379E-03  3.73569431E-03
 -4.98347951E-01 -7.93931809E-03 -5.40178754E-04  2.97188295E-04  6.97768418E-01
 -2.93500119E-03 -2.46615756E-01 -4.80812868E-02 -4.54420432E-01 -2.12149657E-01
 -1.57126295E-01  5.62281508E-01  4.97097621E-02  4.39441829E-01  2.16626647E-01
 -1.56240402E-01 -5.57086928E-01 -8.44716398E-03 -3.28691735E-02  2.62920617E-01
  5.50549946E-02 -3.65921065E-02  1.70641243E-02  8.13516688E-02  1.06013141E-01
 -1.53270980E-02  2.49071981E-02 -2.21419013E-01  1.50872013E-01 -1.25864395E-01
  1.09128169E-01  8.37419484E-03  3.25746605E-02 -2.60379444E-01 -5.43792300E-02
 -3.38681034E-02 -1.63435392E-02 -8.45205879E-02  9.90171775E-02  1.62731953E-02
 -2.14696446E-02  2.19007545E-01  1.50155196E-01  1.28025816E-01  1.06185844E-01
  1.65356021E-01  1.11761060E+00  2.36232222E-01 -1.61141895E-01 -5.13586255E-01
  1.59532931E-01 -1.48256941E+00 -2.99660088E-01  5.88579128E-02 -8.98309377E-01
 -1.59264696E-01  1.49262117E+00  2.96717294E-01  6.12619455E-02  8.97975233E-01
 -1.64285113E-01 -1.11399773E+00 -2.45234162E-01 -1.60376530E-01  5.15409510E-01
  1.71279797E-02  6.63108547E-02 -4.25721037E-01  1.37448481E-01 -1.27537575E-02
 -4.58251267E-03 -1.33441409E+00  5.13701011E-02  2.98443459E-01  5.05378446E-01
 -4.32064323E-02  1.02449662E-02  7.57883898E-02  5.10787497E-03 -8.58592663E-03
 -3.47560486E-02  3.50574845E-01 -7.58364481E-02  3.53901525E-01  4.62094660E-03
  2.86317703E-01 -3.08463901E-01 -1.15774603E-01 -1.27912928E-01  1.06295579E-01
 -5.48478242E-02  1.37655594E-02 -2.17055742E-01 -9.62797019E-03 -3.94186570E-02
  4.10744170E-01  1.53757370E-02  6.80588456E-02 -1.32836865E-02 -9.49505008E-02
  1.15085694E+00 -3.92801162E-02 -5.97340571E-02 -1.92627412E-02  4.23756063E-02
 -9.99536142E-02 -1.44391465E-01  1.27913761E-02  4.99855408E-02 -3.48653499E-01
 -1.09278212E-02 -5.35317879E-03  9.26198254E-04  1.84491610E+00 -5.52193061E-02
 -7.13125116E-02  3.12527440E-01 -1.08241650E-02 -9.32420629E-03  1.73991232E-01
  5.22072177E-03 -8.78813426E-03 -3.55029099E-02  3.49445625E-01  3.16207864E-02
 -6.68035788E-02 -7.64056658E-03 -1.02564704E-01 -1.34803135E+00  4.06681268E-02
 -5.31281488E-02  1.14201449E-03 -1.52866788E-02 -9.76079434E-02  1.24941142E-01
 -9.16445977E-03 -3.66610343E-02  3.49163707E-01 -9.55120266E-02 -3.68359215E-01
  1.00703550E-02  4.51626600E-01  5.11865228E-01 -1.56115892E-01 -1.62477371E-01
  7.56590097E-02  7.19819449E-02  1.86957696E-02  2.27729589E-01  3.65873330E-03
  1.43755534E-02 -5.76069675E-02  4.02595392E-01  8.24369080E-04  1.80707454E-02
 -6.22937186E-01  2.22407591E-02 -6.53270654E-02 -2.63561205E-02  3.78257073E-02
 -3.88903602E-03  2.85563938E-01  9.44609996E-03 -5.26027271E-03 -2.22984367E-02
  1.16833232E-01 -3.70812716E-01 -3.27307752E-03  8.24320130E-02  1.87291363E+00
  2.11691604E-02 -2.39765231E-01 -4.19139965E-01 -7.34853618E-02 -1.99113557E-02
  1.14132008E-01  2.69706729E-03  7.80834910E-02 -1.17134056E+00 -1.87880221E-01
 -2.70541715E-01  2.33930280E-01  7.71257968E-02 -1.17719794E+00 -1.76678952E-01
  2.47705665E-01  2.71251555E-01  2.72993453E-03  1.20300081E-02 -1.22246401E-01
 -1.86597706E-02  2.31333483E-01  1.08027160E-02  3.10222487E-01 -5.98169772E-01
  1.32858262E-03 -2.71627967E-01 -3.88991373E-02 -5.09803077E-03 -2.72473659E-01
 -2.52156115E-01  3.57802031E-03  1.53373746E-02 -1.48938147E-01 -2.20059157E-02
 -2.31786610E-01  1.42059500E-02  2.99090954E-01  6.04474275E-01 -1.16576139E-03
 -2.70900482E-01 -4.98517833E-02 -4.80852777E-04 -2.59323396E-01  2.62480973E-01
  8.33599093E-03  5.00659977E-01  6.92853090E-01  2.18699295E-01  4.15882160E-02
  4.90828313E-02  2.41111247E-01  1.90407494E-01  9.24717787E-02 -1.09637214E-03
  3.71529483E-02  3.61167172E-01  2.36160127E-01 -9.45602163E-02 -5.01292695E-02
 -6.27102731E-03  4.38291685E-01  6.59887491E-01 -2.33313758E-01  2.93697170E-02
  6.11887006E-04  2.37049692E-03 -1.57271859E-02  4.78520660E-03  3.68800495E-01
 -1.35600945E-05 -4.35151053E-02 -2.40763322E+00  2.04046303E-03  1.73576085E-02
 -9.93759658E-04 -3.15302526E-01  3.70748813E-03 -1.40441028E-01 -5.24030437E-03
 -1.44403084E-02 -1.61468775E-01 -2.87058151E-01  2.11298025E-01  9.90063721E-02
  3.14222336E+00 -2.88591244E+00 -4.88574385E-01 -4.26183374E-01 -5.06458232E-01
 -3.53874262E-01  1.11614046E-01 -1.81165595E-01  9.15916685E-03  4.45516977E-02
 -7.70192250E-01  2.11600883E-01 -4.57694877E-03  1.02263167E-01  7.97138042E-01
  2.84436350E+00  1.18588597E+00  1.02132926E-02  3.72453201E-01 -4.94862958E-01
  1.73451446E-02  2.69255573E-01  4.70860955E-04  1.85434788E-03 -1.37976314E-02
 -2.05810987E-04  1.72373435E-01  2.54035886E-04  5.29364443E-02  2.45598269E+00
 -1.03620313E-02  1.11983976E-02  6.22373175E-04  2.43983111E-01  5.79189717E-03
 -1.18906071E-01 -9.80264928E-03 -4.71718388E-02  7.96517475E-01 -2.10119621E-01
 -9.09232971E-03 -1.02972982E-01 -7.98578171E-01  2.77040667E+00 -1.17798780E+00
 -1.53599746E-02 -3.69629042E-01 -4.97985274E-01 -2.45835053E-02  2.79193318E-01
  4.63507509E-03  1.19880998E-02  1.85870473E-01  2.81422343E-01  1.87395778E-01
 -9.87774598E-02 -3.12574085E+00 -2.85847268E+00  4.85917396E-01  4.15569488E-01
  5.11046856E-01 -3.52906471E-01 -1.09664359E-01 -1.66552352E-01  1.13589534E-04
  4.47810415E-04 -1.76220336E-03  1.41923732E-02 -9.84391675E-03  1.25198063E-04
 -2.22950397E-02 -5.20964897E-01  5.90257456E-04 -1.00322439E-03  1.32069111E-03
  1.31290209E-01  1.00512700E-02 -2.11569282E-01 -2.05975221E-04 -8.58261790E-04
  4.28806950E-03 -1.19630461E-02  1.15961400E-01  1.55069391E-03  5.72678017E-02
 -8.76517960E-01 -3.64668752E-03 -1.23781225E-02 -2.08284475E-03  6.26060271E-01
  5.46164673E-03 -7.10135626E-02 -2.44037541E-02 -2.27214513E-01  1.99344508E-01
  3.53315532E-01  5.84331801E-01  2.83543800E-02  1.58642008E-01 -2.12344582E-01
  3.70053487E-01 -5.71003606E-01  1.10187509E-02  4.30467667E-02 -3.47972338E-01
 -5.12826609E-02  3.25645407E-02  5.44010264E-02 -1.08258933E-01 -1.45279071E-01
 -3.60813196E-02  3.58073262E-03 -1.89727490E-01  8.98071184E-02  1.42673198E-01
 -1.36953070E-01 -1.07759945E-02 -4.20064350E-02  3.37826969E-01  4.99373089E-02
  1.65345386E-02 -5.40238719E-02  1.29635434E-01 -1.03334738E-01  3.61498483E-02
 -2.22148492E-02  1.87924314E-01  9.04487869E-02 -1.60956899E-01 -1.19438800E-01
 -2.13882646E-01 -5.19410276E-01 -4.21394773E-01  2.28135053E-01 -3.15478652E-01
 -1.75883497E-01  1.39983740E+00  6.15045569E-01  1.17022451E-02 -8.30192789E-01
  1.78203072E-01 -1.38570413E+00 -6.00354414E-01  4.07959388E-03  8.26835614E-01
  2.13256616E-01  5.50875989E-01  4.69372841E-01  2.12667377E-01  3.17267494E-01
 -8.20960034E-06 -6.27949347E-06 -1.19060929E-03  5.54578034E-04 -3.05958046E-02
  3.49890939E-05 -3.40074609E-03  4.38388114E-01 -3.57496287E-03 -2.18575751E-03
 -6.15900037E-04 -8.22406910E-02 -1.05481918E-03  9.43655721E-03 -6.66929770E-04
 -3.42420673E-03  6.55505670E-02  3.99982222E-02 -1.80197406E-02  1.49489698E-02
 -5.77388943E-01  1.74313133E-01  1.69390570E-01  1.50447410E-03 -4.69856661E-01
 -1.26230943E-01 -1.35810927E-02  3.31294754E-02  5.19279125E-04  1.59283224E-03
  8.82948074E-03 -1.60516834E-02 -3.13194348E-03  1.21437532E-01 -3.04934860E-01
 -1.67632083E-01  4.90140285E-01  3.62888665E-02  4.23786333E-02 -6.68165494E-01
  3.84203057E-03 -3.77314852E-02 -6.31627636E-05 -2.74480161E-04  3.79752318E-03
 -7.27028331E-04 -9.30446800E-03 -3.50522846E-05  2.18391505E-02 -5.94988607E-01
 -1.58238986E-03 -1.47962287E-03 -3.52483215E-04  1.34352994E-01  1.05694551E-03
 -2.81219789E-02 -5.17155766E-04 -1.57382672E-03 -8.70717060E-03  1.58914048E-02
 -3.58913748E-03 -1.21339410E-01  3.03063557E-01 -1.79878027E-01 -4.90338835E-01
 -3.41943880E-02 -4.19488025E-02 -6.68542047E-01 -2.79589892E-03 -4.16017737E-02
  7.54720864E-04  3.82950940E-03 -7.10168179E-02 -3.87732068E-02 -1.62762025E-02
 -1.50622009E-02  5.83444095E-01  1.53599306E-01 -1.63791040E-01  4.46243420E-04
  4.68471920E-01 -1.27245829E-01  1.77305603E-02  3.39863369E-02 -2.69734373E-05
 -1.07683353E-04  5.48559460E-04  2.82538407E-04  6.51414660E-03 -1.07078578E-05
 -4.09955887E-03  3.34805150E-02  8.21152648E-05 -1.22668853E-03 -2.20944882E-05
  6.71714445E-01 -2.16817751E-04  8.74794252E-03  2.40781644E-05  8.83045839E-05
 -3.27485273E-04 -1.09515925E-03 -6.17746587E-02 -3.43915551E-04  1.45402175E-02
  5.95438275E-01  2.70150530E-03 -2.14709780E-03  3.37561016E-04 -2.83443673E-01
 -1.36245447E-03  1.04556785E-01  2.43480811E-02  3.63713120E-01 -5.99901388E-02
 -5.08527423E-02 -2.00688844E-01 -2.32371801E-02 -3.88618213E-01  6.09990415E-02
 -4.53729918E-02  2.01293024E-01 -9.21950137E-04 -3.62116829E-03  2.96163309E-02
  3.71392292E-04  3.32947783E-03  2.13988079E-01  1.42085239E-02  6.79734345E-03
 -3.55253488E-02 -7.33715594E-03  3.42126227E-01 -6.44122155E-01 -1.06672970E-02
  1.06000010E-02  1.03008622E-03  4.05050217E-03 -3.32757147E-02 -5.19777325E-04
  2.68338052E-03 -2.14140109E-01 -1.35093942E-02  9.83984165E-03  3.59860151E-02
  9.95607285E-03 -3.41557955E-01 -6.44407676E-01  1.15542415E-02  9.96171402E-03
  2.36287478E-02 -1.37810393E-01  7.94592181E-02 -3.33464346E-02 -5.83842927E-01
  1.90155763E-02 -1.88757212E-02 -8.89885847E-02 -1.03583120E-02 -5.81229233E-01
 -1.85479152E-02  3.14692501E-02  8.47685203E-02 -8.39029884E-03  5.81612025E-01
 -2.37211591E-02  1.55760560E-01 -7.59254729E-02 -2.98218794E-02  5.81531049E-01
  3.74363956E-05  1.32129896E-04 -9.20255217E-05 -2.21941576E-04  6.59193850E-02
  1.85839795E-04 -2.39130754E-03  1.32855271E+00  4.52941392E-03  2.80537149E-03
  5.02265526E-04 -3.13455238E-01 -3.41765597E-04 -1.14459164E-01 -1.91519078E-02
 -8.21939125E-02  9.99085854E-01  3.48222567E-01  4.38154561E-02 -1.71726638E-02
 -2.92426495E+00 -1.50492528E+00 -8.45381585E-01 -4.93984401E-01 -1.47323056E-01
  2.16044344E-01 -3.91771813E-02  2.83228484E-01  1.73489382E-02  6.57204332E-02
 -4.37700765E-01  2.49859348E-02 -2.00538958E-01  3.40506450E-02 -1.33204791E+00
  2.18191259E+00  9.84924691E-01  7.54320117E-01 -2.58923197E-02 -1.56720387E-01
 -2.42095679E-01  6.08735433E-03  6.77481592E-05  2.83862676E-04 -3.20463545E-03
  7.15314264E-04 -3.99291303E-01  2.36768132E-04 -1.33376701E-02 -2.28046190E+00
  8.03406176E-03  2.03140199E-03  6.49915745E-04  4.66270657E-01 -2.66171310E-04
 -4.22736373E-01 -1.73415541E-02 -6.56939663E-02  4.37020105E-01 -2.40507314E-02
 -2.00857268E-01 -3.34782947E-02  1.33300234E+00  2.18687559E+00 -9.90627467E-01
 -7.56935738E-01  2.28447352E-02 -1.53718328E-01  2.41440296E-01  8.24269813E-03
  1.90302282E-02  8.16756027E-02 -9.93116568E-01 -3.49322893E-01  4.14022838E-02
  1.71564568E-02  2.92743710E+00 -1.49129866E+00  8.40975617E-01  4.91367459E-01
  1.47888671E-01  2.17215078E-01  3.52911407E-02  2.83121621E-01  4.32545687E-05
  1.71013582E-04 -8.44274778E-04  2.86081260E-04  1.39455177E-01  5.54688339E-05
  2.64706672E-03 -1.18492870E-01 -1.27702221E-03  9.81027796E-04 -1.02676096E-03
  2.36999025E-02  5.67499476E-04 -1.23150849E-01 -2.50472328E-05 -9.74338164E-05
  4.29594640E-04 -7.01348038E-05 -3.50502326E-01  8.46938629E-04 -5.25286033E-03
  3.21476823E+00 -4.16049799E-03  7.37021263E-04  4.94356362E-04  1.24388195E-01
  1.02500578E-03 -2.97201198E-01  1.74767327E-01  1.63208784E+00 -7.61841870E-01
 -3.82234336E-01 -4.83387917E-02 -1.75447298E-01 -1.61805963E+00  7.59524256E-01
 -3.85322784E-01  4.95642742E-02 -1.43453960E-03 -5.78815011E-03  4.64982218E-02
 -8.99606595E-02  1.41118247E-01  2.68267226E-02  1.47010794E-01 -1.74620964E-01
 -4.95256645E-02 -1.61821166E-01 -1.44295444E-01  1.11761372E-01 -8.99662980E-03
 -2.16505394E-03  1.34383525E-03  5.43187651E-03 -4.35075117E-02  8.97936887E-02
  1.40583153E-01 -2.67904565E-02 -1.46444722E-01 -1.74832586E-01  4.91401368E-02
  1.58949144E-01  1.44680765E-01  1.11704895E-01  7.91471335E-03 -8.75803209E-04
  7.74938102E-02 -2.12685695E+00  8.88552844E-01 -1.62980588E-01  3.32045088E-01
  1.99756674E-01  1.62570159E+00 -1.71973493E-01 -5.26335718E-02 -3.06430852E-01
 -1.99898004E-01 -1.63316266E+00  1.74528681E-01 -5.42821351E-02  3.07566386E-01
 -7.76083473E-02  2.11570534E+00 -8.91981705E-01 -1.67076088E-01 -3.33608510E-01
 -2.04191934E-03 -1.48388217E-02  5.59729582E-01 -7.58609434E-02 -1.99091533E-04
  3.43244239E-03 -1.23277296E+00  1.01919736E-02 -9.27007800E-03  7.17264466E-01
  8.42140884E-02  4.54573317E-03 -5.66932453E-01  1.10058497E-04 -1.37652844E-02
 -6.05638805E-02  7.74129737E-01 -2.53955446E-01  2.85761032E-01 -1.66917596E-02
  2.13853882E+00 -1.85044574E+00  7.33124062E-02 -3.26360415E-01  1.34754675E-03
  9.54763552E-03 -7.39534522E-01  3.60734622E-01  4.80866244E-03  1.99879631E-02
 -2.80711451E-01  1.26045881E-01  5.66055166E-03  2.74579115E-02 -1.30467884E+00
 -4.59218341E-01 -2.93956160E-01 -2.32544517E-01 -6.74599250E-02 -9.68670685E-02
 -2.77650895E-01 -2.51957093E-01  4.85784748E-03  2.33509035E-02 -3.84448235E-01
  1.29347778E-01  5.42345874E-05  5.92096874E-03 -7.75058045E-01 -2.47690116E-03
  6.85577687E-01  2.29082610E-01  1.40430226E-01 -3.05136639E-03 -5.32483509E-01
  1.23295369E-03  4.82617202E-03  2.00537955E-02 -2.81180037E-01  1.25452505E-01
 -5.30755417E-03  2.72266575E-02 -1.28960807E+00  4.52785362E-01 -2.80648598E-01
 -2.32142948E-01 -7.19495751E-02  9.80629396E-02 -2.78934154E-01  2.52990240E-01
 -1.37517802E-02 -6.05117911E-02  7.73651762E-01 -2.53136041E-01 -2.85452555E-01
 -1.78450003E-02  2.14544243E+00  1.85446354E+00  5.18190404E-02 -3.26795958E-01
  2.58656031E-03 -1.44233351E-02 -7.39590223E-01 -3.60821577E-01  1.67391440E-02
  6.68562313E-02 -3.65890578E-01 -1.46397215E-01 -5.47398810E-04 -4.69224733E-03
  1.85402459E+00 -7.93769792E-04  2.69183431E-02  3.11977710E-01 -3.87004086E-02
  1.28616051E-03 -5.43239736E-02 -5.58813175E-04  1.04336128E-02  4.18602340E-02
 -1.91182295E-01  1.72439928E-01  7.35859310E-04  9.16709822E-02 -2.05106668E+00
 -8.33153854E-03 -6.59573959E-01  1.86040046E-01 -5.42035902E-02  2.63410891E-03
 -1.31298276E-01 -1.15429130E-03  9.40399652E-02  1.10390760E+00  2.18950155E-01
  5.35557324E-01  5.23189800E-02  9.47190323E-02  1.11778505E+00  2.16277444E-01
 -5.35497395E-01  4.76838353E-02 -2.23123746E-02 -8.77848594E-02  7.45736329E-01
  2.78806317E-03 -7.99494011E-02 -1.29875281E-02 -1.68064310E-01  6.08476613E-01
  1.22973538E-02 -3.09780786E-01  4.17932496E-02 -8.82989477E-03  2.35216269E-02
 -6.65408209E-02 -2.23549356E-02 -8.79548005E-02  7.47247674E-01  2.41690542E-03
  7.90087701E-02 -1.32174877E-02 -1.66466884E-01 -6.07159193E-01  1.17511374E-02
 -3.10592790E-01  3.78025942E-02  3.28648544E-03  2.23533544E-02  6.59770667E-02
  2.02346253E-01 -1.73143485E+00 -1.16908186E+00  4.79827873E-01 -2.90476832E-02
  4.95225928E-02 -7.72052773E-01  7.80412918E-01  1.42963567E-01  3.32793060E-02
  5.01374215E-02 -7.76268065E-01  7.77258740E-01 -1.41811225E-01  3.21980670E-02
  2.02771639E-01 -1.73334316E+00 -1.16490591E+00 -4.78517594E-01 -1.78134973E-02
  3.51053138E-05  1.66998889E-04 -2.86789574E-03 -1.25282673E-04  7.87874319E-02
 -1.10802143E-04  6.65110281E-03  4.69928149E-01 -4.17345229E-03 -4.69752425E-04
 -2.69760211E-03  1.06714284E+00  1.23369021E-03 -2.84609551E-02 -7.14994555E-03
 -3.03324750E-02  3.49295942E-01  9.36568148E-02  4.57756436E-02  1.43083419E-01
 -7.98553050E-01 -4.75301018E-01  2.36103382E+00 -1.99245961E-01  1.18489923E-01
 -8.93998372E-01 -3.31432724E-02  6.95777373E-02  5.77902778E-03  2.09265889E-02
 -9.67080307E-02  4.55791943E-02 -9.31413458E-02 -5.19107308E-02 -6.82806241E-01
  8.26811964E-01 -1.72626547E+00  2.94028508E-01  4.62346327E-01  6.43110216E-01
 -1.83656734E-01  6.32389284E-02  7.86933703E-05  3.35211932E-04 -3.44394959E-03
 -9.63287233E-04 -2.06595336E-01 -3.89890589E-04  2.73426822E-04 -4.98658041E-01
 -1.33827760E-02 -2.43904088E-04 -5.91607300E-04 -7.31495866E-01  2.93725890E-03
 -8.74469036E-02 -5.74917277E-03 -2.07689950E-02  9.40579578E-02 -4.58947192E-02
 -9.36037035E-02  5.09312971E-02  7.01272873E-01  8.22616581E-01  1.73674318E+00
 -2.93087379E-01 -4.61863971E-01  6.38281812E-01  1.87584512E-01  5.90183689E-02
  7.16681484E-03  3.04576150E-02 -3.52330547E-01 -9.19474649E-02  4.65002348E-02
 -1.42743551E-01  7.92561636E-01 -4.86068790E-01 -2.35998722E+00  2.00084314E-01
 -1.18207508E-01 -8.95715062E-01  3.63781494E-02  7.30948689E-02 -7.38609950E-05
 -3.00448710E-04  1.62438242E-03  9.76779353E-04  6.62017118E-02 -1.77086137E-04
 -3.63968657E-03 -2.00413820E-01  7.69691923E-04 -7.45607959E-04  1.61753592E-03
 -1.59752942E-01  6.86446724E-04 -8.83313186E-02 -9.86047066E-05 -3.92246016E-04
  1.71648161E-03 -1.63807978E-03  3.46559066E-02 -1.24651395E-03  1.16444150E-02
 -7.48349954E-01  6.15383900E-03 -4.26907673E-04 -2.09995296E-03  9.43545675E-01
  3.25296902E-03 -6.26334536E-01 -1.81811371E-02 -1.01059296E+00 -1.62704941E-01
 -2.03278116E-01  6.10039311E-01  1.64854762E-02  1.00332245E+00  1.57137969E-01
 -1.95098105E-01 -6.09910755E-01  1.40748730E-03  5.55565701E-03 -5.00895160E-02
 -4.47707845E-02  6.62323457E-02 -1.03467009E-01  5.04058366E-02 -1.14263875E-01
  1.50938953E-01 -5.53371404E-02  2.96878371E-01 -1.50215559E-01  1.64826321E-02
 -1.85824677E-02 -1.36673024E-03 -5.39983916E-03  4.87831972E-02  4.54197543E-02
  6.64375889E-02  1.03876279E-01 -4.98242896E-02 -1.12906710E-01 -1.51143391E-01
  5.75813115E-02 -2.98659499E-01 -1.50589950E-01 -1.71062770E-02 -1.96753477E-02
  1.35383786E-03 -6.10663394E-01  3.16270743E-01 -4.69762139E-02 -1.09873025E+00
  1.04743980E-01  6.52041188E-01  2.13382855E-01  4.45736803E-02  5.17380275E-01
 -1.06379267E-01 -6.45176411E-01 -2.22571191E-01  4.65131789E-02 -5.17040583E-01
 -3.29092823E-03  6.27412212E-01 -3.14605157E-01 -4.80815851E-02  1.09926829E+00
  4.41297577E-03  2.17389899E-02 -4.36077046E-01  7.20674507E-02  9.40174292E-04
  1.85290448E-02 -8.94684252E-01 -1.24836258E-02  7.70047300E-01 -3.74683008E-01
  6.13815395E-01  4.26101397E-03  7.17720592E-02 -1.10061772E-03  1.02232537E-02
  4.23560301E-02 -5.02252259E-01  1.03689196E-02 -1.50507522E-01 -5.43745086E-02
 -3.39815356E-01  9.83372329E-01 -3.80597392E-01  2.27146036E-02 -2.08088897E-01
 -3.78527420E-02  1.63844523E-01  2.78351597E-02 -9.83592810E-03 -4.48794162E-02
  6.41196793E-01  6.78091360E-02  9.70536085E-02  1.26486548E-01 -1.15815372E+00
 -1.08897042E+00 -1.07358671E+00  3.22487242E-03 -4.36646774E-01 -7.90241635E-01
 -3.92809534E-01 -2.69759175E-01 -1.98900725E-02 -8.98788412E-02  1.21221372E+00
  1.82851569E-01 -3.55054514E-04  1.52504446E-01  3.18827310E-01  1.38675277E-02
  3.59917682E+00  2.17836003E-01  2.30525331E-01 -2.62239603E-03 -2.45583604E-01
  5.03066310E-04 -9.90420633E-03 -4.51839810E-02  6.45283076E-01  6.74371932E-02
 -9.75159383E-02  1.26875990E-01 -1.18079729E+00  1.11178117E+00 -1.06019267E+00
  1.61220510E-03 -4.38951607E-01  7.95532467E-01 -3.93095510E-01  2.72993191E-01
  1.02725160E-02  4.25304627E-02 -5.03004300E-01  9.81121206E-03  1.51414966E-01
 -5.53564708E-02 -3.57550952E-01 -9.99681741E-01 -3.98159682E-01  2.54195724E-02
 -2.09330993E-01  3.10691474E-02  1.61832637E-01 -2.90949525E-02  3.18701217E-03
  1.37886199E-02 -7.19133757E-02 -4.02933218E-02 -1.29788008E-04  3.56481619E-02
 -6.31820687E-01  4.70770910E-04 -2.37835996E-01 -1.01308006E-01 -3.95838388E-01
 -1.12909633E-03  1.07803638E-02  1.30369845E-04  1.27876820E-02  4.82800596E-02
 -1.55290486E-01  1.98260139E-01 -4.03873280E-04  2.57581143E-01 -1.55614769E+00
 -3.02820429E-03 -1.59540357E+00  1.13424039E-01  4.84070088E-01  2.95632232E-03
 -6.29899926E-01 -1.96638542E-03  3.17560104E-01  1.69145619E-02  5.62691049E-01
  5.82345495E-01  3.96974518E-02  3.16852034E-01  2.72684388E-02  5.61964260E-01
 -5.84752624E-01  3.51763193E-02  1.12823230E-02  4.49386155E-02 -3.89077696E-01
 -5.68693661E-02  8.12077537E-02 -9.35953727E-02  9.26917348E-02 -3.71070353E-01
  1.37040293E-01  1.09841551E-02  2.96260245E-01 -1.61030077E-02  1.15241572E-02
 -6.00957326E-02  1.12796335E-02  4.49305515E-02 -3.89111021E-01 -5.65352999E-02
 -8.11825036E-02 -9.26060644E-02  9.18503293E-02  3.70359720E-01  1.35508869E-01
  1.09700559E-02  2.94364897E-01  1.62552045E-02  1.14893233E-02  6.07626438E-02
 -6.96358199E-02  4.57173700E-01  5.63565605E-01 -2.87301396E-01 -1.58431520E-01
  1.72476253E-01 -8.57231146E-01  7.92123923E-01  2.59150175E-01 -6.44938381E-02
  1.73624993E-01 -8.68800701E-01  7.92486218E-01 -2.59568778E-01 -6.88939401E-02
 -6.85047291E-02  4.57935161E-01  5.62813332E-01  2.88108424E-01 -1.50264416E-01
 -1.20186846E-03 -6.96720940E-03  1.93579200E-01 -9.45199154E-02 -4.67206811E-04
  4.70561592E-02  8.86722795E-01  3.81245735E-02  1.63973141E+00  2.82595294E-01
  6.29536574E-01 -4.71714274E-04 -6.59650994E-02  3.70969680E-03 -7.40857941E-03
 -2.92372425E-02  3.01935852E-01  1.23622726E-02  1.15790784E-01 -3.21376542E-02
  1.00196956E-01 -5.77133686E-01 -1.01937098E+00 -1.53123103E-02 -3.13073103E-01
 -2.09708836E-01 -1.49039753E-01 -5.47377128E-02  6.45028880E-03  2.97339772E-02
 -4.54315378E-01 -2.35709438E-02 -4.29517474E-02  1.11601661E-01  1.24412535E+00
  9.85354460E-01 -7.74775845E-01 -2.17592147E-02 -5.86008515E-01 -9.01400784E-01
  4.46562802E-01  4.14357636E-01  1.41823489E-02  6.18806810E-02 -7.39068305E-01
 -1.43697874E-02  4.61105017E-04  2.40407105E-01 -1.66923523E-01 -5.09354779E-02
  3.72734827E+00 -1.74362890E-01 -4.78269533E-02 -3.31633822E-04  5.83669230E-01
 -3.83396386E-03  6.51153474E-03  3.00266137E-02 -4.58173125E-01 -2.50775332E-02
  4.32351892E-02  1.11670881E-01  1.33653453E+00 -1.04486533E+00 -7.73313983E-01
 -1.76694123E-02 -5.85642336E-01  9.01265377E-01  4.50759697E-01 -4.19377994E-01
 -7.47798409E-03 -2.94815075E-02  3.03789314E-01  1.50719133E-02 -1.16270957E-01
 -3.19282878E-02  1.53059973E-01  6.22953474E-01 -1.01960412E+00 -1.55177325E-02
 -3.13480107E-01  2.11589294E-01 -1.43793266E-01  5.84885692E-02 -5.97279083E-03
 -2.51673602E-02  1.38287880E-01  6.17215234E-02  3.96211713E-04  9.17398120E-02
  3.29153849E-01 -5.11580407E-03 -6.33627870E-01  5.75488471E-02 -5.43637144E-01
  9.71742320E-05  1.24566091E-03 -1.40316107E-03 -1.27665041E-02 -4.93187379E-02
  1.86160301E-01 -2.60664524E-01  7.21751972E-04  2.84593376E-01  2.38512540E+00
  1.30904535E-02 -1.16448532E+00 -2.24859050E-01  8.60475956E-01 -2.03934447E-04
  4.93619958E-01  3.31257243E-03 -3.10219063E-01 -4.91334133E-01 -6.42877771E-01
 -6.87430317E-01  5.36144041E-03 -3.06321320E-01 -5.30139935E-01 -6.41768303E-01
  7.02959402E-01  8.09728989E-03 -7.47410874E-03 -3.00987580E-02  2.67067545E-01
  5.58026611E-02 -6.47399143E-02 -9.57007900E-02 -7.65954784E-02  2.68900808E-01
  1.80207472E-01  4.29862924E-02  3.28747198E-01  1.42614471E-03 -1.03585550E-02
  6.87390931E-02 -7.55657914E-03 -3.04274322E-02  2.70055915E-01  5.59280777E-02
  6.51937770E-02 -9.58944225E-02 -7.55957291E-02 -2.70089719E-01  1.80366200E-01
  4.33464043E-02  3.28318172E-01 -2.16407578E-03 -1.13305720E-02 -7.04212938E-02
 -8.63800166E-03 -1.78254523E-01 -4.50835967E-01  2.70313076E-01 -1.84853037E-01
 -1.78257161E-01  1.03150597E+00 -8.29047717E-01 -1.85851683E-01 -2.04279980E-01
 -1.80352068E-01  1.05161403E+00 -8.42783300E-01  1.90063562E-01 -2.05375673E-01
 -1.06535425E-02 -1.73861808E-01 -4.51314874E-01 -2.73523584E-01 -1.85644732E-01
 -5.52594767E-05 -2.52216036E-04  3.86238755E-03  3.22558467E-05  8.28257987E-02
  3.75535565E-04  1.38429886E-04 -3.89411259E+00  6.83364169E-03  7.45318074E-04
  2.58847653E-03  3.15249825E-02 -9.20040987E-04 -6.42745727E-01 -6.72757481E-03
 -2.34460044E-02  1.69577144E-01  1.79101856E-01  8.24599549E-02  7.99526813E-03
  2.32659383E+00 -2.39566088E+00 -9.27184027E-03 -5.58210966E-02 -5.43022255E-02
 -4.68382220E-02  4.60586521E-01 -2.67032548E-01  2.06245084E-03  1.45458268E-02
 -2.63608761E-01 -1.46565590E-01 -1.90692054E-02  7.78654996E-03  5.95633347E+00
  3.57696698E+00  1.30509070E-01  3.72934033E-01  9.70053923E-03  4.76827935E-03
  7.05404788E-01  6.25513698E-01  3.25565980E-05  1.62193870E-04 -2.73054577E-03
 -6.02030360E-04  1.23824675E-02  7.69766703E-04  1.10176494E-02  7.78599733E+00
  1.13317974E-02 -3.98392119E-03 -9.53041230E-04  8.19307609E-02  3.81692095E-03
  1.24755617E+00 -1.93849855E-03 -1.39927368E-02  2.56112447E-01  1.44780288E-01
 -1.70675391E-02 -7.16264631E-03 -5.94033165E+00  3.55511535E+00 -1.36256011E-01
 -3.70579848E-01 -1.11839254E-02  1.02932887E-02 -6.98016277E-01  6.21021528E-01
  6.64241828E-03  2.30897099E-02 -1.64790180E-01 -1.79149426E-01  8.14909824E-02
 -7.98806201E-03 -2.32468535E+00 -2.38970184E+00  3.36909407E-03  5.71511071E-02
  5.41195656E-02 -4.30234151E-02 -4.62135475E-01 -2.68327570E-01 -2.69626381E-05
 -1.15439316E-04  6.43583964E-04 -1.00572292E-04 -1.54490888E-01  2.47481519E-04
  1.36336005E-03  8.07168919E-01 -1.63124671E-03 -3.03189606E-05 -1.88710797E-03
 -1.18430661E-03 -5.34099373E-04  2.41303515E-01 -4.77061434E-05 -1.75919124E-04
  4.38538396E-04 -1.04261790E-03  1.71441021E-01  1.04759498E-03  1.69641301E-02
 -6.68025460E+00 -4.92220213E-03 -1.95300455E-03  3.05831779E-03 -3.27167321E-01
  1.14091362E-03 -9.66655326E-01  4.81565516E-01 -7.77180217E+00  7.93652033E-01
 -2.14943911E+00  3.13689423E-01 -4.86104333E-01  7.75666117E+00 -8.01170092E-01
 -2.13827126E+00 -3.16297882E-01 -5.82983567E-03 -2.34716151E-02  2.23037935E-01
  4.15307154E-02 -1.01489694E-01 -6.71097894E-04  6.59413234E-03  1.92426073E-01
  1.03455898E-03  6.19406251E-02  1.19436380E-03  1.27868765E-03 -6.68951342E-02
  1.33840755E-01  5.79896184E-03  2.33456805E-02 -2.21848072E-01 -4.14305734E-02
 -1.01100872E-01  1.41547384E-04 -7.44756936E-03  1.90694500E-01 -3.23846198E-04
 -6.17829712E-02  9.88328989E-04  1.58018591E-03  6.71004197E-02  1.33861694E-01
 -1.38509168E-01  4.57563248E-01  1.30000650E-02  1.42205071E-01 -4.54588822E-02
 -3.26520838E-01  2.37829019E+00 -1.07157878E+00 -1.39798431E-01 -6.01559804E-02
  3.24702874E-01 -2.35861282E+00  1.05708288E+00 -1.35076351E-01  5.87849239E-02
  1.39995295E-01 -4.60558019E-01 -1.48348743E-02  1.41493052E-01  4.38778835E-02
 -2.39839256E-02 -1.02446471E-01  1.29310655E+00  2.67999541E-01  9.19680345E-03
 -2.58099589E-03 -1.79360783E+00  4.74592505E-01  3.64869968E-01 -5.01528047E-01
 -1.52653292E-01  3.40320310E-02 -7.29706111E-02 -2.37059965E-02  6.08745839E-05
 -2.32459602E-03  1.64853556E-01 -2.13116278E-02 -1.18617928E-01  1.21917725E-02
  4.69986968E-01 -1.91454206E-01 -8.44752009E-01  3.82429414E-01 -4.92408795E-01
  4.80515308E-02 -1.75367052E-02 -3.08371633E-02  1.34090249E-02  5.32093262E-02
 -5.15558711E-01 -2.62879987E-01 -3.67492045E-01 -4.51289405E-03  8.53435423E-01
  3.56795181E+00  8.92307884E-01  4.90111997E-01 -4.01666245E-01 -1.05836583E-01
  6.19124809E-01 -3.77229501E-01 -2.67734244E-02 -1.14566854E-01  1.19833296E+00
 -1.31768584E-02  2.24573385E-02 -1.14351000E-02  4.33029718E+00 -6.20937520E-01
 -4.02295173E-01 -1.35663016E+00 -3.67446110E-01  2.48919941E-02  4.53324762E-01
 -6.52618945E-02  1.37885054E-02  5.38126438E-02 -4.76289534E-01 -2.61021489E-01
  4.02821988E-01 -7.26701688E-03  1.57083842E+00 -3.87547760E+00  8.55097949E-01
  5.25734712E-01 -4.40661203E-01  1.54583262E-01  6.20679003E-01  4.79991121E-01
 -3.90475119E-04 -5.10901848E-03  2.29771017E-01 -5.09546188E-02  1.22928208E-01
  2.39122744E-03  1.45146924E+00  8.20761275E-01 -9.29655528E-01  3.77206048E-01
 -4.69836551E-01 -7.83257851E-02 -4.77422749E-02 -6.67630664E-02  1.63377641E-02
  6.72517540E-02 -3.68169148E-01 -1.32642037E-01 -2.43050630E-02  6.80266183E-02
  9.26398382E-02  4.23286472E-02 -6.07488108E-01  2.24817192E-01 -1.95986806E-01
 -3.50307488E-03 -7.46365263E-02  3.28457648E-02  9.10011094E-03  3.78322682E-02
 -2.18959183E-01  1.23759701E-01 -7.56427931E-02 -1.20194203E-01  3.48613208E+00
  9.68924385E-01  9.91315991E-01 -3.18128479E-01 -5.98155399E-02  7.71936701E-02
 -7.27823628E-01  6.97459064E-02 -2.50220166E-01 -1.97656754E+00  6.27563388E-02
 -4.80389478E-01  7.20199156E-02 -1.92664013E-01 -3.85085923E+00  3.42624287E-01
  8.25619938E-01  1.09885120E-01  2.62135393E-03  1.11913917E-02 -1.08404589E-01
 -8.52891796E-02  9.38222076E-02 -1.13101366E-02  1.09641141E-01 -2.69570054E-01
  8.13870648E-02 -2.81874754E-01  5.31537926E-02  6.94674652E-02  3.80786245E-02
 -1.43359011E-01  3.19037388E-03  1.35259863E-02 -1.32858624E-01 -9.89310947E-02
 -1.20078566E-01 -6.95351728E-03  1.13019193E-01  2.99214253E-01  7.43709977E-02
 -3.07990477E-01  4.68260614E-02 -6.62495224E-02  4.74189502E-02  1.59416854E-01
  3.17228273E-02  5.67151734E-01  5.91655135E-01 -1.63987577E-01 -9.34727972E-04
  6.11422897E-02  1.58098875E+00 -1.38315593E+00 -8.24319573E-01 -6.61274663E-02
  1.18344469E-01  1.37525612E+00 -1.37203713E+00  8.79770863E-01 -7.92174882E-02
  7.47912180E-02  3.43072326E-01  5.35054613E-01  1.59781992E-01  3.78634376E-02
  2.56418197E-03  1.09371588E-02 -1.37555445E-01 -2.89697506E-02  8.28283022E-02
  4.34365626E-04  1.92933584E-01  3.96964276E+00 -3.49802879E-02  5.46947979E-02
  1.81442389E-02  2.91044071E-01  7.39975241E-03 -2.35918222E-01  2.11365012E-03
  1.33661523E-02 -3.21569278E-01  1.40908295E-01  3.27961205E-02  4.33609145E-02
 -4.29346180E+00  2.76935556E+00  4.59737349E-01 -6.84248976E-03 -4.49839971E-02
 -1.42187692E-01  1.46312817E-01 -4.58128720E-01 -3.34019531E-03 -8.89669453E-03
 -1.29603884E-01  1.20696881E-02  2.05547633E-01  1.29563578E-02 -3.02388009E+00
 -1.58541420E+00  7.66905104E-02 -2.18519711E-01  2.25010607E-01  2.34936797E-01
 -5.60397285E-02  5.39282938E-01  2.88683222E-03  1.23716201E-02 -1.30027343E-01
  7.65997304E-04  2.09274660E-01  1.20959495E-03 -4.59280227E-01 -5.24759800E+00
  4.34869173E-02  1.43821438E-01  3.84156728E-02  2.26579220E-01 -4.86449968E-02
 -5.90010520E-01  4.68350856E-04 -2.36686082E-03  2.32794906E-01  4.34441980E-02
  1.23743849E-01 -1.16732390E-02  2.76342673E+00 -7.97030674E-01 -2.68631522E-01
  1.11214402E-01 -1.30685445E-01  2.07524989E-01 -7.46555688E-02  4.42943897E-01
 -2.12450106E-03 -1.27684149E-02  2.82074507E-01 -1.33385005E-01  6.08060611E-03
 -4.46856519E-02  4.08888317E+00  2.65949522E+00 -2.67535712E-01 -7.48692819E-02
  1.49986543E-01 -1.26059834E-01 -1.40492729E-01 -4.57202316E-01 -1.79028622E-03
 -7.37330499E-03  4.04156599E-02  1.39635714E-02 -2.32384540E-01 -7.27953574E-03
 -9.11966156E-03  4.43090335E-01  6.61784750E-02 -2.48533675E-02  2.08055903E-02
 -3.16212862E-02  7.34939865E-03  3.16823529E-01 -9.89140170E-04 -4.10120904E-03
  2.34401844E-02 -1.40464323E-02 -7.05600288E-01  1.29705660E-02 -3.63766406E-01
  8.94950766E+00 -1.01808049E-01  3.38672176E-02  8.46862199E-03  7.03802821E-01
  7.98121707E-02  6.45126854E-01 -2.37060897E-01  8.96051392E+00 -1.31626169E+00
  1.64917393E+00 -1.82406192E-01  2.82641738E-01 -8.34200442E+00  1.27099413E+00
  1.51278847E+00  1.64711007E-01 -3.06460266E-03 -1.26363909E-02  1.31970149E-01
  7.61898059E-02 -1.38562714E-01 -1.78723366E-02 -3.54825808E-02  1.81537230E-01
  2.17618135E-02  1.52530597E-01  2.48953308E-02  3.56712831E-03 -4.94948213E-02
  8.67580129E-02  2.45334637E-03  1.00279094E-02 -1.06285142E-01 -5.64768533E-02
 -1.15255158E-01  1.98250372E-02  1.05246018E-02  1.19190339E-01 -3.88040872E-02
 -8.82717765E-02 -3.51672103E-02  1.86339788E-02  4.06403945E-02  5.43169323E-02
 -2.04969843E-01  1.01228764E+00  1.62903036E-01  1.91040283E-02 -1.71301954E-01
 -2.84715321E-01  8.45951374E-01  4.26065016E-02  3.31101757E-01  6.26613510E-02
  2.64285502E-01 -1.15023948E+00  2.48324417E-01  1.49344255E-01 -4.81401773E-02
  1.95275981E-01 -1.11520107E+00 -2.84921772E-01 -1.49227051E-02  1.66804548E-01
 -1.78064901E-02 -7.20311307E-02  7.49396267E-01 -4.00556712E-02  5.04790279E-05
 -8.80197118E-03  4.31873174E-01  2.04776464E-02 -1.86811195E-01 -4.23476783E-01
  5.70250633E-03  1.20287930E-06  2.42842848E-01 -5.44252055E-04  6.42533341E-03
  2.75103752E-02 -3.78925358E-01 -1.69808750E-01 -2.06833789E-01  9.80153773E-04
  2.57370939E+00 -1.45146613E-01  1.81828789E-01  6.77542145E-01  7.72203559E-02
  2.52784622E-02 -1.75779956E-01 -1.12560139E+00 -1.06785715E-02 -5.03373140E-02
  6.49100018E-01 -9.27682472E-02  1.73936448E-01 -3.72670167E-03  3.06820789E+00
 -1.09434441E-01 -5.84684920E-02 -8.09865518E-01  1.01454938E-01  5.17776682E-02
 -2.21211654E-01 -1.18325047E+00  2.03924679E-02  7.65452335E-02 -6.84682308E-01
  2.80283759E-01  5.42086831E-04  1.49732605E-02  7.28500707E-01 -1.91325550E-02
 -1.30609020E-01  4.92059284E-01  7.53312961E-02  9.43724554E-04  5.19053084E-01
  4.37259382E-04 -1.06410998E-02 -5.01858885E-02  6.47386923E-01 -9.12465680E-02
 -1.73362875E-01 -3.80173896E-03  3.08794795E+00  9.42060218E-02 -6.35113872E-02
 -8.08411378E-01  1.03033279E-01 -5.06833042E-02 -2.19795875E-01  1.18410795E+00
  6.43942957E-03  2.75605436E-02 -3.79642891E-01 -1.69974428E-01  2.06888474E-01
  1.30475157E-03  2.60590551E+00  1.70449128E-01  1.83125669E-01  6.74597525E-01
  7.99144249E-02 -2.58076137E-02 -1.74683847E-01  1.12030677E+00  5.16725670E-03
  2.11650803E-02 -1.13356539E-01 -4.74512690E-02 -1.44076470E-03 -1.64682416E-02
  1.88465816E-01 -1.38994453E-03  1.50768219E-01  5.00160465E-01  6.46184283E-02
  6.39834713E-04 -1.43311717E-01  1.10225786E-03  1.14778611E-03  3.77539960E-03
 -1.72856093E-03  4.95798212E-02 -6.00592693E-04  2.26901752E-03  9.61262643E-01
  5.32261864E-03  6.86811490E-02 -3.62857264E-01  1.14382100E-01 -3.05323319E-04
  1.13817839E-02 -6.34160978E-04 -3.33999434E-03 -9.03045960E-01  5.75845556E-03
 -1.40696974E-01  2.66027601E-03 -3.83918238E-03 -9.06454202E-01  6.87991319E-03
  1.39942013E-01  3.88753192E-03 -6.33463483E-03 -2.64713992E-02  2.45573743E-01
  3.70109293E-02  1.08908463E-02  6.20233965E-03 -7.11786836E-02  8.99170195E-02
 -2.45267103E-02 -1.49796895E-01 -2.56347720E-02 -1.11815462E-02  1.04533166E-01
  2.83345773E-02 -6.41388716E-03 -2.67819343E-02  2.48125818E-01  3.65322178E-02
 -1.18983898E-02  6.20905978E-03 -6.94979093E-02 -9.01721820E-02 -2.45849329E-02
 -1.50536180E-01 -2.61927900E-02  1.00172111E-02  1.04614231E-01 -3.02762682E-02
 -6.06652847E-01  3.45661581E+00 -7.25807052E-01  8.75826726E-01  1.69223648E-02
  9.04426404E-02 -2.93281970E+00 -6.28364697E-01 -3.10063180E-01  9.60248689E-03
  9.04691604E-02 -2.93050850E+00 -6.29170677E-01  3.11717689E-01  9.75713473E-03
 -6.04983000E-01  3.44011455E+00 -7.29188651E-01 -8.75254128E-01  1.61087711E-02
  7.07729341E-03  2.99743852E-02 -3.72818778E-01 -8.94309096E-02 -1.24405516E-03
 -3.11415896E-03  4.14543321E-01 -1.53002416E-02  3.31245557E-01  1.94410527E-01
 -1.19238632E+00  1.40914728E-03  6.02786895E-02 -1.18338220E-03 -1.22202664E-03
 -4.57918032E-03  1.23952953E-02 -3.56010487E-03  4.96487249E-02 -3.32558305E-02
 -7.47650681E-02 -8.67543299E-02 -2.69950793E+00 -1.28531198E-01 -1.52229178E+00
  5.92934716E-01 -5.43267960E-02 -1.27153501E-01 -4.22764826E-03 -1.78317830E-02
  2.01963870E-01  7.63512180E-02  1.12865697E-01  1.01080055E-03 -2.16877655E-01
 -8.01572591E-01  3.09798419E+00 -1.61771075E-01 -1.79300215E+00 -6.72349446E-02
 -2.23300264E-01  1.30848186E-02  7.32796142E-03  2.96982787E-02 -2.92583979E-01
  6.05298396E-02 -2.53449406E-05 -1.99761562E-02 -9.93867342E-01  4.18922447E-02
 -1.44779247E+00  4.51541741E-01 -1.50918848E-01  2.99579268E-03 -7.21089664E-02
  1.42694703E-03 -4.09776599E-03 -1.72900762E-02  1.94944370E-01  7.98336232E-02
 -1.11963293E-01  3.93599328E-04 -3.01511354E-01  8.39602116E-01  3.09545776E+00
 -1.59407950E-01 -1.79812856E+00  6.56432303E-02 -2.28296639E-01 -1.45601467E-02
 -1.11974625E-03 -4.16318561E-03  6.13145554E-03 -2.80052219E-03 -4.94907909E-02
 -3.33996867E-02 -1.26715379E-01  7.13349824E-02 -2.70481595E+00 -1.36809234E-01
 -1.52347369E+00 -5.88042696E-01 -6.03075176E-02  1.20139252E-01 -5.56276825E-03
 -2.29006049E-02  1.28175244E-01  2.07042528E-02 -2.46200617E-03  1.99490552E-01
 -2.01101552E-02 -3.27860317E-03 -2.27986761E+00 -7.53536643E-02 -6.04866068E-01
 -2.45387429E-04 -4.43653226E-03  2.30945626E-03 -3.25085004E-03 -1.36558501E-02
  8.17182705E-02 -6.27335149E-03 -6.98686108E-04 -2.47643231E-01 -8.52723228E-01
  2.03353354E-03  7.66156387E-01 -3.01911375E-02 -1.08267508E+00  1.18912594E-04
 -2.52416731E-02  1.27330812E-03  6.37225622E-02  6.12944024E-01  4.41953044E-02
  2.65582546E-01  3.66947569E-01  6.19550717E-02  6.10550259E-01  4.53991565E-02
 -2.69521773E-01  3.67378899E-01  4.85582585E-05 -1.45658671E-04  7.77430667E-03
  2.03475215E-02 -2.67984796E-02 -7.96298297E-03 -4.61684130E-02  6.37920847E-02
  2.68068470E-01  8.57139997E-02  1.13397665E-01  2.80731675E-01  3.72877645E-03
  2.32909433E-02 -1.89682186E-04 -1.08919528E-03  1.58033989E-02  1.99551967E-02
  2.59477514E-02 -7.87635687E-03 -4.38643973E-02 -6.84165024E-02  2.67799363E-01
  8.53250304E-02  1.13528733E-01 -2.79995147E-01  3.13152790E-03 -2.92043217E-02
 -6.39871348E-02  2.61597696E-02 -2.15864398E-01  1.50664470E-01  2.84893627E-01
 -2.21907055E-02 -4.80622490E-01  4.09570099E-01  2.37212714E-01  1.73218101E-02
 -2.28388770E-02 -4.77659723E-01  4.24882215E-01 -2.43320697E-01  2.06481734E-02
 -6.05776605E-02 -1.07186803E-02 -2.18112428E-01 -1.45119391E-01  2.82183062E-01
 -1.34627754E-05 -5.69182227E-05  5.56841305E-04 -1.23339983E-03  5.46997370E-02
  1.13351981E-05  2.92538797E-03  6.10980266E-01  3.13873684E-03  1.51029801E-04
 -5.07821776E-03  9.34286589E-02  1.65523071E-03  7.71745415E-02  4.88328800E-03
  1.87324271E-02 -2.29340210E-01  4.89223406E-02  5.53268231E-02  1.16802022E-02
 -2.57611966E+00 -3.65845400E-01  3.46212887E-02 -6.31259242E-01 -8.41983481E-02
 -3.95488729E-02 -8.13253679E-02  9.88790295E-01 -1.90948004E-03 -3.70134039E-03
 -8.73970271E-02  2.92067397E-01  8.67319244E-03  4.92995877E-03 -3.97461067E+00
 -9.57221556E-01  1.40443537E-01  4.44351246E-01  4.19164046E-03  7.96623827E-02
  5.16187147E-01  6.16995289E-01  9.00474486E-05  3.53798313E-04 -3.20099837E-03
  2.68803101E-04 -2.98856723E-02 -2.73784791E-04  2.92470456E-03  2.84515030E-02
 -9.01649924E-03  4.03361270E-03 -1.35679864E-03  7.80449008E-02 -4.59852930E-04
  2.19795674E-02  1.80346963E-03  3.22953057E-03  9.33139069E-02 -2.91271977E-01
  6.68008758E-03 -5.14291354E-03  3.97645095E+00 -9.48272304E-01 -1.14741247E-01
 -4.49189557E-01 -1.65747180E-02  7.89544340E-02 -5.21421471E-01  6.21466489E-01
 -4.86833916E-03 -1.86813584E-02  2.28315439E-01 -4.97305171E-02  5.55801288E-02
 -1.16691991E-02  2.58483958E+00 -3.67373898E-01 -5.90175131E-02  6.32115227E-01
  7.35643469E-02 -4.43530856E-02  8.09209754E-02  9.92390796E-01 -3.16820006E-05
 -1.32509127E-04  8.14486355E-04 -8.82381574E-04  3.54231968E-01  5.98719760E-04
 -1.01187674E-03  6.34876807E-01 -1.00135078E-02  7.01132842E-04 -2.33325106E-03
 -4.72231750E-03 -3.98800020E-04 -3.44045946E-01 -9.03529265E-06 -3.69371946E-05
  1.55813837E-04 -7.87612055E-05  8.67900510E-02 -1.13512203E-03 -2.00795737E-03
 -3.22605405E-01  4.94909583E-03 -1.72643164E-03 -4.67452344E-03  3.74266811E-02
  8.42546815E-04  6.39807259E-01 -1.34823502E-01  1.06098092E+00  3.11430430E-02
  3.59894838E-01 -1.66390281E-03  1.34964631E-01 -1.06003024E+00 -3.07534656E-02
  3.58014695E-01  5.24601374E-03 -1.90190485E-02 -7.55426459E-02  6.53327216E-01
 -8.37963198E-03  4.03959281E-02 -3.26654230E-03  1.39639663E-01  4.49511455E-01
  7.45583503E-03 -4.11538203E-02  4.46717905E-03  6.66117808E-03 -7.73464093E-02
  4.73080123E-01  1.90418657E-02  7.56230708E-02 -6.53925242E-01  8.12245552E-03
  4.05706502E-02  3.06407739E-03 -1.40223712E-01  4.48983582E-01 -5.36052632E-03
  4.11964865E-02 -3.88169181E-03  4.49129406E-03  7.83327381E-02  4.73403278E-01
  4.76742542E-01 -3.77352988E+00 -1.41587440E-01 -6.06907032E-01 -4.87509266E-02
 -4.59810050E-01  2.91325873E+00  4.03679330E-01  5.50183530E-01  3.18768331E-02
  4.59497229E-01 -2.92741655E+00 -4.00977267E-01  5.47981058E-01 -3.15762150E-02
 -4.79238211E-01  3.78533637E+00  1.35445354E-01 -6.11910350E-01  5.06325970E-02
  6.45423006E-05  4.93413306E-04 -1.22624636E-02  7.44536461E-03 -3.39585483E-01
  3.12630250E-04  2.51277864E-02 -1.72518123E+01 -2.03285987E-04 -7.52112927E-03
  4.57444889E-03  5.70594392E-01 -1.20918547E-02 -2.97461362E-01 -1.47909080E-02
 -6.17099119E-02  9.41184772E-01 -1.83094224E-01  7.67897024E-02  6.12442224E-02
  1.85789816E+01 -1.09363308E+01  2.27080733E-01  6.06474869E-01 -4.70310481E-01
 -1.62124347E-01  1.05745945E+00  8.66283268E-02 -1.36310480E-02 -5.54431476E-02
  6.89142706E-01 -4.89913570E-02  1.17971919E-01  4.91117719E-02  2.04716950E+01
  1.16650395E+01  9.06444616E-01  2.51546228E-01  6.94712103E-02  4.11566894E-01
  1.10854549E+00 -3.00080114E-01 -1.61378688E-04 -6.03944237E-04  3.49900760E-03
  2.20783829E-03 -2.56573958E-01 -7.42627858E-04 -1.07587579E-01  2.67575162E+01
  9.23614343E-03 -6.38980952E-03 -4.32102931E-03  6.97891086E-01  2.48772022E-03
 -2.38065690E-02  1.39577547E-02  5.69218550E-02 -7.08506278E-01  4.80677007E-02
  1.21477387E-01 -4.92240712E-02 -2.04077365E+01  1.17083964E+01 -9.20281064E-01
 -2.46772754E-01 -6.30938018E-02  4.16308179E-01 -1.08316648E+00 -2.94209854E-01
  1.50820781E-02  6.32200033E-02 -9.65151146E-01  1.93088399E-01  8.10901264E-02
 -6.10114172E-02 -1.86239903E+01 -1.09207266E+01 -2.18120502E-01 -6.02736835E-01
  4.77010796E-01 -1.54082901E-01 -1.04411923E+00  1.04823063E-01  3.71369133E-04
  1.54444493E-03 -9.37080815E-03  7.80152179E-03  1.29820217E-01 -2.60122521E-04
  1.14841047E-02 -6.36192750E-02  4.05100196E-03  6.62996082E-03  4.23170600E-04
 -2.16402429E-02  8.01023427E-03 -2.47617141E-01 -1.07602068E-04 -4.66527704E-04
  3.71143268E-03  1.93898327E-03  4.92467762E-02 -4.30912936E-04 -4.38926167E-02
 -1.36012369E+00 -1.06114929E-03  1.72480356E-02 -1.39505477E-03 -1.38384616E-02
  4.42108930E-03  1.43273629E+00  4.93793938E-02  1.78530475E+00 -2.62701854E-01
 -1.61789804E-01 -8.81376329E-02 -4.28950008E-02 -1.70124649E+00  2.59255735E-01
 -1.74960280E-01  8.24216214E-02  5.03856267E-03  2.07402254E-02 -2.05263668E-01
 -3.70692509E-02  7.87591794E-02 -1.88956972E-02 -6.78822041E-02 -1.51244631E-01
  4.21354843E-02 -1.13301064E-01  2.29034029E-02  4.02310081E-02  1.36867754E-02
 -1.24635628E-01 -5.78190217E-03 -2.36503727E-02  2.30152277E-01  4.37924106E-02
  7.99007446E-02  1.82905163E-02  6.53856972E-02 -1.64297613E-01 -4.18988559E-02
  1.08309317E-01 -2.18677979E-02  4.15219385E-02 -2.98518585E-02 -1.32987194E-01
 -4.95406521E-02  1.63213470E+00 -8.68398400E-01  8.27210005E-01 -2.53814918E-01
 -5.80418646E-02  1.05474078E+00 -2.74092114E+00 -1.23660492E+00  9.93010537E-02
  6.74224632E-02 -1.10350172E+00  2.73236368E+00 -1.21896762E+00 -1.01135906E-01
  5.10598192E-02 -1.62846705E+00  8.74482962E-01  8.35021438E-01  2.49833640E-01
 -3.95029772E-04 -2.57464509E-03  5.77441737E-02 -2.96450906E-02 -4.11133659E-02
 -4.40347401E-03 -1.05447559E-01  2.87818079E+01 -5.94178009E-02  2.83827846E-02
 -8.27791897E-03 -7.14841705E-01  5.13510060E-02  1.07294221E-01 -1.65423772E-02
 -6.73274124E-02  7.78041137E-01  1.17368839E-01  2.01950743E-01 -7.46514219E-02
 -2.22085607E+01  1.37265595E+01 -2.09579276E-01  1.68521898E-01  6.23557976E-01
  2.25168865E-01  8.06748311E-01 -4.62938215E-01 -1.15375844E-02 -4.99994334E-02
  8.42496617E-01  2.12528640E-01  1.50000387E-01 -6.05280765E-02 -2.14248986E+01
 -1.17179453E+01 -1.18406916E+00  5.16576682E-01 -3.54478768E-02 -5.30744338E-01
  3.52062355E-01  6.61669711E-02  5.65844785E-04  2.10636834E-03 -1.15323446E-02
 -9.34287732E-03 -1.51746303E-01  6.10205675E-03  4.72572147E-01 -2.18863428E+01
  2.00642288E-03  1.79371785E-02  2.84704094E-02 -8.88039579E-01 -7.15374920E-03
  3.15149260E-01  1.03653601E-02  4.46824182E-02 -7.73050981E-01 -2.09821025E-01
  1.38956956E-01  6.27884631E-02  2.11926142E+01 -1.18941089E+01  1.18959019E+00
 -5.29718130E-01  3.17813599E-02 -5.36838274E-01 -4.48501367E-01  4.30750279E-02
  1.53782743E-02  6.12694656E-02 -6.81035140E-01 -1.55857242E-01  1.86679896E-01
  7.22179558E-02  2.23679758E+01  1.36753868E+01  2.53460820E-01 -1.82024991E-01
 -6.29197003E-01  1.83790597E-01 -8.52840763E-01 -5.36051634E-01 -1.42377198E-03
 -5.91851919E-03  3.59782754E-02 -3.05193698E-02  1.75581305E-01 -2.58450037E-03
 -5.22913751E-02 -2.57695266E+00  2.15904170E-02 -2.39260328E-02  1.28649807E-02
  2.55573875E-02 -2.98919405E-02 -5.11730579E-01  4.84638385E-04  2.09679972E-03
 -1.63838964E-02 -7.63878463E-03  4.16829535E-02  4.54710155E-03  1.92006683E-01
  5.20929037E-01 -9.50336157E-03 -6.88193976E-02  2.51896883E-02  6.89242366E-02
 -1.48990493E-02 -3.96948487E-01 -3.56206788E-01 -2.32442192E-01 -5.42372347E-02
  2.42434924E-01  2.21402084E-02  3.26658855E-01 -1.24084647E-01  6.47333309E-02
  3.05932517E-01 -1.04765791E-02  3.67340451E-03  1.59248960E-02 -2.06009363E-01
 -9.55347842E-02  1.39370864E-01  2.30426175E-02  2.86242667E-01 -4.18526282E-01
 -5.32178581E-02  1.60360331E-01 -3.09332714E-02 -5.16682732E-02  8.29010539E-02
  2.69592529E-01 -7.41496710E-04 -4.41732310E-03  1.06589685E-01  6.81434810E-02
  1.33669817E-01 -1.99555317E-02 -2.67403991E-01 -3.58658162E-01  4.48930294E-02
 -1.44816735E-01  1.80169252E-02 -5.24131660E-02 -1.64094848E-02  3.02162652E-01
 -2.87492886E-01  2.57783159E+00  2.53289416E+00 -9.27325798E-01  3.26324933E-01
  9.40360775E-02  1.23587438E+00  1.69667046E+00  1.04178556E+00 -1.52326824E-01
 -1.31628826E-01 -1.03377046E+00 -1.67549295E+00  9.75338546E-01  1.58492183E-01
  2.80489505E-01 -2.58291721E+00 -2.53749810E+00 -9.52924874E-01 -3.05675550E-01
 -5.17123222E-03 -3.45261883E-02  7.82466343E-01 -4.43048675E-01 -3.14142850E-03
 -6.20681381E-02 -1.33487529E+00 -2.29611571E+00 -9.18917357E-01  3.68792230E-01
 -1.32477498E-01  5.86294466E-02  7.75997061E-01 -1.18580844E-02 -6.92413023E-03
 -3.75054287E-02  6.16793647E-01 -2.82406715E-01  8.56693335E-02 -1.09854573E-02
  2.73145860E+00 -8.62588848E-01  2.89943778E-01 -1.23885551E-01 -9.95998435E-02
  2.71336316E-01 -3.64209536E-01  6.15881859E-01 -8.04530198E-03 -3.65302554E-02
  4.68972762E-01 -6.06408013E-04  6.18500811E-02  1.82724155E-02  1.31567606E-01
  2.30527314E+00  2.28978578E-01 -8.43154850E-02 -3.42737908E-02  9.59498872E-02
 -6.76689857E-01  2.04020236E-01  6.83987571E-03  2.46313945E-02 -9.26608029E-02
 -1.45330197E-01  6.09640385E-03  8.59238615E-02  7.04890356E+00  1.96426451E+00
 -1.53196674E-02  2.29340787E-01  3.91332720E-01  7.65533635E-02 -7.35344483E-02
 -2.30446983E-02 -9.21288823E-03 -4.16593526E-02  5.63021096E-01  2.96863486E-02
 -7.87051571E-02  7.82926678E-03 -3.52454520E+00 -2.75532604E-01  7.99330361E-03
 -1.68188639E-02 -2.84441453E-02  6.95147348E-03 -6.55275030E-01 -2.28837369E-01
 -8.65572510E-03 -4.44082937E-02  6.87393275E-01 -2.56623953E-01 -1.10883408E-01
 -2.33903739E-02 -1.01156322E+00 -1.42053379E+00  2.71097724E-01 -1.20263216E-01
  1.78564017E-02 -3.17323807E-01 -2.86711122E-01 -5.43071833E-01 -1.79681469E-02
 -7.48148035E-02  4.60135832E-01 -4.31876580E-01 -1.01585154E-02 -3.57148387E-02
 -7.13736875E-01  1.76068783E-01  2.58743761E-01 -2.79682847E-01  1.88418781E-01
 -2.11053138E-03 -4.14973551E-01  3.08643598E-02  6.80534265E-03  2.93651664E-02
 -2.29043159E-01 -1.13845053E-01 -1.60586890E-03  5.83769202E-02  2.87557978E+00
 -5.79958553E-02 -7.71239409E-02 -9.91268718E-01  3.56558441E-01 -6.15560287E-03
 -2.31939959E-01  5.36311573E-02 -1.72797627E-01 -2.65431222E+00  9.63417499E-02
 -5.09489466E-01  7.87289352E-02 -2.24897698E-01 -2.71864517E+00  9.45375011E-02
  4.64719106E-01  8.63409952E-02  1.94180618E-02  7.60670445E-02 -6.53269811E-01
 -1.81149467E-01  3.62648197E-02  1.56957279E-02  1.18309924E-01 -3.89680980E-01
 -3.36632616E-02  6.83168324E-02 -8.24354492E-02  1.75926155E-02  4.65878267E-01
 -2.47939452E-01  1.95056838E-02  7.65798379E-02 -6.66127815E-01 -1.91149774E-01
 -5.26444665E-02  1.85567576E-02  1.59010471E-01  4.37973192E-01 -4.07660183E-02
  9.32712736E-02 -8.53747677E-02 -8.58848865E-03  4.71804637E-01  2.04059858E-01
 -5.01350934E-02 -2.85874875E-01 -1.85203068E-01  2.63274120E-01  1.06481627E-01
 -3.05769117E-01  1.59047081E+00 -2.87727469E-02  4.13215798E-01  5.05440100E-02
 -2.90571176E-01  1.73613081E+00  2.96445508E-01 -5.98229613E-01  1.59641755E-02
 -8.63784983E-02  1.59321432E-02  1.97902095E-01 -1.03812653E-01  1.67442420E-01
  1.04943999E-02  4.47273728E-02 -6.80720355E-01 -4.32993675E-01  5.13744347E-04
 -1.29255124E-02  3.18750809E+00  1.62092387E-01 -1.07862138E-01 -4.49713581E-01
  1.62797258E-02  2.59541117E-05  9.18238021E-01 -3.63078285E-04  7.31113905E-03
  3.02384581E-02 -5.48071123E-01 -1.15541768E-02 -1.01873728E-01  2.31285461E-03
 -3.24239690E+00 -5.26560734E-01  2.09304928E-02 -3.99689489E-01 -1.46644932E-02
  3.18701271E-02 -9.30028975E-02  6.23883691E-01 -7.48293576E-03 -3.26736660E-02
  4.74780641E-01 -3.07672235E-02 -6.05363879E-02 -7.99673345E-03 -1.49598137E+00
  1.35452600E+00  6.66578553E-02  5.19952168E-01  3.75171601E-02 -3.13191350E-02
  1.46376660E-01  6.54618794E-01 -1.65977388E-02 -7.65450399E-02  1.16535058E+00
 -1.30765378E-01  1.39792350E-04 -2.21710285E-02  4.11107939E+00 -1.40463642E-01
 -2.48574574E-01 -1.52549284E-01 -1.32060939E-01 -2.53335213E-03  4.85501693E-01
  1.89169035E-03 -7.37276748E-03 -3.22011760E-02  4.66828834E-01 -3.22566145E-02
  6.18868710E-02 -7.76716838E-03 -1.23816732E+00 -1.49575835E+00  8.62732627E-02
  5.14979324E-01  2.83851800E-02  1.89015069E-02  1.45837068E-01 -6.50534024E-01
  7.43584404E-03  3.07431537E-02 -5.53789657E-01 -1.37143640E-02  1.03747897E-01
  2.78331646E-03 -2.97158593E+00  6.91500680E-01  6.46556968E-03 -4.00326835E-01
 -2.66388483E-02 -1.99227258E-02 -9.71449081E-02 -6.30317665E-01  2.39589736E-02
  9.72939207E-02 -5.08787787E-01 -2.54539260E-02  3.53349938E-04 -5.64019529E-03
  3.05331399E-01 -1.17798738E-02  5.92734491E-02  8.37318772E-01  3.73915072E-02
  5.94184230E-04  1.53839117E-01 -1.57877656E-03 -3.54495611E-03 -1.72590676E-02
  1.42334443E-01 -1.21985560E-01  9.00817172E-05 -5.39136048E-02  2.34489355E+00
  1.98243904E-03  4.66864041E-01 -2.53925205E-01 -3.28581894E-02  9.59805456E-05
 -4.01675019E-01 -3.83182006E-03  2.77067430E-01 -2.61195795E+00  4.31861195E-01
 -4.95991897E-01  9.35682591E-02  2.80680406E-01 -2.60407234E+00  4.31523949E-01
  4.98072303E-01  9.44278249E-02 -1.61616513E-02 -6.54566167E-02  5.90247607E-01
  9.28609205E-02  4.15502186E-02  1.40194789E-03  5.72150500E-02  1.71193480E-01
 -4.05759716E-03 -3.30323877E-01 -1.34807327E-02  7.27717468E-04 -9.16887601E-02
  1.34620390E-01 -1.61845140E-02 -6.55544194E-02  5.91554055E-01  9.38239434E-02
 -4.03388814E-02  2.09795403E-03  5.43486911E-02 -1.75068173E-01 -5.21390329E-03
 -3.31879846E-01 -1.42551252E-02 -7.73787834E-04 -9.22665710E-02 -1.32166782E-01
 -2.98840442E-01 -1.53620579E+00  4.50761664E-01 -4.05620949E-02  1.58975701E-02
 -5.47560699E-01  3.69105492E+00 -2.17236920E-01  5.63093475E-01 -4.02031806E-02
 -5.47743029E-01  3.67523279E+00 -2.39779382E-01 -5.48789521E-01 -3.36017472E-02
 -2.96939032E-01 -1.55612493E+00  4.24531960E-01  2.94664865E-02  8.89890483E-03
 -1.13446583E-03 -7.76132937E-03  1.94966720E-01 -1.10128197E-01 -2.98165812E-04
  3.85121856E-01 -1.25799634E-01  2.39531243E-03  5.24330670E+00  1.77692480E-01
  5.45131456E-01 -7.75341240E-03  2.59739341E-01  1.98142859E-04 -2.73919770E-03
 -1.33343748E-02  1.99978307E-01 -8.22685589E-02  3.81730284E-02  1.18086240E-01
  2.79475972E-01 -1.78355784E-01 -1.45194341E+00 -3.45779722E-02  4.86471043E-01
 -1.74815707E+00 -4.70028496E-02 -2.93876752E-02 -7.67240520E-04 -3.28210495E-03
  2.27727061E-02 -2.15687697E-02  6.69465260E-03 -1.08119915E-01 -2.07829094E-01
  2.30855745E-01  1.49288024E-01 -5.75865988E-02  5.67872530E-01  4.25271514E-01
 -2.13178646E-01 -1.07092716E-01  3.83250354E-03  1.62653227E-02 -2.35095803E-01
 -2.38713078E-02 -1.46811585E-04 -3.56652831E-01  1.04244769E+00  6.15047054E-03
 -2.23153913E+00  5.94528976E-02 -1.63803269E+00 -4.25013370E-04 -1.62135994E-01
 -2.01758702E-04 -8.88495694E-04 -3.77592443E-03  2.88132174E-02 -2.34193794E-02
 -6.42115892E-03 -1.07934638E-01 -2.33308305E-01 -2.27531815E-01  1.11700068E-01
 -5.46306704E-02  5.98349355E-01 -4.03855311E-01 -2.11532898E-01  9.71780410E-02
 -2.62132800E-03 -1.28824766E-02  1.95558296E-01 -8.13060096E-02 -3.75017956E-02
  1.19246674E-01  2.39843237E-01  1.65650632E-01 -1.40008472E+00 -3.58347333E-02
  5.11596789E-01  1.72316431E+00 -5.49621320E-02  2.37787700E-02 -6.60244247E-03
 -2.73633814E-02  1.66098751E-01 -9.18895533E-02  1.80992918E-03  1.91209109E-01
 -1.75559952E-01 -2.08323878E-03 -1.29001965E+00 -7.75602636E-02 -1.08086787E+00
 -2.49865094E-04 -1.07616990E-01 -3.69073903E-03  5.56657792E-04  1.37385915E-03
  8.47664761E-03  3.13256686E-02  3.43436293E-04 -1.34218662E-01 -4.88059218E-03
  4.12277360E-03  1.58180956E+00 -4.58171047E-02 -1.13058212E+00 -1.22107159E-03
 -3.35584238E-02  3.23893194E-03  1.14306844E-01 -3.42500619E-01  1.84555276E-01
  1.18652837E-02  3.47463534E-01  1.12570273E-01 -3.51826393E-01  1.84916004E-01
 -1.18304760E-02  3.49167270E-01  4.24828080E-03  1.65769405E-02 -1.42581292E-01
 -4.03899837E-02  9.79647236E-03 -5.94403843E-02  2.99419401E-02 -9.68597041E-02
  7.67435546E-02  3.20141885E-02  4.15898057E-01 -1.28942181E-01  1.15885994E-01
 -5.87557805E-02  4.38720244E-03  1.71218557E-02 -1.47063143E-01 -4.01613145E-02
 -9.31463472E-03 -6.10634205E-02  2.83485135E-02  9.97922826E-02  8.04928191E-02
  3.16073788E-02  4.18440569E-01  1.27590155E-01  1.15665692E-01  6.43612896E-02
 -5.60646243E-02  1.64385905E-01 -2.95774441E-02  1.09383514E-01 -6.64553658E-01
 -7.82601339E-02  6.35097491E-02  1.56230383E-01  1.29337556E-01 -1.16876472E-01
 -8.27275828E-02  9.58711539E-02  1.58129213E-01 -1.36885886E-01 -1.33260984E-01
 -5.16431234E-02  1.33994446E-01 -2.48544777E-02 -1.02578358E-01 -6.49410780E-01
 -8.63152711E-05 -4.37368791E-04  7.78374373E-03 -1.08486628E-03 -9.49576147E-03
  3.21086046E-03 -1.58740718E-02 -5.61327055E+00  3.89592404E-02  3.28059120E-03
  4.55374736E-03  1.34821664E+00  3.67007981E-03 -5.19706605E-02  2.59084295E-04
  1.95161872E-04  4.80705668E-02 -1.77117772E-02 -8.09684529E-03  1.14537061E-01
  4.48407081E+00 -2.70858233E+00  3.54601280E+00  1.13458772E-02  1.32415316E+00
  1.54189936E+00 -1.01325959E-01  1.28213225E-01 -2.31561546E-03 -9.54496365E-03
  1.14215185E-01 -4.47005312E-02 -4.25103876E-03  3.50268704E-02  4.77299147E+00
  2.93633702E+00 -1.96901011E+00  5.89619587E-02  1.98857470E+00 -1.19227979E+00
  7.28707599E-02  1.39894104E-01  1.03304299E-04  4.44499188E-04 -5.82002190E-03
 -9.15708817E-04 -2.58650287E-02 -2.47639639E-03  3.18950351E-02  6.01019913E+00
 -1.81930093E-02  1.06687304E-03 -9.30957451E-03  4.67493661E-01 -3.20381432E-03
 -1.45421925E-02  2.28075195E-03  9.38580181E-03 -1.12616825E-01  4.44788911E-02
 -4.69251586E-03 -3.70068662E-02 -4.78248111E+00  2.92714873E+00  1.96470222E+00
 -6.21433967E-02 -1.97359799E+00 -1.20168842E+00 -8.28986386E-02  1.44919756E-01
 -3.71811762E-04 -7.62211018E-04 -3.83149090E-02  1.43973199E-02 -8.91681494E-03
 -1.12458649E-01 -4.46071251E+00 -2.71043112E+00 -3.55818616E+00 -6.80117678E-03
 -1.30841217E+00  1.57012734E+00  1.00748837E-01  1.27011743E-01 -1.88245138E-04
 -7.75687251E-04  4.58218707E-03 -2.63633982E-03 -5.03952334E-02  1.26628606E-03
 -5.03627769E-03  2.94606614E-01 -7.49414833E-03 -4.08677646E-03 -8.25304876E-03
 -6.44353935E-02 -3.09451920E-03  1.08473745E-01  5.55486324E-05  2.34311457E-04
 -1.60823566E-03  1.43805467E-04  1.21689770E-02 -3.80445438E-04  6.11135884E-03
 -8.79964141E-01  9.43672895E-03 -3.85842580E-03 -5.75517698E-03  1.12709985E-01
  1.03577760E-03 -4.36142969E-02 -4.76411636E-02 -3.52071784E-01 -1.49287660E-02
 -9.91497186E-02  4.02803788E-02  4.63420441E-02  3.37364925E-01  1.53594730E-02
 -9.61512163E-02 -3.58436713E-02  2.80910937E-03  1.10217855E-02 -8.94840462E-02
  4.28911928E-03 -1.10471647E-02 -1.20451167E-01 -6.11089874E-02 -2.76576376E-02
  2.93549985E-01 -4.42510211E-02  2.18472734E-01  1.08806739E-01 -2.65685781E-03
 -1.30489753E-01 -2.49053124E-03 -9.76203881E-03  7.83878256E-02 -7.08224021E-03
 -1.15267683E-02  1.19561649E-01  6.28964279E-02 -2.06959035E-02 -2.93191902E-01
  4.67171560E-02 -2.11915892E-01  1.11349717E-01  9.13595036E-03 -1.26304577E-01
  7.95840601E-02 -3.75868886E-01 -3.20197128E-01  1.44069711E-01  8.00281703E-01
 -7.54411730E-02  5.73061029E-01 -4.74895082E-01 -1.42424006E-01 -1.00245170E+00
  7.45712704E-02 -5.75761558E-01  4.77867835E-01 -1.45263993E-01  1.00151665E+00
 -7.97654052E-02  3.86525664E-01  3.20470186E-01  1.43025634E-01 -8.10506647E-01
 -1.16826172E-05 -7.57553984E-05  1.72879937E-03 -2.25138079E-04 -2.68296533E-02
  1.61994882E-03 -7.57809511E-03 -1.90897485E+00  1.72579021E-02 -1.01638020E-04
 -3.58395634E-04 -1.16070379E+00  1.78898075E-03  5.24162927E-02  1.11288195E-03
  7.19348374E-04  1.62960988E-01  7.17179855E-02 -7.21539897E-03 -9.02468724E-02
 -9.05958154E-01  3.88927639E-01 -1.01942914E+00 -7.38723500E-02  4.17108218E-01
 -3.01617255E-01 -5.15717022E-01  4.58609364E-01 -1.60789280E-02 -6.72469549E-02
  9.41956788E-01 -1.21616592E-01  1.13102422E-02 -8.32882606E-02  7.26627915E-01
  1.60368491E+00 -8.65164462E-01  5.72239422E-01 -3.92041358E-01 -1.94363208E-01
  3.11197141E-01  8.11797464E-01 -1.70333694E-05 -7.17800522E-05  8.77464832E-04
 -6.26589461E-04 -8.42913966E-02 -9.78611442E-04  1.83138090E-02  4.09039670E+00
 -5.57941085E-03 -1.12369338E-03 -3.72238792E-03 -1.06431799E+00 -1.25624255E-03
  1.42102251E-01  1.60699802E-02  6.71948430E-02 -9.40639303E-01  1.21238762E-01
  1.19173781E-02  8.22731492E-02 -7.37392739E-01  1.59422702E+00  8.56354215E-01
 -5.69972041E-01  4.00578416E-01 -1.98991905E-01 -3.13861950E-01  8.11594767E-01
 -1.16544919E-03 -9.79587542E-04 -1.58713794E-01 -7.26507358E-02 -7.38737857E-03
  9.13269454E-02  9.04874884E-01  3.85202601E-01  1.01953244E+00  7.28680668E-02
 -4.06730899E-01 -2.90393328E-01  5.15429053E-01  4.54212367E-01  1.23923543E-05
  5.40713766E-05 -2.75021445E-04 -5.13948782E-04 -3.72882246E-01  7.03995711E-04
 -3.21712415E-03 -1.65436343E-01 -4.10124950E-03 -1.09516407E-03 -3.89672932E-03
  2.15953575E-02 -9.73149349E-04  5.80689731E-01  2.38596394E-05  1.00373878E-04
 -6.93195229E-04  8.85452489E-05  1.04222517E-02 -7.38773178E-05  4.72281276E-03
 -1.45168274E+00  3.25975316E-03 -1.54211254E-03 -1.39117801E-03  2.66028229E-01
 -8.06694827E-04 -2.01496518E-02 -1.89017503E-01 -4.20691305E-01 -3.83849247E-02
 -7.27954602E-02  2.03770415E-01  1.88262298E-01  4.09032886E-01  3.98279939E-02
 -7.09275119E-02 -2.02719806E-01  1.96919349E-02  7.80211725E-02 -6.75711304E-01
  1.03829325E-02 -2.71692302E-02  5.03581246E-02 -1.79479902E-01 -4.72571743E-01
 -1.34005050E-01 -1.02855418E-01 -7.66395813E-02 -9.00065750E-02  5.81091217E-03
 -6.80556354E-01 -1.95686230E-02 -7.75217257E-02  6.71038187E-01 -1.14287216E-02
 -2.81387741E-02 -5.02871418E-02  1.82163445E-01 -4.67057506E-01  1.33832813E-01
  1.02391433E-01  7.96005328E-02 -8.89843524E-02 -3.20968706E-03 -6.78918119E-01
  3.23191837E-01 -1.47949838E+00  6.57255339E-01 -4.35371020E-01  6.88767717E-02
 -3.32261239E-01  3.35332519E+00 -2.51344576E-01  5.05916681E-01  6.90118306E-02
  3.31744790E-01 -3.34329186E+00  2.51851184E-01  5.04712395E-01 -6.79331140E-02
 -3.23255941E-01  1.47578522E+00 -6.50970838E-01 -4.33616034E-01 -7.33920425E-02
 -3.86072399E-03 -1.30021488E-02 -7.43930968E-02  1.11448795E-01  1.24916398E-03
  1.72000638E-01  2.45510320E-01 -8.51685013E-01  1.18351873E+00 -9.46828198E-01
 -7.59656773E-01 -6.07878940E-02  4.04759777E-02 -1.35799522E-02  1.45533851E-02
  5.84035310E-02 -6.71081011E-01  9.03524617E-02 -2.51474836E-01  1.89722671E-02
 -6.89298515E-02  1.56819933E+00 -3.16316771E-01  3.68570875E-01  2.86113367E-01
 -1.22984460E-01  3.92174075E-01  7.18506383E-01 -1.18448811E-02 -4.99444834E-02
  7.25278996E-01  2.02617713E-02  1.52503758E-01 -1.45865619E-02 -1.09440131E+00
 -2.18270735E+00  3.18108935E-01 -1.70300071E-01 -1.01621837E-01  5.33522726E-01
 -4.88038112E-01  1.52074896E-01  1.71470530E-02  7.82270911E-02 -9.18238051E-01
 -6.93394392E-01 -3.37238984E-04  7.48208321E-02  2.56165672E-01  8.53008721E-01
 -6.41781252E-01  9.07440103E-01  8.19271422E-01 -6.06548117E-02 -1.16254280E+00
 -8.31243284E-03 -1.23326841E-02 -5.19891488E-02  7.57731943E-01  2.36410736E-02
 -1.53134888E-01 -4.51382512E-03 -2.64894405E+00  3.08181202E+00  4.63255636E-01
 -1.53943929E-01 -9.75009417E-02 -5.72731830E-01 -4.78381184E-01 -1.60442086E-01
  1.48122510E-02  5.94085797E-02 -6.85636329E-01  9.55797659E-02  2.50881073E-01
  2.71549891E-02 -1.62146376E+00 -2.49956510E+00 -2.61404347E-01  3.59057800E-01
  2.07560482E-01  1.05324472E-01  3.81801051E-01 -7.26667373E-01  2.56297717E-02
  1.06213731E-01 -6.25115939E-01 -3.25671555E-02  6.09614784E-03  9.60115331E-02
 -1.55660682E-04  5.63789289E-02 -1.15180634E+00  3.26800968E-01 -6.22517018E-01
  1.68591856E-04  1.35170236E-01 -4.53620022E-03  2.38434352E-03  1.55038269E-02
 -2.32607271E-01 -1.34342067E-01 -2.35474555E-03  9.20479096E-02 -1.91355049E+00
 -4.88040421E-02 -7.42904550E-01 -6.26830010E-01  2.61941717E-01  2.76841009E-02
  1.22575943E+00 -1.92151495E-04 -3.99813968E-01  2.27598066E+00 -8.37348329E-01
  1.47013789E-01 -7.98426632E-02 -3.96440602E-01  2.26135389E+00 -8.14027048E-01
 -1.63889847E-01 -1.10452685E-01 -3.38526866E-03 -1.27733173E-02  9.20460293E-02
  2.98639671E-03  2.40857722E-02 -1.48036327E-03  1.13469155E-01  2.15430380E-02
  3.45432345E-02 -2.14067756E-01  1.74925078E-01  8.01249211E-03 -7.21178934E-02
  1.11875169E-01 -2.68208038E-03 -9.94855174E-03  6.53207041E-02  2.14009857E-03
 -2.59643183E-02 -5.18662567E-03  1.18476960E-01  8.01413822E-03  4.58301247E-02
 -2.08023641E-01  1.80631102E-01 -1.70605078E-02 -6.95011974E-02 -9.82159885E-02
  2.35132588E-01 -3.95786839E-01  2.95510149E-01 -5.82971455E-01  7.32123375E-02
  2.51745380E-01 -1.32014118E+00  3.18417833E-01  8.00984128E-02  2.36419806E-01
  2.47359122E-01 -1.27073376E+00  4.60648782E-01 -1.68400369E-01  2.45624579E-01
  2.39830643E-01 -4.17196658E-01  4.50556025E-01  6.72172204E-01  5.54826169E-02
 -3.45644783E-05 -2.66481718E-05 -7.57114408E-03  4.11356237E-03 -4.58531050E-02
  5.99662651E-03  1.12610058E-02  2.87803559E+01  4.86578760E-02 -2.66848464E-02
 -2.35028309E-02  2.03867608E+00  1.03846955E-03  4.60297153E-01  4.17558118E-03
  1.62336178E-02 -2.37934435E-01  9.22154153E-02  5.78634311E-03  1.32922150E-01
 -2.60710644E+01  1.57166647E+01  8.74605159E-01 -1.41541921E-01 -1.33151858E+00
  2.69494363E-01 -1.16506115E-01  1.07257186E-01 -8.03420926E-03 -3.39161399E-02
  5.50645943E-01  6.74977332E-02  1.76043188E-02  1.63877076E-01 -2.61821408E+01
 -1.51767034E+01  2.38661831E+00  2.69664680E-01  1.82577240E-02  6.65147902E-01
  1.30141363E-01  1.06644459E-01  4.69960755E-04  2.14603388E-03 -2.44941677E-02
 -2.06268360E-02  1.03062341E-02  1.94677006E-03 -1.06906380E-02 -2.87492577E+01
 -2.18725648E-02  2.85263018E-02  2.62658143E-02  1.92578699E+00 -3.64238723E-02
  2.86950388E-01  7.31136149E-03  3.08562802E-02 -5.05307399E-01 -6.54218317E-02
  8.18582036E-03 -1.64759239E-01  2.60562433E+01 -1.50228112E+01 -2.37880064E+00
 -2.78191297E-01 -1.68761431E-02  6.27458826E-01 -1.58826295E-01  9.91933058E-02
 -3.28248765E-03 -1.26194457E-02  1.95206332E-01 -8.61001650E-02  2.04103010E-02
 -1.30879290E-01  2.60238123E+01  1.55911033E+01 -8.85065978E-01  1.60204082E-01
  1.35321857E+00  2.78884240E-01  1.39772709E-01  6.53298761E-02  7.50617164E-04
  3.10787307E-03 -1.82282577E-02 -4.17883524E-04 -1.95550327E-01  3.45728455E-03
  2.64870748E-03 -1.90378655E+00 -3.42966834E-02  8.50606909E-03 -2.16046283E-02
  1.17251507E-03  4.79278083E-03  1.36108516E-01  6.13848685E-05  4.25780769E-04
 -6.75878057E-03 -3.86382247E-03  7.84247397E-02  3.01074340E-03 -6.45614528E-02
  1.69710745E+00 -2.38394338E-02 -1.85132344E-02  8.39368762E-03 -9.27176777E-01
  3.54762554E-02 -2.97097351E-02  3.96339026E-02 -1.53644944E-01  3.53510713E-01
  2.97028052E-01 -5.12507867E-01 -6.40699784E-02  3.01899379E-01 -4.02744163E-01
  2.82374965E-01  5.05503745E-01  1.11776335E-02  4.49423940E-02 -4.27198416E-01
 -1.55911101E-02  3.43834843E-02 -6.44776653E-02  1.00673848E-01 -4.93275983E-01
  1.96400913E-01  1.00607362E-01  1.01123716E-01  1.53982531E-01  4.28396251E-02
 -2.06107712E-01 -1.13933933E-02 -4.57650539E-02  4.33467673E-01  1.64773320E-02
  3.32235785E-02  6.51959043E-02 -9.54511392E-02 -4.95240594E-01 -1.97605837E-01
 -1.11659110E-01 -9.03395984E-02  1.54604625E-01 -4.92874404E-02 -2.13111740E-01
  6.33987131E-02 -2.35996173E-01  2.60930380E+00 -1.49222669E+00 -3.16698366E-01
 -3.89288689E-02  6.63536211E-01  2.40261383E+00  1.45488123E+00  1.75488762E-01
  5.59181739E-02 -7.44063924E-01 -2.37644622E+00  1.44942342E+00 -1.58341831E-01
 -4.87532577E-02  2.04567648E-01 -2.58867451E+00 -1.45387953E+00  3.19805984E-01
  4.04108456E-04  2.75724203E-03 -1.23946598E-01 -3.75903715E-04 -7.18280859E-04
 -3.26398858E-01  8.62658866E-02  4.02621815E-02 -8.42894363E-01 -3.14107909E-01
  2.37581627E+00  1.26053442E-03  8.21418819E-02  6.78321759E-04  5.52467185E-03
  2.18423535E-02 -2.49885083E-01 -1.95283248E-03 -7.43446943E-02 -6.72974261E-02
 -3.41270878E-01  7.78493136E-01 -8.86268485E-01  1.30043655E-01 -9.96031016E-01
 -4.23653375E-01  7.23898360E-02  2.22996072E-01 -5.81610327E-03 -2.46077006E-02
  3.49425847E-01 -9.87737788E-03  8.94777126E-02  3.58808483E-02 -8.63728162E-01
 -1.37830954E+00  4.91108359E-03 -1.59183350E-01 -2.30029043E-01 -1.23377304E+00
 -2.41756298E-01  5.81612198E-02  9.88374176E-03  4.34385970E-02 -5.23961800E-01
 -2.58975879E-01 -5.94282914E-04 -1.11467106E-01 -5.82164075E-01 -4.28725586E-02
  1.09126726E+00  5.84730027E-01 -2.30126489E+00  1.54217957E-03 -6.50824820E-01
  8.52660984E-04 -5.81032643E-03 -2.45945066E-02  3.49388022E-01 -9.94949444E-03
 -9.02963918E-02  3.57746832E-02 -7.85079806E-01  1.33165483E+00  6.31574186E-03
 -1.59156186E-01 -2.32898273E-01  1.23373689E+00 -2.43927609E-01 -5.98672738E-02
  5.46293714E-03  2.15918390E-02 -2.46455636E-01 -2.08585191E-03  7.36046127E-02
 -6.75501195E-02 -2.61740489E-01 -7.31196611E-01 -8.91502034E-01  1.31683700E-01
 -9.97078644E-01  4.25723945E-01  7.10288926E-02 -2.19145928E-01  8.29691561E-03
  3.44230107E-02 -2.05368042E-01 -3.25852186E-02 -8.07396883E-04 -1.59947389E-01
 -4.75612927E-02 -2.38162609E-03  2.32430583E+00  8.40578032E-02  1.29347652E+00
  8.72080120E-04  2.71920718E-02  1.71076205E-03 -2.80006965E-03 -8.95945675E-03
 -1.00390460E-02 -3.96064587E-02  6.43903125E-05 -2.38394380E-02 -1.19727483E+00
  3.54253085E-03  9.59124472E-01 -2.89474914E-01 -1.17460667E+00  4.37388775E-04
  4.20612338E-01 -4.06192307E-04 -1.68426234E-01  1.31813127E+00 -3.12159627E-01
  2.37353138E-01  4.86138364E-01 -1.69561380E-01  1.32094925E+00 -3.13296137E-01
 -2.37704493E-01  4.85695032E-01  6.37403293E-05  4.44567337E-04 -1.20775096E-02
 -5.01690925E-03  4.62956256E-03 -2.21822630E-02  4.11322785E-02 -4.05679253E-03
  1.00757304E-02 -5.62930716E-02 -3.25718144E-01 -9.59433446E-03 -2.45959079E-03
  3.54513798E-02 -1.89512733E-05  1.10616177E-04 -8.94391727E-03 -4.87219880E-03
 -4.52997593E-03 -2.20288465E-02  4.08226707E-02  9.80455707E-04  9.51550155E-03
 -5.66156316E-02 -3.25930402E-01  9.44091859E-03 -2.49243919E-03 -3.76997186E-02
  9.25548403E-02 -1.96593807E-01  3.71291742E-02 -1.93648159E-01 -4.26906284E-01
  1.19737244E-01 -7.98987220E-01  3.10993105E-01  9.60117435E-02 -6.93091183E-01
  1.20817072E-01 -8.01955777E-01  3.05898983E-01 -9.17477980E-02 -6.92193621E-01
  9.21935060E-02 -1.92546704E-01  2.55136818E-02  1.87337894E-01 -4.27686978E-01
 -6.10850845E-05 -2.87356912E-04  4.77554369E-03  2.35982580E-04  3.78224397E-01
 -5.60456189E-04  2.37899974E-03 -7.43955972E+00 -2.64167535E-03  1.38094235E-03
  2.41967091E-03  5.15704502E-01  7.60593461E-04 -1.05216640E+00 -1.28920674E-02
 -5.75879310E-02  1.04704640E+00  8.69427144E-02  5.05814666E-02  1.79828048E-02
  7.16529766E+00 -3.07074191E+00  6.96002428E-02  5.33472705E-01 -4.26028595E-01
  1.08750975E-01 -1.21604996E+00 -9.48983079E-01 -1.47396651E-02 -6.51069950E-02
  1.02185647E+00 -3.37313877E-01  1.14432197E-01  4.11031515E-02  9.05646639E+00
  6.14421705E+00  5.76197027E-01  9.62185494E-02 -1.78327773E-01  8.80150315E-02
 -9.85228928E-01  1.05613392E+00  3.24075103E-05  1.52863515E-04 -2.23277826E-03
 -3.00185847E-04  4.77426880E-01 -1.23307862E-05  1.73507977E-02  9.78641447E+00
  1.16560796E-03  5.71013506E-04 -2.40264320E-03  3.31843799E-01 -2.46374111E-03
  4.09734390E-01  1.47845153E-02  6.53091069E-02 -1.02449351E+00  3.39588230E-01
  1.13917975E-01 -4.11126379E-02 -9.06542518E+00  6.14868106E+00 -5.72582128E-01
 -9.61056690E-02  1.77609459E-01  9.12198154E-02  9.78088011E-01  1.05578342E+00
  1.28648700E-02  5.74352692E-02 -1.04405580E+00 -8.56353011E-02  5.06218364E-02
 -1.80270598E-02 -7.16352283E+00 -3.07182012E+00 -7.19661127E-02 -5.34663109E-01
  4.23308333E-01  1.08983116E-01  1.22333206E+00 -9.52039315E-01 -7.43853419E-05
 -3.04874582E-04  1.82643153E-03 -2.40938637E-05  3.19970739E-01 -5.10160676E-04
 -7.30244580E-04 -8.83989609E-01 -2.67739705E-03  3.13338274E-04  3.38831784E-03
  1.62248292E-02 -2.81792539E-04 -5.24060230E-01  3.59050784E-05  1.48991763E-04
 -1.01008097E-03  3.97241311E-05  2.77179182E-02  4.50414313E-05  5.15039606E-04
 -1.71436178E+00  7.26881811E-04 -1.90240775E-03 -1.52079475E-03 -3.91499469E-01
  6.43531046E-04  1.86685662E-01 -2.20514778E-01 -2.47321392E-01  3.03753921E-02
 -5.16317896E-02 -1.71235825E-01  2.19648847E-01  2.44722016E-01 -3.08960042E-02
 -5.10055857E-02  1.73005280E-01  9.56199542E-04  4.14444243E-03 -6.78106543E-02
 -1.42340226E-01  1.01154296E-01 -1.34150017E-02  1.98701410E-01 -1.12245059E-01
  5.32394649E-02 -9.55939336E-02  1.90676324E-02  4.36155518E-02  1.70641344E-01
  2.14372426E-01 -9.47515158E-04 -4.10761418E-03  6.74493523E-02  1.41833971E-01
  1.01195518E-01  1.21589620E-02 -1.97550673E-01 -1.11860911E-01 -4.67394159E-02
  9.52212573E-02 -1.89607432E-02  4.03038656E-02 -1.69660015E-01  2.14827683E-01
  1.43023699E-01  1.28016852E+00 -1.35054092E+00  8.45210305E-01 -6.93747336E-02
  3.10070292E-02  1.31368469E+00 -4.32693136E-01  1.82266144E-02  5.55252456E-02
 -3.03039602E-02 -1.31881344E+00  4.37813707E-01  1.66065180E-02 -5.78452974E-02
 -1.42270497E-01 -1.27607891E+00  1.35537933E+00  8.47099679E-01  6.96498036E-02
 -3.97637078E-02 -1.77317458E-01  2.75598186E+00 -1.42507465E-01 -1.00789413E-03
 -3.34978329E-02  3.63051750E+00  8.12658537E-02 -2.86141088E-01 -4.42942956E-02
 -5.08390952E-02  3.27726002E-03  4.96592102E-01  1.89895755E-03 -4.04773230E-03
 -2.12591373E-02  4.32993858E-01  2.81803246E-01 -7.77562142E-02 -1.08422607E-02
 -8.12216789E-01  1.26320334E+00 -1.47370111E-02  2.01597471E-01 -7.79277944E-02
  1.54854188E-01  1.95754834E+00  1.80167496E-01  1.17256809E-02  5.87191711E-02
 -1.03679686E+00  2.46584480E-01 -3.92721570E-02  1.12879808E-02  5.81375447E-01
 -1.25089116E+00 -1.13507945E-01 -9.20154450E-02 -1.48778105E-01 -2.12035106E-01
 -1.11854587E+00  3.48967877E-01  2.06161484E-02  1.03359911E-01 -1.84633764E+00
 -8.54077130E-02 -3.24817166E-04  3.07055695E-02  1.25094827E+00 -9.05646250E-02
  6.45169384E-01 -4.79829233E-01 -3.23186838E-02 -6.33374868E-04 -3.44718886E-01
 -1.84783042E-03  1.17154673E-02  5.86709571E-02 -1.03541484E+00  2.46792841E-01
  3.93638483E-02  1.09503361E-02  7.29942694E-01  1.16194885E+00 -1.16510098E-01
 -8.92945460E-02 -1.44249367E-01  2.11785643E-01 -1.12434735E+00 -3.49372614E-01
 -4.11735550E-03 -2.15451314E-02  4.36862219E-01  2.83317055E-01  7.75692044E-02
 -1.10962359E-02 -6.71274754E-01 -1.18037766E+00 -1.58906298E-02  2.00831443E-01
 -7.30128318E-02 -1.54379183E-01  1.95667017E+00 -1.78071488E-01 -1.00923972E-02
 -4.15163593E-02  2.84068546E-01  2.05507715E-01 -3.34368734E-04 -1.09767578E-02
 -1.90680243E+00 -7.10891797E-03 -1.07538680E-01  6.51826476E-01  8.99582417E-02
  6.67296187E-04 -2.02991500E-01  6.80846297E-05  8.77443843E-03  3.11358544E-02
 -8.80817352E-02 -2.23348715E-02 -6.78722459E-04 -1.88294328E-03 -5.04086174E-01
  1.28189393E-02 -2.17845787E-01  5.64408978E-01 -2.18229136E-02 -1.12207815E-03
  1.21283440E+00 -5.15621208E-03  5.61529363E-01  1.05232130E-01 -3.76450893E-02
 -5.15247791E-01  2.08901880E-02  5.60738637E-01  1.07331288E-01 -3.68475703E-02
  5.16317720E-01  2.14973581E-02  1.09418072E-03  5.94472933E-03 -1.07826202E-01
 -1.06448856E-01  8.15930297E-02 -1.09389367E-02  6.86938882E-01 -3.24689453E-01
  7.92869987E-02 -4.02358009E-01 -4.43184041E-03  5.20358608E-02  3.18676015E-01
  8.49251101E-02  1.03774921E-03  5.71591983E-03 -1.05521547E-01 -1.06416623E-01
 -8.13056376E-02 -1.07702154E-02  6.86106456E-01  3.21830805E-01  7.85532827E-02
 -4.03022376E-01 -4.22239645E-03 -5.11280675E-02  3.18986161E-01 -8.56235406E-02
  1.85359591E-01  1.06559119E+00  1.32428779E+00 -7.22665817E-01  5.05675405E-02
 -1.01141647E-01 -1.11611832E+00  6.34251802E-01  2.73590239E-01 -7.62606594E-02
 -1.00726626E-01 -1.11534609E+00  6.23864409E-01 -2.67533032E-01 -7.71989057E-02
  1.84605441E-01  1.07376178E+00  1.31044801E+00  7.12532730E-01  5.12918939E-02
 -4.99448073E-05 -1.95287013E-04  2.23724307E-03 -5.58505312E-04  3.45244960E-01
 -3.91045503E-04 -3.01262556E-03 -2.08438072E+01 -7.82417261E-03 -1.80524472E-03
 -2.97658320E-04  3.23753564E-01 -2.46820683E-03  1.93415259E-01 -1.08794057E-02
 -4.46729423E-02  4.51582169E-01  5.09803514E-01  8.61747030E-02  7.78979824E-03
  1.52832733E+01 -9.75621478E+00  8.36615931E-02 -8.15890019E-01 -2.42613462E-01
  1.17535198E-01  5.98708410E-01 -3.29886522E-01  7.13402901E-03  2.86369528E-02
 -1.83693214E-01  4.16445476E-01 -4.82961052E-02  1.63067119E-02  1.57979436E+01
  9.89808622E+00  1.69234807E-01  8.68345482E-01 -1.39020053E-01 -3.52755491E-02
 -1.08276757E+00  1.14718483E-01  4.94403718E-05  2.33720727E-04 -3.82168742E-03
  3.28133043E-04 -2.52474246E-02  2.88854933E-04 -1.74940139E-02  2.13758934E+01
  4.63472195E-03  9.35834917E-04 -1.72434952E-04  8.30136512E-03  3.05514701E-03
  6.88468663E-01 -7.17171090E-03 -2.87639948E-02  1.83971578E-01 -4.17925524E-01
 -4.85597818E-02 -1.60077049E-02 -1.57791351E+01  9.92258987E+00 -1.65725753E-01
 -8.73010060E-01  1.35797810E-01 -3.18178521E-02  1.08811528E+00  1.09306747E-01
  1.09233465E-02  4.48719470E-02 -4.53388502E-01 -5.10237686E-01  8.65502126E-02
 -7.73771755E-03 -1.52905800E+01 -9.76074146E+00 -8.44516078E-02  8.20483661E-01
  2.42414815E-01  1.15221555E-01 -6.00889058E-01 -3.29178421E-01  4.36419970E-05
  1.80422832E-04 -1.16240874E-03  4.24936166E-04 -3.20392381E-01 -5.19181596E-04
 -6.05405537E-03  3.27096668E+00 -2.91652474E-03  4.50375100E-04  3.39782939E-03
  1.95425884E-02 -1.22673375E-03  8.99138011E-01 -3.62999847E-05 -1.57146719E-04
  1.24213855E-03  7.27748899E-06  3.41566804E-01 -1.56712927E-04 -8.81315441E-03
 -5.10526829E+00 -1.75722136E-03  3.09255809E-03 -4.95055342E-04 -3.33678293E-01
  3.37462506E-03  1.21459683E+00 -3.01771023E-01 -6.61567849E-01  2.93083735E-01
 -6.71517883E-02 -7.39429421E-02  3.05220219E-01  6.74841415E-01 -2.93749674E-01
 -6.78651590E-02  7.32270093E-02 -6.71195802E-03 -2.78452988E-02  3.36532609E-01
  1.28713095E-01 -1.73588061E-01 -9.44786391E-03 -2.11052542E-01  4.59309160E-01
  4.23597575E-02 -4.05560098E-02  1.56060925E-02  2.91781529E-02 -2.04292611E-01
 -1.20263020E-01  6.77333628E-03  2.81017211E-02 -3.39309310E-01 -1.29296851E-01
 -1.73899130E-01  8.64527057E-03  2.13520403E-01  4.61085255E-01 -3.70716901E-02
  3.90952711E-02 -1.54922094E-02  2.61183807E-02  2.05953709E-01 -1.20700863E-01
 -1.74128272E-01  8.01612985E-02 -7.46397703E-01  7.53492117E-01 -1.66664217E-02
  2.36059010E-01  2.08905216E-02 -3.41192592E-01 -5.62172939E-01  1.86699551E-02
 -2.36947574E-01 -2.74429681E-02  3.40692086E-01 -5.63573483E-01 -1.96139682E-02
  1.77113995E-01 -8.23382277E-02  7.44533928E-01  7.55339287E-01  1.75153073E-02
 -8.33341364E-03 -3.39613254E-02  5.41470853E-01 -8.09843946E-01  3.71941717E-04
  2.56562404E-02  5.05182108E+00 -6.99694005E-04  1.17735583E-01  1.91202331E-01
 -9.76783763E-03 -9.85787261E-04  7.88327720E-01  1.89186151E-03  9.00867819E-04
  5.68597987E-03 -1.97802393E-01 -1.34825341E-03  1.13472299E-01  5.83428620E-03
 -2.72390572E+00 -1.00470456E+00  8.19447536E-02 -5.95737117E-01  6.44576548E-02
 -7.58871322E-02  4.34574661E-01 -8.51743461E-01  7.75549349E-05  1.58041323E-03
  5.32804343E-02  2.96165011E-02  1.45134623E-01 -6.33965460E-03 -4.31831915E-02
 -6.10824157E-01  3.23483869E-02  1.18330351E-01  9.99046913E-02  1.66795020E-01
  1.19017504E-02  6.86345811E-01 -1.37255194E-02 -6.36062252E-02  1.05441158E+00
  4.71912543E-01 -3.58256662E-05 -4.22643059E-02 -3.89879124E+00 -1.81922417E-03
 -4.15986326E-01  2.56746103E-01  8.50070329E-02  9.94354862E-05 -6.52531463E-01
 -6.64985132E-04  6.40677696E-05  1.53387188E-03  5.38162764E-02  2.95080533E-02
 -1.44783819E-01 -6.46105107E-03 -4.11760426E-02  6.12653721E-01  3.62248616E-02
  1.18879571E-01  9.72995828E-02 -1.67779911E-01  1.17057784E-02 -6.85736700E-01
  9.24756557E-04  5.80097081E-03 -1.99854686E-01 -1.03441843E-03 -1.12514196E-01
  5.81572004E-03 -2.72570526E+00  1.00646730E+00  7.93856244E-02 -5.96224181E-01
  6.21792278E-02  7.58275819E-02  4.35333898E-01  8.49617767E-01 -3.86374281E-03
 -1.64404600E-02  1.44243286E-01  2.57376764E-01 -7.43826218E-05  1.06799620E-02
 -2.47851850E+00  1.13350667E-03  9.96198761E-02  8.59814595E-01 -9.17693902E-02
  6.60510309E-04 -3.34672785E-01  1.21851036E-04 -1.79003072E-02 -7.22143566E-02
  4.02565364E-01 -1.04125981E-01 -1.13068899E-04  4.36134270E-03 -2.75939515E-01
 -2.92027094E-04 -4.76455219E-03  1.71512902E-01 -3.76071814E-02  3.90657691E-04
 -1.37756186E+00 -1.27792109E-03 -4.48784612E-01  1.09846986E+00  1.08146263E-01
  7.98866928E-01 -6.63107449E-02 -4.48039943E-01  1.10304131E+00  1.08148822E-01
 -7.99242991E-01 -6.70948662E-02  6.58349127E-05  1.99833847E-03 -8.10588635E-02
 -6.42637048E-02  4.11549125E-02  1.20935737E-02  6.32216001E-01 -1.48612449E-01
 -8.17348415E-02 -3.85944039E-01  1.50864835E-03 -4.99504818E-02  3.33869469E-01
  2.52405802E-01  8.64499829E-05  2.08330987E-03 -8.19772829E-02 -6.46933348E-02
 -4.15455152E-02  1.23475379E-02  6.33152220E-01  1.50682643E-01 -8.25861916E-02
 -3.85979846E-01  1.21204204E-03  4.95843902E-02  3.35255780E-01 -2.52202831E-01
  1.17614077E-01 -1.14332958E+00  4.23319612E-03 -6.04282448E-02 -2.79991532E-02
  4.58883336E-01 -8.58835527E-01  6.32761236E-01 -1.06551155E-01  9.00419272E-02
  4.58502444E-01 -8.59225099E-01  6.32517308E-01  1.06240105E-01  9.08007077E-02
  1.17138153E-01 -1.14462910E+00  5.97893793E-03  6.10424390E-02 -2.70372616E-02
 -2.19816342E-03 -9.56022539E-03  1.39040815E-01  5.31775117E-02 -7.75700793E-03
  9.42611932E-02 -3.56912637E-01 -5.40732926E-02 -1.42267203E+00 -8.84999041E-02
  4.45080463E-01 -8.50929484E-03 -3.19572770E-01 -3.55609702E-02  4.06646344E-05
 -4.46667077E-04  3.82280215E-02  9.05538510E-02 -2.71793736E-02 -6.82419387E-02
  1.96721782E-01  2.73943666E-01  6.65141661E-02  9.39078940E-02 -7.54859991E-01
  7.97498721E-02  2.12852565E-02  7.23849309E-02 -1.30161472E-03 -5.29972443E-03
  4.90245990E-02  7.79285398E-02  1.66563657E-02  8.32981988E-02  1.30595669E-01
 -2.32717668E-02  5.60371114E-01 -7.54768589E-02 -4.42648560E-01  1.35181436E-01
 -1.65139384E-01  5.03302567E-02  1.56281047E-03  6.22639939E-03 -7.25495542E-02
  1.03283817E-01 -5.72922826E-03  1.62019582E-02  4.58461892E-01  9.26860065E-02
 -2.72976818E-02  7.02907436E-02  3.50314771E-01  4.66613731E-03  3.94497245E-01
  2.87970726E-02 -1.32389626E-03 -5.54665948E-03  5.51612577E-02  8.03931532E-02
 -3.11328496E-02  8.38356932E-02  3.61661583E-04  6.99346420E-02  5.65987745E-01
 -8.32863412E-02 -4.56665041E-01 -1.28210697E-01 -1.44579597E-01 -8.03687779E-02
 -1.59591708E-04 -1.43740482E-03  5.81000848E-02  8.26218893E-02  7.38126307E-03
 -6.84215396E-02  1.48240349E-01 -3.31773487E-01  6.55825701E-02  9.96027119E-02
 -7.69766546E-01 -8.82011587E-02  3.15040182E-02 -4.44938818E-02  2.34187276E-03
  9.98497959E-03 -7.43047527E-02  6.27706641E-02 -9.59774997E-04  1.99579533E-01
 -1.19580767E-01 -4.79218788E-03  4.32567620E+00 -3.15979254E-02 -1.53074922E+00
 -1.87421438E-03 -3.69671736E-02  1.11158672E-03  3.10537534E-03  1.31272249E-02
 -8.59922577E-02  4.92417604E-02  2.39167279E-03 -1.59820227E-02  2.94307556E-01
 -3.22327189E-02 -1.07367744E-01 -1.08724681E-01  5.61527075E-02  7.70558553E-04
 -1.52612613E-01  2.54225063E-02 -2.25236385E-02 -3.48648316E-01  7.23040540E-02
 -2.60132536E-02  3.73646390E-03 -2.42736325E-02 -3.76092624E-01  6.24573973E-02
  2.83000679E-02  4.87760965E-03  1.21789153E-03  5.30162499E-03 -6.06978555E-02
 -7.04824472E-03 -1.35008580E-02  3.60425386E-01  1.67114960E-02  3.00824048E-02
 -2.36496537E+00 -1.57069275E-02 -3.64590225E-01 -1.27335611E+00 -2.50930329E-02
  4.28595078E-02  1.09834420E-03  4.82745854E-03 -5.65415895E-02 -1.79047766E-03
  1.60170357E-02  3.59871478E-01  3.10159945E-04 -4.87845709E-02 -2.36232364E+00
 -2.15403184E-02 -3.64918660E-01  1.27135052E+00 -3.92852868E-02 -3.70161861E-02
  6.14398493E-02  1.32286591E-02  1.82274029E-02 -7.57423082E-02 -2.11841215E-01
 -1.33999120E-01  2.84434187E-01  9.96466577E-03  1.66771163E-01  1.94780052E-01
 -1.15466923E-01  2.70878527E-01  2.62694883E-02 -1.59400727E-01  1.94709695E-01
  8.19227847E-02  4.28180340E-03  8.16840469E-03  8.56346814E-02 -2.11625344E-01
  8.07516345E-03  2.92121014E-02 -2.18631280E-01  2.57476165E-02 -1.71797476E-02
  5.56176199E-03  3.83828305E+00 -2.14912083E-02 -2.20610792E-01  9.40201578E-01
  4.97982974E-02 -1.02200697E-02  1.79841163E+00 -6.64694760E-02 -1.12163748E-02
 -4.62055477E-02  4.09808261E-01  9.05632190E-02  4.76021392E-02 -9.55483989E-03
 -1.40754569E+00 -2.06067345E+00  8.47459480E-04 -1.05235390E+00 -9.69117300E-02
  3.84751065E-02  1.30488745E+00 -2.78409227E-02  1.58935239E-02  6.76056661E-02
 -7.66474187E-01  1.36515492E-01 -1.71497512E-01  1.28705415E-02 -2.19290302E+00
  2.21549445E+00  2.45855208E-02  1.09810362E+00 -7.13612171E-02 -5.06776228E-02
 -1.00267547E+00 -7.01097748E-01 -5.55241584E-03 -1.78715154E-02  4.66613743E-02
 -5.06366769E-01 -1.45788063E-02  3.25926241E-02  5.55257332E+00  9.53906735E-02
  1.86772487E-01 -9.08279702E-01  1.24952499E-02 -8.81696262E-04 -2.09775468E+00
  5.88192750E-02  1.57123121E-02  6.65131535E-02 -7.44533109E-01  1.39122708E-01
  1.41519351E-01  1.37545766E-02 -2.30144535E+00 -2.20624079E+00  3.82510198E-02
  1.08277433E+00 -8.13002538E-02  5.19301538E-02 -9.71777331E-01  6.29784196E-01
 -1.16575056E-02 -4.83993495E-02  4.54797377E-01  7.62309003E-02 -8.64616662E-02
 -9.54111221E-03 -1.36118895E+00  2.01653847E+00  2.68621092E-03 -1.03842285E+00
 -1.12788465E-01 -4.50040598E-02  1.31491839E+00  8.47033989E-02 -2.07696837E-02
 -8.63401829E-02  5.89613364E-01 -1.66231689E-01 -3.55833698E-03  2.45523533E-02
  1.20942847E+00 -1.15685963E-02  5.39564662E-01  1.35276765E-01 -1.85850004E-01
 -1.48361047E-03  4.17529310E-01  5.78813149E-03  9.71989885E-03  3.79750149E-02
 -2.38569082E-01 -9.13085155E-02  3.95107275E-03  2.36961253E-02  2.67587104E-01
 -6.63166057E-02 -6.77441894E-02 -2.14891377E-01  6.51325321E-02  8.59003801E-04
  5.90897713E-01  3.82357869E-02 -4.21375500E-02 -2.37683979E-01 -2.01859466E-01
 -3.07148259E-01  3.28159592E-02 -4.04022736E-02 -2.64720847E-01 -2.17428128E-01
  3.07710459E-01  3.31667764E-02 -1.39435276E-02 -5.80933964E-02  6.18206043E-01
  9.56658802E-02  6.10724705E-02  4.51767422E-02 -1.12052251E-01 -3.43632570E-02
 -2.95321963E-01  1.37135682E-01 -4.80129721E-02 -1.57648100E-01  7.74967962E-03
 -1.58040767E-01 -1.41361992E-02 -5.88500875E-02  6.24409265E-01  1.05838401E-01
 -5.66682002E-02  4.45385499E-02 -1.46222624E-01  4.76693056E-04 -2.91243290E-01
  1.28470445E-01 -4.69253964E-02  1.55711120E-01 -1.90548113E-02  1.70730609E-01
 -6.24947311E-01  7.14223248E-01  9.08230382E-01  3.17863601E-01 -1.16630194E-02
  4.60689339E-01 -4.46797014E-01  4.66563933E-01 -4.67251971E-01 -1.77419976E-02
  4.98522591E-01 -4.70154605E-01  4.94346598E-01  4.84345518E-01 -1.72863092E-02
 -5.81587360E-01  6.96013694E-01  8.71031563E-01 -3.06147078E-01 -1.27905806E-02
  2.70898602E-04  9.82924686E-04 -7.57223333E-03  2.06657742E-03  5.06940719E-01
  1.72065040E-03  1.22714925E-01 -6.74238708E-01 -4.08774963E-02  3.18096650E-02
  6.73901955E-03  2.59892662E-01  5.82217307E-02  1.88510819E+00 -7.00573492E-03
 -3.40396899E-02  6.56016443E-01 -1.70420353E-01  5.54697304E-01 -2.09810052E-03
  1.49543889E+00 -9.65466435E-02  2.75944527E-03  9.94039176E-02 -2.42933392E-01
  1.15674562E-01  2.50395590E-01 -8.45821725E-01 -8.16694718E-04 -7.98882783E-03
  2.14063849E-01  6.89902318E-02  4.05692126E-01  1.37495169E-02 -6.70054615E-01
  5.13418551E-01  1.40125726E-01 -1.39622642E-01 -2.01477520E-01 -7.11590367E-02
  3.55655921E-01  9.55252675E-01 -1.74746850E-04 -5.46951535E-04  7.97689073E-04
 -1.74426817E-02  3.95470379E-01  1.44482079E-03  1.95743546E-01 -1.54422701E+00
  1.23250845E-02 -3.00695113E-02  1.11755433E-03 -6.61068764E-02 -6.86515437E-02
 -1.54517030E+00  1.86078250E-03  1.24171592E-02 -2.63926031E-01 -5.82194986E-02
  4.16278014E-01 -1.01782560E-02  5.13518505E-01  3.61343572E-01 -1.28156499E-01
  2.13230981E-01  1.82837452E-01 -6.41754146E-02 -4.22314736E-01  1.00200342E+00
  6.24061588E-03  3.08759408E-02 -6.27240833E-01  1.77365929E-01  5.50514318E-01
 -3.14818462E-04 -1.58445772E+00  3.87929330E-02  1.02601474E-02 -1.69568617E-01
  2.09468340E-01  1.02619031E-01 -1.62854908E-01 -8.45538326E-01 -6.85388918E-04
 -2.84575405E-03  1.93580633E-02 -5.62361802E-03  7.19500582E-02  4.43976877E-03
  4.25947083E-02  6.16572496E-01  9.84804384E-02  3.23901993E-03 -3.49166784E-02
  2.90043348E-02  1.47111018E-02 -8.91983397E-02  3.75475005E-04  1.48220805E-03
 -9.40290716E-03 -2.64364476E-03 -9.61923300E-02  6.47814447E-04  1.07947444E-02
  1.54677964E+00 -3.04025332E-03 -8.95128059E-03  1.45177928E-03 -2.56969099E-02
  2.01869215E-02 -1.03943625E+00 -5.69516765E-05 -4.56162315E-01 -2.21415159E-01
 -3.26336541E-02  1.20036695E-02 -2.75244589E-03  4.33985099E-01  2.06938871E-01
 -1.00905562E-02 -8.63867532E-03 -4.01867915E-03 -1.60786406E-02  1.48070405E-01
  1.55534083E-01 -7.02394177E-02  1.48378784E-03 -5.01540626E-01  5.13356578E-01
 -1.62888877E-02 -1.10408938E-01  5.04458215E-03 -4.94393812E-03 -3.87367360E-01
 -1.82782432E-01  3.08650761E-03  1.21955772E-02 -1.06735481E-01 -1.48570323E-01
 -7.41954445E-02  1.50654665E-02  4.91447876E-01  5.14701154E-01 -9.23683815E-02
  1.20066568E-01 -2.17245532E-02  5.35783182E-02  3.86413546E-01 -1.70641339E-01
  5.81177750E-01 -2.75429474E-01 -5.51108046E-01 -1.18339158E-01 -1.32230781E-02
  5.60981326E-01 -4.05566148E-01  3.60057664E-01 -3.14001903E-01  8.50922960E-03
 -5.31008987E-01  3.83073018E-01 -3.29481412E-01 -2.83694652E-01 -6.11084421E-03
 -6.21518005E-01  3.21687681E-01  6.11879730E-01 -1.38692220E-01  7.31717356E-03
 -1.63183536E-03 -1.05703320E-02  2.93483495E-01  1.69671635E-01  1.12312242E-03
 -7.90650636E-04  1.04548150E+00  3.29249195E-04  1.97506920E+00  2.65535801E-01
  1.47356729E+00 -2.79313148E-03 -4.68046562E-01  6.52193609E-03 -9.52853008E-03
 -4.31122689E-02  6.06935011E-01  5.45744887E-01 -1.29933867E-02 -7.54749624E-02
 -4.05704069E-01 -3.32417407E-01 -1.83620522E+00 -3.93064516E-01 -4.96812601E-01
 -1.18832894E+00  8.19549406E-01  2.07769912E-02  2.17198910E-03  8.58279889E-03
 -4.94876190E-02  5.22510737E-01  4.84521885E-02  7.44983225E-02 -1.64888887E+00
  2.04113693E+00  1.84716060E+00  4.66224683E-01 -4.00498848E-01  1.13824690E+00
 -1.63403489E+00 -1.47059575E-01 -1.12786974E-03 -6.50405387E-03  1.07844631E-01
  3.37457042E-01  4.18923562E-04 -3.99371322E-02  6.99255113E+00 -9.30440772E-03
 -2.13429933E+00 -2.46281641E-01  1.26593303E+00  5.30416829E-04  5.95077020E-01
 -4.17702903E-03  2.14375925E-03  8.48566395E-03 -4.89450575E-02  5.20312182E-01
 -4.68049274E-02  7.44919034E-02 -1.63182095E+00 -2.04789872E+00  1.84892403E+00
  4.65055387E-01 -4.03651107E-01 -1.13666834E+00 -1.63361158E+00  1.50830749E-01
 -9.48503262E-03 -4.29063599E-02  6.03728005E-01  5.45012864E-01  1.58434272E-02
 -7.55793346E-02 -4.01401891E-01  3.41154510E-01 -1.83543265E+00 -3.89892898E-01
 -5.00804014E-01  1.18620409E+00  8.14711214E-01 -2.45787385E-02  9.20926391E-04
  5.38778469E-03 -7.10384623E-02  2.72620032E-01 -5.11100032E-04 -5.75171164E-02
 -5.54431286E-02  6.62383248E-03 -5.21580993E-03 -6.10477529E-02  6.77542391E-01
  2.11912586E-04 -5.09570305E-03  2.00820418E-03  2.30275611E-02  9.63808508E-02
 -6.58734726E-01  2.42849471E-01  5.92934382E-05 -7.60254971E-03  2.22902201E+00
  9.84901428E-04 -5.79202298E-02 -9.26332208E-01  3.46238785E-01  6.94756243E-04
 -1.01589461E+00 -3.78460771E-04 -3.73123476E-01 -2.49614739E+00  3.50626139E-01
 -1.98754018E-01  1.90807842E-02 -3.73315798E-01 -2.49449478E+00  3.50253346E-01
  1.99283653E-01  1.99378951E-02 -2.26578600E-03 -7.87565727E-03  5.15528862E-02
  4.72207649E-02 -5.94377479E-02 -8.34097593E-02 -4.53385621E-02  2.66053875E-01
  4.57864356E-01 -2.49782051E-02 -1.29542459E-02  2.15073414E-01 -1.86308752E-01
  1.64489571E-01 -2.21868954E-03 -7.68343602E-03  4.94341043E-02  4.61061856E-02
  5.87148370E-02 -8.34656634E-02 -4.30687083E-02 -2.62867200E-01  4.58290964E-01
 -2.43821469E-02 -1.25914859E-02 -2.15458269E-01 -1.83773287E-01 -1.65900662E-01
 -4.57680641E-02  1.87028354E-01  4.86682327E-01 -8.65472336E-02 -4.37391472E-01
 -3.05397010E-01  1.61506768E+00  4.72850268E-01  5.79128424E-01  4.07788036E-01
 -3.08069347E-01  1.61886459E+00  4.68147374E-01 -5.79659781E-01  4.07350158E-01
 -4.78881576E-02  1.85282412E-01  4.84976594E-01  8.50993153E-02 -4.37750285E-01
  1.27741097E-03  3.44082434E-03  2.51270476E-02  7.34851402E-02  4.14377593E-03
 -9.35450784E-03  5.72247442E-01  2.81230212E-01 -2.46315765E+00  1.21400150E-01
 -2.34372112E+00 -7.14168000E-02 -2.07061725E-01  2.48648276E-04 -6.20125973E-03
 -2.88419447E-02  4.38565210E-01  3.37802104E-01 -5.25336509E-03  1.69551671E-01
 -5.90275833E-01 -2.12905072E-02  2.96631696E+00 -2.19994371E-01  1.15912992E+00
  1.67462823E+00  3.91734535E-01 -6.44756452E-02  8.78763397E-05 -2.94393801E-04
  6.62682312E-02  2.76107246E-01  4.51374515E-02 -1.78272639E-01 -1.50445542E+00
  1.02505542E+00 -3.04803670E+00  2.73999661E-01  1.14075450E+00 -1.79766223E+00
 -1.21498445E+00 -1.08069381E-01  2.94118491E-03  1.14878807E-02 -1.75199287E-01
  1.91227454E-01  7.45415169E-03 -1.31394127E-02  4.25270772E+00 -3.04076986E-01
  2.48516244E+00 -5.61919276E-02 -2.68854147E+00  6.94111809E-02  2.18413160E-02
 -3.97800984E-03  3.38788742E-04  7.79682068E-04  4.70293701E-02  2.71848618E-01
 -3.78622278E-02 -1.76618417E-01 -9.58601708E-01 -1.33568182E+00 -3.04783245E+00
  2.68053999E-01  1.02264393E+00  1.87050731E+00 -1.19786618E+00  1.13729695E-01
 -6.25590592E-03 -2.89942712E-02  4.40728007E-01  3.32700593E-01  6.91319202E-03
  1.68716319E-01 -6.38317276E-02  3.27717386E-01  2.97244485E+00 -2.15730145E-01
  1.03891329E+00 -1.74947324E+00  3.90187001E-01  3.48277354E-02  4.62636413E-03
  2.04202703E-02 -1.59987123E-01  1.58458615E-01 -2.51772533E-03  4.08137847E-02
 -1.01145451E-01 -4.40779769E-03 -1.02254157E+00 -9.11343715E-02 -6.93014246E-01
 -1.19460551E-02 -5.00102051E-02  3.70598032E-03  1.27518999E-02  5.39375157E-02
 -3.86106157E-01  1.67602843E-01  3.49887247E-03  5.58141850E-02  1.03602635E+00
  8.56687143E-02  1.02442735E+00 -6.19618914E-01 -7.01336151E-01  6.18717408E-04
 -6.21183448E-01  4.50646313E-02 -2.49463373E-01 -1.13054030E+00  2.16322875E-01
  5.62176998E-03  3.89449603E-01 -2.77927175E-01 -1.28226995E+00  1.99222062E-01
  2.74689676E-02  4.04720309E-01  2.67902622E-04  2.10122999E-03 -4.28506918E-02
  2.15760272E-02 -4.90522528E-02  4.33560135E-02 -2.68305816E-02  1.83640946E-01
 -1.54214351E-01 -1.70488462E-02  1.12507743E-01 -4.65812965E-02 -1.19269443E-01
  1.33251688E-01  2.72037158E-04  2.13268204E-03 -4.38536834E-02  2.34851223E-02
  5.01456899E-02  3.91417873E-02 -3.84154520E-02 -1.94717759E-01 -1.28018667E-01
 -2.12887756E-02  1.21714432E-01  3.19617044E-02 -1.27150579E-01 -1.31280731E-01
 -1.28920833E-02  1.06333570E-01  2.32973384E-01 -2.95285929E-02  6.99698021E-01
 -1.55335418E-01  8.05442954E-01  4.63972259E-01  4.18302024E-01 -7.92651487E-01
 -1.65052488E-01  8.32556127E-01  3.93956966E-01 -3.91730026E-01 -7.96260873E-01
 -2.03526860E-02  1.11936671E-01  1.97026087E-01 -8.24183513E-04  7.01055632E-01
  7.10449109E-05  2.54714290E-04 -2.08259042E-03  2.20289542E-03 -1.62366785E-01
 -2.88887850E-04  1.01480971E-02 -9.54100023E+00 -7.71703032E-02  3.98337645E-03
 -6.47550132E-02  2.44155548E+00 -8.64959233E-03  1.58440147E-02 -1.97755447E-03
 -7.00362052E-03  1.00101774E-01 -5.75884254E-02 -3.26792107E-02 -7.45685649E-03
  8.99201886E+00 -5.40071253E+00  2.07688797E-01  1.19325923E-01 -1.99455661E+00
  1.33660027E+00  8.74007191E-02  4.89275783E-01  6.00598359E-03  2.60349636E-02
 -4.53882702E-01 -4.76763132E-02 -1.55515557E-01  2.06271991E-02  9.38588352E+00
  5.40783811E+00 -1.37181828E-01 -1.22878497E-01 -1.99840757E+00 -1.31961365E+00
  1.67840994E-01 -1.59829098E-01  8.08402730E-05  2.93536731E-04 -3.96810816E-03
  6.70548699E-03 -2.64409084E-01 -4.51360834E-04  1.29936692E-01  1.03378043E+01
  7.09749562E-02 -8.29854816E-04 -7.73206559E-02 -2.39875939E+00  4.94951655E-03
  2.85000265E-01 -6.05292828E-03 -2.62888397E-02  4.61267623E-01  6.37600975E-02
 -1.58429410E-01 -3.03924390E-02 -9.45299451E+00  5.33722682E+00 -3.08864668E-02
  1.36612516E-01  2.05652992E+00 -1.21549265E+00 -2.37445573E-01 -1.54840229E-01
  1.61174995E-03  5.31073648E-03 -7.42011590E-02  7.79834989E-02 -3.22669603E-02
  1.65426131E-02 -9.00973211E+00 -5.38783643E+00 -3.85448883E-02 -1.30729495E-01
  2.05369683E+00  1.23823805E+00 -6.88670957E-02  4.92144631E-01  1.04103860E-04
  4.64241185E-04 -3.82599434E-03  4.42924001E-03  8.01071334E-02  1.51249996E-03
 -1.12956412E-03  2.19104133E-01 -1.94079341E-02 -3.47289325E-03 -2.22079986E-02
  4.04549837E-01 -1.36045964E-03 -1.39008937E-01  3.78329585E-04  1.60768801E-03
 -1.16418806E-02  5.22281975E-03 -1.18981238E-01  1.48636164E-03  3.50662778E-02
 -3.05091270E+00  2.88516267E-02 -1.98772484E-02 -2.09393915E-02  2.34281235E-02
 -2.23755324E-02 -1.47571481E+00 -5.01302317E-01 -2.61800276E+00 -2.74526150E-01
 -5.70652932E-01  2.77984899E-01  4.83937115E-01  2.53800406E+00  2.87868329E-01
 -5.69852471E-01 -2.55136834E-01 -5.61458176E-04 -2.07238254E-03  1.08785268E-02
  3.87013661E-02 -1.94768419E-02 -7.23901474E-02 -2.05988827E-01  2.00757447E-01
  4.51291723E-01 -6.56368430E-02  1.65090598E-01  2.52917846E-01 -1.42171934E-01
 -3.23617559E-02  5.66297865E-04  2.14488905E-03 -1.27164322E-02 -3.71697233E-02
 -1.65344177E-02  7.60811466E-02  2.02595374E-01  1.89358512E-01 -4.68692553E-01
  6.52046639E-02 -1.60486452E-01  2.59939774E-01  1.34802204E-01 -3.91518469E-02
 -1.39122448E-01  1.33051695E-01 -5.74107503E-01  5.05893440E-01  5.46877964E-02
 -1.90523429E-01  4.04531121E-01 -1.16981046E+00 -4.43428798E-01 -8.46205753E-02
  1.79348314E-01 -3.48664692E-01  1.19255529E+00 -4.69398943E-01  3.98685960E-02
  1.38683693E-01 -1.28358405E-01  5.83694599E-01  5.05345900E-01 -1.61522087E-02
  2.38677005E-02  1.06720015E-01 -1.69745983E+00 -4.46226906E-01 -2.13553861E-05
 -2.45630010E-03  9.35164913E-01 -5.67307771E-03  1.10532223E-01 -2.08645443E-01
  1.61582072E-01  1.96819710E-04  1.19086956E+00 -2.27666945E-04 -1.89671049E-02
 -8.27444091E-02  1.36331389E+00  1.80014351E-01  1.43688148E-01 -1.64844495E-02
 -1.47265033E+00 -7.14150644E-01 -2.09579721E-01  6.84353373E-02 -9.29794050E-02
 -9.29111902E-02 -1.13716189E+00 -1.24807816E+00 -1.69008684E-03 -1.12334979E-02
  4.55781728E-01 -4.25873543E-01 -7.54734595E-02  2.09132452E-02  9.45856896E-01
  2.42956200E+00  1.72901295E-01  8.85638843E-01 -1.22059828E-01  9.14234217E-02
 -1.20717451E+00  5.33802583E-01  2.35181486E-02  1.10055636E-01 -2.15681282E+00
  1.05546938E-01 -3.16716797E-04  1.75652541E-02  1.78849416E+00  6.67633445E-03
  8.05785958E-02 -1.67299112E+00  2.51715622E-01  4.49325424E-03 -4.44449720E-01
  1.45854920E-03 -1.71254036E-03 -1.13208584E-02  4.56858457E-01 -4.24978163E-01
  7.51990879E-02  2.04473799E-02  9.26172293E-01 -2.41977321E+00  1.67797891E-01
  8.86964286E-01 -1.24487216E-01 -8.88848933E-02 -1.20831928E+00 -5.32045207E-01
 -1.89480000E-02 -8.26504506E-02  1.36083658E+00  1.80592674E-01 -1.43291869E-01
 -1.68885621E-02 -1.48880829E+00  7.07056922E-01 -2.11177937E-01  6.62762514E-02
 -9.25767869E-02  9.28522733E-02 -1.13530277E+00  1.24810876E+00  3.14962016E-02
  1.32624145E-01 -9.03252717E-01 -3.84506525E-02  9.57691824E-05 -1.94442746E-03
 -8.93172647E-01  5.28080273E-05  1.08492659E-01 -3.55868422E-01  4.19702396E-02
 -6.25813185E-04 -3.82187727E-01 -1.25449040E-03  1.49060357E-02  5.82266639E-02
 -3.13404375E-01  1.18691151E-01 -3.48577943E-04 -6.53776508E-03  5.07476622E-01
 -8.00988056E-03 -1.23290328E-01  3.47591213E-01  1.60093781E-01 -2.96934370E-03
  6.17851514E-01 -5.32227275E-03  2.29976061E-01 -5.60881628E-01 -4.79072982E-03
 -5.17017476E-01 -3.08794924E-02  2.33205627E-01 -5.43782673E-01 -3.56661983E-03
  5.14090277E-01 -2.95658315E-02  1.15214852E-02  4.91214992E-02 -5.55265377E-01
 -3.82377275E-02 -1.00479070E-01  8.31116561E-06  4.46140678E-02  1.70498797E-01
 -8.02002496E-03 -4.61326443E-02 -1.29464077E-02 -5.35971259E-03 -5.90343636E-02
  2.92441127E-01  1.15432281E-02  4.92159897E-02 -5.56378746E-01 -3.79213575E-02
  1.00804869E-01 -6.43689950E-05  4.38409177E-02 -1.71050235E-01 -7.85501196E-03
 -4.64100482E-02 -1.27877331E-02  4.84791777E-03 -5.98102070E-02 -2.92031211E-01
 -4.82104465E-02  5.78642937E-01 -6.14208430E-01  6.72906488E-01 -4.20947499E-02
  2.93103270E-01  6.28454670E-01  3.05036062E-01  4.83089208E-02  4.37377643E-02
  2.93100395E-01  6.27825471E-01  3.08141806E-01 -4.94434264E-02  4.32699565E-02
 -4.92877714E-02  5.76539221E-01 -6.11430233E-01 -6.71611823E-01 -4.24902880E-02
 -1.08788683E-05 -3.73030059E-05  2.92279900E-04 -3.84961564E-04 -1.23634442E-01
 -2.08225356E-04 -3.26452447E-03  6.55785698E+00  1.07884830E-03 -4.26918504E-05
  1.33054967E-03 -8.50926696E-01 -3.33742350E-03  2.02374479E+00 -2.07341754E-02
 -9.15197529E-02  1.61189181E+00  8.81649530E-04  3.07155031E-01  6.92449181E-03
 -2.45046942E+00  3.06427816E+00 -1.35473383E-01  8.19040118E-01  6.58896500E-01
 -5.62929142E-01 -1.71574399E-02  2.87330073E-01  1.24622237E-02  5.60769233E-02
 -1.01129918E+00 -1.00644255E-01 -3.78016121E-01  3.58563881E-02 -2.66858424E+00
 -1.41594158E+00  6.18967345E-01 -5.93390438E-01  8.00430377E-01  7.20488044E-01
 -8.24125047E-01 -2.29877134E-01 -3.18459309E-05 -1.45641399E-04  2.68349537E-03
 -2.04039645E-03  3.03678998E-02  5.72551213E-05 -4.26490757E-03 -4.87503345E+00
 -1.16683666E-03  1.29715608E-03  2.72191896E-03  1.62681220E+00 -2.92845968E-04
  1.51613310E+00 -1.24607915E-02 -5.60780707E-02  1.01172323E+00  1.00392769E-01
 -3.77710213E-01 -3.57596974E-02  2.65776475E+00 -1.41802157E+00 -6.16505158E-01
  5.94823323E-01 -8.01330771E-01  7.18096691E-01  8.30259167E-01 -2.23221709E-01
  2.08086612E-02  9.18536417E-02 -1.61787556E+00 -1.33692840E-03  3.07727306E-01
 -6.88690206E-03  2.45157396E+00  3.06962799E+00  1.35189443E-01 -8.21587267E-01
 -6.60680501E-01 -5.60740717E-01  1.35955171E-02  2.86204352E-01 -3.53129960E-05
 -1.49149770E-04  1.03002411E-03  1.55040556E-04  2.47332944E-01 -2.08672192E-04
 -3.64811563E-04 -1.16972279E+00  9.66437799E-04  1.07712527E-03  1.27884881E-03
 -2.33386958E-01  9.65071271E-04 -7.75719969E-01 -7.12707508E-07 -3.44967514E-07
 -2.63801722E-05 -1.19134242E-04 -8.62772279E-02 -3.22129575E-05 -6.93375440E-03
 -1.57914962E+00 -2.28482975E-03 -3.07310743E-04  1.04875390E-05 -6.29371869E-01
  2.72861526E-03 -6.77591198E-01 -3.72896526E-01 -1.27904219E+00  1.64832045E-02
 -1.68115180E-01 -1.81250627E-01  3.73814141E-01  1.28852145E+00 -1.88549090E-02
 -1.68792025E-01  1.80061918E-01 -1.85821427E-03 -7.13643639E-03  1.86599674E-02
  1.55710636E-01 -8.61110649E-04  3.36178234E-02 -6.67000179E-01  4.31838601E-01
 -2.33328188E-01 -1.21177673E-01 -8.29939647E-02 -1.13033414E-01 -5.15623551E-01
 -1.98890590E-01  1.84829421E-03  7.08734837E-03 -1.80104162E-02 -1.55771995E-01
 -1.35877407E-03 -3.36916518E-02  6.66913046E-01  4.33827655E-01  2.33364400E-01
  1.21084766E-01  8.31157817E-02 -1.12591147E-01  5.16427054E-01 -1.97136428E-01
 -7.57071519E-02  2.08051047E+00  6.60660043E-01  1.90953999E-01 -6.24633582E-02
 -5.01677188E-01  2.61293278E-01  2.35358167E-01  5.17288268E-01  6.97229629E-02
  5.01229742E-01 -2.57834271E-01 -2.38131223E-01  5.18390032E-01 -6.88389615E-02
  7.60006570E-02 -2.09120003E+00 -6.60653816E-01  1.92345772E-01  6.23601970E-02
  8.26613835E-03  4.24447913E-02 -7.40823453E-01 -7.14016474E-01  1.70570956E-03
 -5.69269028E-03  1.23821704E+00  1.87438932E-01 -4.61139951E-02  7.34246069E-01
  3.85629938E-03  8.07539723E-03 -1.01228882E+00  2.45034011E-02  5.77924717E-03
  2.87739917E-02 -7.74259839E-01 -9.21877765E-02 -1.63505893E-02 -1.25393205E-03
 -2.35451490E+00 -4.39218125E+00  1.76236676E-04 -1.27713743E+00 -2.35559180E-02
  3.13729454E-02 -1.33715967E+00 -1.44004170E+00 -2.25323056E-03 -1.46793252E-02
  5.23958127E-01 -2.18565099E-02 -2.19972378E-02  3.13142722E-03 -3.07605900E+00
  3.52421235E+00 -9.70362734E-02  1.06513780E+00 -4.39110110E-02 -9.94599319E-02
  1.46191094E+00 -2.04768768E+00 -1.44317346E-02 -6.50987902E-02  1.03340864E+00
 -9.45488800E-01  4.09808682E-03  4.13583443E-02  5.53919867E-01 -1.91073658E-01
  3.12900465E-01 -2.46391775E-01 -5.97287606E-02 -2.54167793E-02  3.32887969E-01
 -8.47354882E-03 -2.07889557E-03 -1.39274359E-02  5.12030441E-01 -2.09645020E-02
  2.35513681E-02  4.72568073E-03 -2.73708259E+00 -3.68187159E+00 -7.30599832E-02
  1.06726516E+00 -2.47252703E-02  7.78685021E-02  1.48686820E+00  2.04404457E+00
  6.03667308E-03  3.00034107E-02 -7.96947378E-01 -9.28519479E-02  2.17652634E-02
 -8.70912188E-04 -2.05886683E+00  4.62114430E+00 -5.33299206E-04 -1.28510677E+00
 -1.01221423E-02 -1.68733472E-02 -1.31748866E+00  1.43281341E+00 -1.23012289E-02
 -5.11430322E-02  3.35102786E-01  4.00659865E-01 -9.06902197E-04  3.32881892E-04
 -1.94301700E+00  1.44552362E-03  1.98821521E-02  3.97435306E-01  1.47368933E-03
  4.77957332E-03 -4.64393841E-01 -4.07773399E-03  1.83975519E-02  7.92364718E-02
 -5.70887462E-01  2.40211492E-01  1.02845627E-03  1.26456065E-02 -2.49647588E+00
  6.39528480E-02 -1.99010575E-01 -3.43320294E-01 -1.65541000E-02  1.34418674E-02
  1.28897881E+00  2.29504228E-02  2.82425242E-02  1.44837460E+00 -4.60245828E-01
 -3.87571963E-02 -3.98888709E-02  9.09527050E-03  1.34824835E+00 -4.65613298E-01
  5.82704045E-02 -4.44610659E-02  4.75539784E-03  1.88103233E-02 -2.06703717E-01
 -3.40946846E-02 -2.64408475E-02  6.23597501E-04  2.08582854E-01  6.61805061E-02
 -2.87998871E-03 -1.26755283E-01 -2.05642214E-03 -8.14592414E-04  1.40129980E-01
  1.74748479E-01  4.95223187E-03  1.96348349E-02 -2.15769179E-01 -3.52125514E-02
  2.83866464E-02  1.82924955E-03  2.09311541E-01 -6.95566937E-02 -1.17127812E-02
 -1.29820837E-01 -5.15070849E-03  3.95895268E-03  1.39030815E-01 -1.77497355E-01
  8.76976554E-02 -3.65398023E+00 -9.93615376E-01  1.56303708E-01  9.01551244E-03
 -9.82488976E-02  2.66139881E+00 -9.42010087E-01 -2.15277747E-01 -4.56501953E-02
 -9.14755294E-02  2.63977368E+00 -9.74916762E-01  2.43281156E-01 -4.37812834E-02
  8.99759771E-02 -3.70031889E+00 -1.01904149E+00 -1.59905168E-01  8.61647077E-03
  4.09881012E-05  2.35331185E-04 -3.72218204E-03 -6.94526655E-03 -6.16420842E-02
 -4.28543229E-05  1.04687427E-02 -1.47243285E+01 -6.55680635E-03  9.51404041E-03
 -2.17652216E-03 -7.06994921E-01 -1.16921908E-02 -2.37649203E+00  1.54561875E-02
  7.28660485E-02 -1.37275220E+00 -4.27480898E-02 -3.11899996E-01  7.66453802E-03
  1.09481428E+01 -8.77565628E+00 -1.67701820E-01 -6.11006979E-01  5.26656558E-01
 -5.54618881E-01  3.07418521E-01  4.56446019E-01  7.82555671E-04  2.10404300E-03
  3.54010247E-02  9.73415632E-03  2.36590834E-02  6.88821304E-02  1.26915123E+01
  6.13822009E+00  9.84504665E-01  3.72534734E-01  7.41525972E-01  8.17521532E-01
  1.23675409E+00  1.51324779E-01 -1.80305191E-04 -8.18709195E-04  1.36335316E-02
 -1.08756094E-02 -3.78994589E-01  4.43900196E-04  1.59676006E-02  1.50775428E+01
  5.70036519E-03  6.59294203E-05 -2.07169039E-03  2.05028033E+00  3.50678453E-03
  1.40671259E-01 -8.14673899E-04 -2.32920120E-03 -2.66999785E-02 -8.40567213E-03
  2.37862710E-02 -6.88497677E-02 -1.27601882E+01  6.06759915E+00 -9.85429598E-01
 -3.51326846E-01 -7.42586008E-01  8.23236337E-01 -1.20314546E+00  1.99933196E-01
 -1.53103901E-02 -7.21510080E-02  1.35383966E+00  3.98004326E-02 -3.11418314E-01
 -7.92307201E-03 -1.09950260E+01 -8.67344610E+00  1.69143189E-01  5.81462730E-01
 -5.26930677E-01 -5.57695645E-01 -3.30474152E-01  4.83785258E-01 -1.15751921E-04
 -4.76206875E-04  2.91358939E-03  4.86111507E-03  1.74780759E-01 -6.11074372E-05
 -2.05098914E-02 -7.16398510E-01  9.05451542E-04  3.79688440E-03 -1.05802186E-03
 -3.19759445E-01 -5.45598926E-03  2.08418742E-01  1.90780038E-04  8.26721902E-04
 -6.11321037E-03  2.41572765E-03 -7.01516505E-02  1.16465605E-04 -2.74591517E-02
 -4.94651499E+00 -3.27862161E-03 -5.86804716E-03 -2.35752724E-03 -1.13995717E+00
  1.19599074E-02 -2.03873643E+00 -7.50527284E-01 -4.21612958E+00 -2.64801857E-01
 -8.43703959E-01 -1.88273547E-01  7.49927369E-01  4.24544521E+00  2.53823954E-01
 -8.42923735E-01  1.87084563E-01  1.01826133E-02  4.27972347E-02 -4.85358492E-01
 -2.20169243E-02 -1.25532961E-01  3.85066585E-02 -1.27247295E-01  3.64631634E-01
 -2.93527502E-01 -1.66557682E-01 -1.03822535E-01 -1.27605401E-01 -2.09503372E-01
  1.59898293E-01 -1.00606556E-02 -4.23013312E-02  4.79704878E-01  2.14368899E-02
 -1.24363501E-01 -3.83031181E-02  1.31280191E-01  3.61614588E-01  2.92125077E-01
  1.63790525E-01  1.04202129E-01 -1.25898595E-01  2.11978404E-01  1.55649827E-01
 -8.81646505E-02 -2.06677415E+00 -1.19251264E+00  3.28701327E-01 -8.12863864E-02
  3.24841687E-01 -3.25733478E-01 -1.46237063E+00 -1.11811583E+00  8.47715232E-02
 -3.28362904E-01  3.81446224E-01  1.44064461E+00 -1.11395872E+00 -8.71908848E-02
  8.91711235E-02  1.98887302E+00  1.17190642E+00  3.25419338E-01  8.10326803E-02
  7.47324032E-05  3.33228687E-04 -7.68343387E-03  8.05141783E-04  5.90652010E-01
 -8.09975300E-05  1.94675076E-03  8.89706378E+00 -1.46116977E-03 -8.86152957E-03
 -1.55694656E-03  5.37408167E-02 -3.64072824E-03  1.06936847E+00  2.14515170E-03
  1.01618514E-02 -2.86359677E-01 -1.02091713E-01  3.39721334E-02  6.26637233E-04
 -7.43012218E+00  5.51236965E+00  3.11726773E-02 -4.98060435E-01 -2.69530933E-02
  4.86957858E-02 -2.23007216E+00 -4.22849418E-01 -2.09498049E-02 -9.52423725E-02
  1.74662307E+00 -1.73852483E-01  2.28745273E-01 -9.95152229E-03 -9.40205181E+00
 -2.20992907E+00 -1.21525166E-01  7.62663864E-01 -4.71240530E-02 -7.74673218E-02
  2.73131954E-01 -6.22987349E-01  1.08104678E-04  4.96502253E-04 -8.94263194E-03
  3.61809016E-03 -2.84411364E-01 -8.93546430E-05  4.72913341E-04 -8.13587332E+00
  1.22813337E-03 -3.05553239E-03 -1.90619098E-03 -2.04256487E-01 -1.51270643E-03
 -1.85216085E+00  2.08761504E-02  9.49338724E-02 -1.74118948E+00  1.71847946E-01
  2.28956647E-01  9.86188477E-03  9.42259426E+00 -2.19911269E+00  1.15965056E-01
 -7.63066592E-01  4.82712559E-02 -7.47659407E-02 -2.93394629E-01 -6.41888705E-01
 -2.15235965E-03 -1.02350411E-02  2.90682713E-01  1.07739774E-01  3.51321736E-02
 -3.82648400E-04  7.43270827E+00  5.47442504E+00 -2.48587774E-02  5.09042834E-01
  2.64989037E-02  4.42368720E-02  2.22576938E+00 -4.29620570E-01 -1.08744943E-04
 -4.75628644E-04  3.81299103E-03 -2.41271841E-03  4.26232397E-01 -2.62301576E-04
  1.19568482E-02 -2.16919673E+00 -1.28292686E-03  3.95594726E-03  5.59461725E-04
  3.15947910E-02  4.53200689E-03 -7.41263261E-01  8.50090026E-07 -9.46457728E-06
  2.69102608E-04  3.06295563E-05  1.02685128E-01  4.10595886E-05  8.94393944E-03
  1.84299850E+00  1.37052953E-03  1.00473082E-03 -3.65310401E-04  1.62040678E-01
 -3.43523146E-03  2.31223662E-02  2.69571779E-01  2.68838760E-01 -1.10731592E-02
  1.53302718E-02 -1.88750267E-03 -2.69555096E-01 -2.80188718E-01  1.41853727E-02
  1.65326134E-02  3.14056012E-03  2.41069124E-03  1.13055229E-02 -2.14144730E-01
  1.87699840E-01 -1.32924702E-01 -3.65083285E-03 -9.02803402E-01  9.35714299E-01
  2.86074020E-02 -1.58600497E-01  1.02443772E-02  1.15777692E-02 -8.25792707E-01
  3.37212403E-02 -2.61965246E-03 -1.21985553E-02  2.24526583E-01 -1.86709296E-01
 -1.34998185E-01  3.45928583E-03  8.98789651E-01  9.39536724E-01 -2.75398470E-02
  1.59890842E-01 -9.53915732E-03  1.20671146E-02  8.25954994E-01  4.05153270E-02
 -6.14677763E-01  1.30717661E+00 -9.73231787E-02  7.61858101E-01  1.06427461E-02
 -1.41241439E-01  2.73639173E+00  5.80692277E-02  6.75337808E-01 -8.44182901E-03
  1.42492609E-01 -2.74287004E+00 -4.97488544E-02  6.71079306E-01  8.13019892E-03
  6.16751218E-01 -1.29141372E+00  1.01904428E-01  7.62763510E-01 -9.51680140E-03
 -1.85214388E-02 -8.59825904E-02  1.87329074E+00  1.61249175E-01  1.21279204E-01
  9.50769793E-05 -5.57032827E-01 -3.15895784E+00  4.03389378E-02  1.47853017E+00
  3.46314439E-02 -5.05553926E-02  1.25610576E+00  7.25556441E-01 -6.00332264E-03
 -2.47815106E-02  2.47263316E-01 -4.38097864E-01  2.12728987E-01 -3.64770192E-03
  3.72828433E+00 -2.02315690E+00 -7.59992634E-02 -5.99997549E-01  1.62537134E-02
 -7.19357789E-02  5.60225864E-01  2.66551421E-01  7.91631409E-03  3.37982055E-02
 -6.32426475E-01  1.34123537E-01  1.13233782E-02  1.18246736E-02  1.15587147E+00
  1.59767715E+00  1.69667205E-01 -1.95698209E-01  3.20255604E-02  1.09530338E-01
  6.39642772E-01 -8.26166770E-01 -1.02761307E-02 -4.65926361E-02  8.74756836E-01
 -2.10475233E-01 -1.12496333E-01  5.47646639E-03  5.62604203E-01  2.94413817E+00
 -3.21682997E-02  4.61295815E-01  6.40507264E-02  2.09289614E-01 -6.81077712E-01
 -2.65505350E-01  1.33552995E-02  5.97919756E-02 -1.13739280E+00  2.49467015E-01
  4.53670508E-02 -5.14207568E-03 -3.07330207E+00  2.14836245E+00 -5.15016013E-02
 -4.26974776E-01 -8.81308477E-02  4.53130405E-02  3.27809276E-01  4.90192430E-01
 -4.51256911E-03 -1.66324347E-02  1.10067370E-01 -2.94545757E-01 -9.05612323E-02
 -4.46249496E-03 -1.48464453E+00  1.61315514E-02 -4.17048704E-02 -4.95204481E-01
 -5.88117188E-02 -2.32238198E-02  1.50189560E+00 -6.58130396E-01  3.55125699E-02
  1.52697517E-01 -1.16735577E+00  2.89104194E-01 -1.46348952E-01  4.81232697E-04
 -8.83441357E-01  1.33143321E+00  2.02399485E-02 -1.06701228E+00  5.37325637E-03
 -3.97636717E-02 -8.49876323E-01  8.99954585E-02 -8.33109795E-03 -3.47683234E-02
  2.29502573E-01 -1.55951506E-01  6.03423187E-03  2.76861946E-03 -1.34290037E-01
 -7.79093709E-01 -4.59970570E-02  2.28206095E-02  9.45265738E-03 -1.42133952E-01
  1.03279334E-01 -3.39982024E-01 -6.47973446E-02 -5.41903434E-01 -9.76393668E-02
 -1.20613240E-01 -2.52201488E-02  1.04845601E-01  1.01490726E+00 -3.19422237E-02
 -2.17375886E-01 -1.24250864E-02  1.30154745E-02  5.71503480E-02 -6.60480660E-01
 -5.78175936E-02 -1.99322198E-01  4.33281003E-03  4.46018870E-02  4.73200814E-01
 -3.65254960E-02  2.27949747E-02 -1.44316103E-02 -1.51738132E-02 -5.95221712E-02
  4.62724381E-01  2.66305317E-02  1.14260075E-01 -1.34339396E+00 -5.40689748E-02
  2.93916563E-01 -3.85408770E-03 -1.92413800E-01 -7.88402092E-01  2.97263451E-02
 -1.73559242E-01  9.15008990E-03 -1.20982938E-02 -4.19372413E-01 -5.57633357E-01
 -4.28056635E-01  1.01495431E+00 -2.08218811E-01  5.21010294E-01 -1.76145177E-02
 -6.89474714E-02 -2.13092350E-01 -4.79584383E-01 -3.18657314E-01  2.23970748E-02
 -1.44570435E-02 -1.26606276E+00  2.67875031E-01  1.81707663E-01  8.29937559E-03
 -3.28120296E-01  4.33135891E-01  3.59990564E-01  9.94773073E-03 -6.49096577E-04
 -4.94086737E-03 -2.29525988E-02  5.01018604E-01  4.29532770E-02 -4.40590768E-01
 -1.35297804E-04 -1.42899069E-01  1.19958081E+01  1.64109895E-02  3.96681287E-01
  9.11883170E-03  2.04880420E-01  3.39694858E-01 -2.67885794E+00  1.31499415E-03
  9.39707787E-03 -2.05353619E-01  1.67661558E-01 -1.84688155E-01 -2.33057885E-03
 -9.58990477E+00  3.58830277E+00  5.34482163E-02  4.35342629E-02 -1.54278473E-01
  1.80196432E-01  1.99245346E+00  8.36804717E-01  1.26613962E-02  5.95245144E-02
 -1.15219632E+00  2.62224222E-01 -1.07616043E-01 -3.07919196E-02 -8.34850493E+00
 -7.10983658E+00 -4.03001687E-01 -5.03810644E-01 -2.40713793E-01 -2.88170854E-01
 -4.51456998E-01  4.32504564E-01 -2.74376600E-03 -1.24387805E-02  2.33285972E-01
 -5.59169406E-02  4.14912813E-01  1.41828898E-03  1.46818334E-01 -1.11775219E+01
 -1.06189870E-02  1.21950232E-01  1.84867926E-02 -7.99185528E-01 -1.83157015E-01
  9.66347007E-01 -6.94439270E-03 -3.43782242E-02  6.77129024E-01 -1.59935787E-01
 -9.82564548E-02  3.27214175E-02  7.83602530E+00 -6.96898622E+00  4.33445619E-01
  3.38025783E-01  2.26122725E-01 -3.08602325E-01  7.09115341E-01  7.84505806E-01
 -4.16719266E-03 -2.06511130E-02  3.03771270E-01 -3.64127825E-01 -2.66444792E-01
 -9.49923185E-06  1.01885576E+01  4.13529899E+00 -8.75471598E-02 -3.36977548E-01
  1.43486113E-01  1.95610730E-01 -1.43757084E+00  5.93827715E-01  9.54895780E-03
  4.10541000E-02 -3.13755201E-01  7.74873562E-02  5.53184219E-01 -2.03268475E-04
 -2.35711271E-01 -5.00081256E+00  3.00352215E-03 -2.86379284E-01  1.79333686E-03
  1.42275039E-01 -2.27664252E-01 -3.55687462E-01 -2.23092805E-03 -9.31532199E-03
  6.15939636E-02 -4.18500824E-02 -2.08182472E-02  7.48408929E-04 -3.49008367E-02
  2.95147954E+00 -1.15376703E-02  7.31432604E-03  3.95941753E-03  5.37399729E-01
  2.86258403E-02  1.27456568E+00  3.28310777E-01  2.98532062E+00  1.05444154E-01
  6.45663230E-01  2.01802574E-02 -3.17062109E-01 -2.85904967E+00 -1.39319834E-01
  6.19747436E-01 -2.99310723E-02  3.06554771E-02  1.29297756E-01 -1.54181165E+00
 -3.72479204E-03 -2.45005830E-01 -1.49391701E-02 -4.78961931E-01  7.74324340E-01
  1.23169139E-01 -3.87896931E-01  4.29703231E-02  4.97024168E-02 -7.51147429E-01
  3.14078134E-01 -2.00271493E-02 -8.33374847E-02  1.00431498E+00 -2.58381813E-02
 -1.12317488E-01  1.48748266E-02  4.38881104E-01  4.35217310E-01 -1.22349894E-01
  3.47226471E-01 -4.38440267E-02  5.01982034E-02  6.21798848E-01  4.05336066E-02
  7.41864300E-02 -8.55716436E-01  1.07781486E+00 -9.07455561E-01  3.14523156E-02
  8.55490841E-02 -2.11393566E+00  1.36861388E+00  2.02929744E-01 -2.32082522E-02
 -1.06740747E-01  1.71576528E+00 -1.42424909E+00  3.38359718E-01  3.25571522E-02
 -2.77122909E-01  1.24673978E+00 -1.03759914E+00 -1.04511722E+00 -3.72222700E-02
 -6.89276749E-06 -2.72260599E-05 -6.94728534E-05 -4.31223339E-04  7.20824981E-01
  1.75941015E-04  1.63965700E-03  1.57658835E+01  6.38508151E-03 -6.59551485E-04
  9.94267600E-04  5.49127499E-02 -2.16684545E-03  3.11058406E-01  7.12051356E-03
  3.45103704E-02 -7.20680208E-01 -3.77291378E-01  7.85501563E-02 -5.59067864E-04
 -1.50770548E+01  4.21687214E+00  1.84720810E-02 -3.19488091E-01 -4.35619385E-02
  6.45061994E-02 -1.01384961E+00 -2.33133083E+00  9.72121247E-03  4.79229960E-02
 -8.20226557E-01 -4.44820912E-01 -4.90630419E-01 -1.53199712E-02 -1.25818735E+01
 -7.93435245E+00 -1.87555675E-01  8.01412592E-02 -8.21344690E-02 -1.19115514E-01
  2.66273619E+00 -2.38354229E+00  5.57669028E-06  2.17327372E-05 -3.45889558E-04
 -2.80404100E-04 -7.72608615E-01  3.09334181E-06 -8.19614464E-03 -1.44170789E+01
 -1.13306935E-03 -1.93108423E-04  8.48796953E-04 -3.75052712E-01  5.19897705E-03
  5.15584701E+00 -9.74557661E-03 -4.80372845E-02  8.22363154E-01  4.44451900E-01
 -4.90829877E-01  1.53357988E-02  1.25816827E+01 -7.93602193E+00  1.85934790E-01
 -7.96377481E-02  8.18543858E-02 -1.19597841E-01 -2.66223578E+00 -2.38350268E+00
 -7.09543364E-03 -3.44055318E-02  7.18839691E-01  3.77594752E-01  7.86319112E-02
  3.93422752E-04  1.50788544E+01  4.20994426E+00 -2.36031546E-02  3.19400937E-01
  4.16438914E-02  6.57067243E-02  1.00939911E+00 -2.33269273E+00 -2.22557313E-05
 -9.59669425E-05  7.45216816E-04  2.21996035E-04  5.48318584E-02 -1.40649443E-05
  7.38325522E-04 -1.19253901E+00 -1.05638126E-03  8.49331056E-04  4.92273858E-04
  8.44763226E-02 -1.35174945E-03 -3.28377593E-01  9.12207168E-06  4.12105930E-05
 -3.07469232E-04  2.32263995E-04 -1.34802514E-01 -6.90345937E-05 -1.27620900E-03
 -3.20826949E-03  3.56309353E-04  1.30612371E-04  6.59285564E-04  1.95119799E-01
  1.20872328E-03  1.77946084E+00 -1.82520796E-02  2.31482230E+00  1.33987404E-01
  2.59928331E-01 -7.92129336E-02  1.84066524E-02 -2.31397359E+00 -1.33671470E-01
  2.59610768E-01  7.96666575E-02  7.09258104E-04  2.53540966E-03 -4.38856594E-02
  3.01173405E-02 -1.91426915E-02 -7.49692935E-03 -1.86836831E-01  1.53781006E-01
  6.84921703E-02  1.92842748E-02  2.35797300E-02  2.65961722E-02 -1.43148980E-01
  7.32485152E-03 -7.04757412E-04 -2.52180781E-03  4.38845190E-02 -3.01161901E-02
 -1.91195748E-02  7.35757683E-03  1.84700729E-01  1.52542157E-01 -6.72999320E-02
 -1.96652408E-02 -2.34476719E-02  2.61357683E-02  1.42553691E-01  8.30743026E-03
  3.73725366E-01 -2.18263266E+00 -2.75660419E-02 -7.12845497E-01  1.52001052E-02
  7.05105957E-02 -1.53943256E+00  6.54258374E-02 -3.77969551E-01 -1.12617984E-02
 -7.09151077E-02  1.54221810E+00 -6.59476413E-02 -3.78284838E-01  1.15375833E-02
 -3.73213287E-01  2.17894482E+00  2.62663548E-02 -7.12644403E-01 -1.60468539E-02
 -2.81335046E-05 -1.42663159E-04  2.73061251E-03  2.04384057E-04 -1.11798878E-02
  2.02843506E-04 -1.94338389E-02 -8.36220238E-01  3.93154766E-04  8.90409543E-04
 -1.62757935E-04 -2.33754982E+00 -1.04535122E-02  3.60280660E-03  2.07693801E-04
  9.64342017E-04 -2.00163575E-02 -1.62610530E-03 -1.70637802E-03 -1.21498862E-01
  7.17136045E-01 -2.55474125E-01 -1.08603280E+00 -1.01691821E-02  4.39972200E-01
 -8.24729031E-01 -2.90024249E-02  9.57379345E-02 -1.75977338E-04 -9.42151772E-04
  2.29143067E-02 -3.38370327E-03  2.28072036E-04  2.69695531E-02  7.10787896E-01
  2.87437075E-01  2.19935620E-01  1.39795289E-02  3.23334853E-01  4.77005151E-01
  1.99283729E-02  8.13941552E-02  3.86622072E-06  9.70728146E-06  1.46769164E-04
 -9.25646808E-05  7.24620902E-05  5.01823183E-05  1.21242521E-02  8.44225972E-01
  2.52374435E-04  1.48812852E-04  6.34108458E-04  6.34362272E-01 -1.15369516E-02
 -2.05802742E-02  2.26628524E-04  1.14031332E-03 -2.62152131E-02  1.24208593E-03
  1.70016981E-03 -2.68488844E-02 -7.20030040E-01  2.88731711E-01 -2.19870435E-01
 -1.54772099E-02 -3.23336994E-01  4.76963319E-01 -2.96778020E-02  8.54551196E-02
 -2.00654328E-04 -9.44947440E-04  2.01161894E-02  2.83558051E-03 -1.04644789E-03
  1.21477924E-01 -6.92384325E-01 -2.72173223E-01  1.08628887E+00  9.76786926E-03
 -4.40594477E-01 -8.24290977E-01  1.96324075E-02  8.51312708E-02 -2.84404243E-05
 -1.20933769E-04  7.21564292E-04  8.24242131E-04 -6.51360189E-03  8.52291634E-05
  2.14884504E-03  8.74825280E-02 -2.96457745E-04 -3.86246616E-03 -2.31443099E-03
  3.67327451E+00 -3.80566376E-03 -2.82349846E-03 -5.47273362E-05 -2.41060843E-04
  1.84972895E-03 -1.38183781E-03  5.45276541E-04  9.25479304E-06  1.42394979E-03
 -3.33687619E-01 -4.30389318E-04  7.83333040E-04  1.05771008E-04 -1.58730668E-01
  7.97864308E-04 -1.37837230E-01 -4.85981751E-02 -3.15413538E-01 -2.60431554E-03
 -5.33230812E-02 -4.50205498E-02  4.94383085E-02  3.16401492E-01  1.92271291E-03
 -5.31291319E-02  4.46275917E-02 -3.82406032E-04 -1.57882960E-03  1.92646925E-02
  1.40992987E-03  1.78632118E-03 -2.31604303E-01 -6.42224056E-03 -5.50273550E-04
  2.63354075E+00  4.30414652E-03  8.81217783E-01  9.40644146E-01  2.37140098E-03
 -4.70880868E-03  4.01039065E-04  1.64840257E-03 -1.98356006E-02 -1.43113896E-03
  2.40111647E-03  2.31644841E-01  3.36260748E-03 -5.40662943E-03 -2.63390673E+00
 -5.92883553E-03 -8.82348070E-01  9.39727767E-01 -4.92296450E-03 -4.66278522E-03
 -2.15383004E-02  2.02098485E-02 -3.60007480E-02  4.15368642E-02 -2.20724252E-01
  1.54839542E-02  1.03650171E-02 -5.30894880E-02 -3.49540156E-02  1.22784799E-01
 -1.62011863E-02 -1.88821096E-02  5.53234965E-02 -3.56923809E-02 -1.22644370E-01
  1.88221601E-02 -1.18247386E-02  3.64469747E-02  3.85343784E-02  2.20335513E-01
  9.69614716E-03  4.38386443E-02 -6.39810320E-01  1.32648245E-01  6.19084753E-04
 -1.85178016E-04  6.32515788E+00  8.30386648E-03 -2.78044242E-02  1.24265480E-01
 -3.66805402E-02 -7.41872557E-03  4.32403754E+00  1.76179086E-03 -5.76821628E-03
 -2.23656846E-02  3.08801594E-01 -3.91520948E-01  2.58568161E-01  6.22607450E-03
 -3.18964879E+00 -2.57028200E+00  8.07133044E-02 -7.80195372E-02  4.25146153E-02
  2.13807353E-02  2.13612562E+00 -1.67889640E+00 -4.28289193E-03 -1.58317844E-02
  2.13978106E-01  4.50895180E-01  2.62285935E-01 -7.71699461E-03  2.27661523E+00
 -4.60041432E-01 -9.39206705E-02  1.35381243E-01  5.87058199E-02 -4.15074714E-02
  1.95551512E+00  8.52714482E-01 -4.29783530E-04  6.13689692E-04 -1.22699566E-01
  1.21789617E-02 -5.09955177E-04 -1.27349422E-02 -4.14521593E+00 -8.49013895E-03
  1.51479627E-02 -5.81028997E-02 -1.28474846E-01  1.75250490E-03  4.35312039E+00
 -3.31097175E-03 -4.25752850E-03 -1.57199335E-02  2.12226658E-01  4.51446950E-01
 -2.62376820E-01 -8.04912755E-03  2.29579188E+00  4.60232500E-01 -9.57477954E-02
  1.35047646E-01  5.68036832E-02  4.37932008E-02  1.95454161E+00 -8.58809876E-01
 -5.74774972E-03 -2.22710336E-02  3.07172584E-01 -3.90988626E-01 -2.57962816E-01
  6.76418719E-03 -3.17541901E+00  2.58010009E+00  8.84624081E-02 -7.83656206E-02
  4.06403047E-02 -2.73079936E-02  2.14216402E+00  1.67358912E+00  1.35635381E-02
  5.74859593E-02 -3.71686523E-01 -3.71374396E-01  1.46102652E-04 -7.72019131E-05
 -3.46372815E-01 -1.44073016E-03 -2.39717087E-02 -2.10663445E-02 -7.24640624E-03
  9.92770247E-03  8.65348994E-01  1.39994142E-03  1.89318080E-02  8.28310104E-02
 -6.29571511E-01  4.82233766E-01 -1.61984142E-04 -5.94761371E-03 -2.59095778E-01
  1.82822041E-05  9.64516869E-02 -2.57710584E-01 -3.75713625E-02 -3.01873537E-04
 -2.83972577E-01 -9.25900544E-04 -7.43838154E-02 -5.17180966E-01  1.80868892E-01
 -5.05308354E-02  4.65152848E-02 -7.40803717E-02 -5.13886535E-01  1.81224253E-01
  4.93843403E-02  4.69740766E-02 -3.72510852E-03 -1.40383829E-02  1.22175466E-01
  7.76737464E-03  7.40176025E-02 -9.38958620E-04  5.56416596E-01 -4.08670057E-01
  1.04510929E-02 -9.64645141E-03  5.56825679E-03  3.79897125E-03  2.58304304E-01
  1.57687344E-01 -3.74181476E-03 -1.41088661E-02  1.23097620E-01  7.72820148E-03
 -7.44023169E-02  2.59795219E-04  5.56322911E-01  4.10749471E-01 -3.28904167E-03
 -9.25712343E-03  1.32652766E-03  1.17687011E-03  2.59696581E-01 -1.56573012E-01
  3.88073522E-01 -3.68565320E-01  1.25096020E-01 -4.16428226E-01  9.39891612E-03
  2.27133051E-01  6.21066201E-01 -3.12603545E-01 -3.23158276E-01 -2.17243741E-02
  2.28769643E-01  6.14262090E-01 -3.10645541E-01  3.24711870E-01 -2.24625765E-02
  3.88758497E-01 -3.72719134E-01  1.25779728E-01  4.17809155E-01  1.07973667E-02
 -1.05899506E-05 -4.88943687E-05  4.82214689E-04 -3.61318817E-04  3.71550735E-01
  3.11434702E-04 -3.14140004E-03 -3.78788493E+00  1.46063681E-04 -7.66514141E-05
 -5.11038966E-04 -5.84789995E-02 -3.41701745E-03  2.02272390E-01 -9.76282692E-03
 -4.51322247E-02  9.44449518E-01  1.69422817E-01 -3.06626034E-02 -5.29739397E-03
  3.04209681E+00 -6.92541384E+00 -5.64440811E-02  1.86081406E-01  3.82864738E-03
 -4.12082879E-02  8.25485550E-01 -3.13218552E+00  2.18716860E-03  5.92474303E-03
 -1.53153609E-01  2.48419978E-01  3.00171037E-01  1.23725758E-02  1.38611837E+00
  8.97090393E+00  1.33248781E-01 -1.25875363E-01  1.09418677E-02  5.68389197E-02
 -1.73793022E+00 -3.03843828E+00 -4.24104613E-06 -2.94012656E-05  8.24928449E-04
 -6.83238161E-04 -4.30567564E-01  3.19626620E-05  4.47677272E-04  1.63447817E+00
 -3.44059755E-04  2.02749310E-04  4.00430778E-04  2.04371057E-01 -2.09913017E-03
 -2.96338595E+00 -2.18113689E-03 -5.92179794E-03  1.53719211E-01 -2.48797739E-01
  3.00264746E-01 -1.21688592E-02 -1.38601617E+00  8.96786842E+00 -1.28760974E-01
  1.26167232E-01 -1.21925973E-02  5.71658121E-02  1.73795963E+00 -3.03795916E+00
  9.78712363E-03  4.52238925E-02 -9.45687941E-01 -1.69228484E-01 -3.02257227E-02
  5.57535366E-03 -3.04236082E+00 -6.92230104E+00  5.34553544E-02 -1.86668124E-01
 -5.37562342E-03 -3.96918575E-02 -8.31737472E-01 -3.13145438E+00 -2.67586145E-05
 -1.12098528E-04  7.99968971E-04  1.68602018E-04  1.13752497E-01 -6.04783642E-05
  2.19643702E-03  9.17883325E-01  6.50824583E-04  2.96934738E-04 -1.46234860E-03
  4.88310121E-02 -4.39805192E-03  1.55080273E+00 -6.02417110E-06 -2.38940112E-05
  1.67844618E-04 -6.89079817E-05  8.66254212E-02 -2.79814886E-05 -9.27166010E-04
 -2.98823752E-01 -8.63229299E-04 -2.71744414E-05 -4.41399157E-04 -1.37144109E-01
  3.62169051E-05 -1.50976213E+00 -5.62958565E-02 -2.22159522E+00 -1.39281398E-01
 -4.89407995E-01  1.07063766E-01  5.66951971E-02  2.22273548E+00  1.38537844E-01
 -4.89049595E-01 -1.07956882E-01  1.25616852E-02  5.20242263E-02 -5.83858844E-01
 -1.17954786E-01 -1.53340125E-01 -2.07205675E-03  7.12192364E-01  1.44729423E-01
  3.12336724E-02 -2.45829700E-01  9.98476613E-03  1.11654012E-02  2.07605915E-01
  3.20083745E-01 -1.25510514E-02 -5.19836183E-02  5.83559808E-01  1.18235292E-01
 -1.52970432E-01  2.37768597E-03 -7.16070846E-01  1.41784383E-01 -3.25996725E-02
  2.45847059E-01 -1.04680643E-02  1.20935835E-02 -2.09473185E-01  3.21145518E-01
  5.57364653E-01 -2.39074449E-01 -9.16428949E-01  1.08827033E-01 -1.40469770E-02
 -7.19175645E-01  2.04375387E+00 -8.60701211E-01  4.42859828E-01 -4.88926989E-03
  7.19025884E-01 -2.04166901E+00  8.59894018E-01  4.42515999E-01  4.54249616E-03
 -5.57041523E-01  2.34823226E-01  9.14713246E-01  1.08591344E-01  1.42954937E-02
 -1.03010744E-02 -4.43742807E-02  1.74403603E-01 -4.51456696E-01 -5.46485025E-04
 -1.74053716E-04  5.11613747E+00 -9.19854613E-03 -5.95491636E-03 -6.69298406E-01
 -3.63677923E-03 -1.35301698E-03  2.75400413E+00  1.18188425E-04  2.03567215E-03
  3.31760297E-03  3.75256672E-02 -4.11559615E-02  1.52427102E-02  4.57576180E-04
 -2.79998013E+00 -1.02966011E+00  4.02362401E-03  3.66081692E-02  2.51637579E-03
  4.35847959E-03  1.23930980E+00 -1.15997511E+00  2.89047966E-04  1.69511152E-03
  1.98084947E-02  1.29076704E-01  9.00615554E-02 -7.99503937E-04  1.53751680E-01
  4.22262418E-01 -4.65270589E-03  1.59750616E-01  3.67348044E-03 -7.98372700E-03
  1.36903877E-02  8.79407056E-02  7.30038478E-04  3.11896539E-03 -6.58651531E-02
 -2.23561848E-02  4.51599054E-04 -3.38071251E-04  3.20799058E-01  8.99828686E-03
  1.38101469E-03 -1.24467980E-01 -1.93173238E-02  8.31819239E-05  3.99716511E-01
 -6.40857865E-07  2.85629455E-04  1.68036004E-03  2.00388038E-02  1.28678787E-01
 -9.02334267E-02 -8.69994887E-04  1.38858709E-01 -4.24032342E-01 -5.38343280E-03
  1.59364054E-01  3.98528773E-03  8.12719752E-03  1.32905774E-02 -8.26094223E-02
  2.03967972E-03  3.31912472E-03  3.78024996E-02 -4.14096114E-02 -1.48873708E-02
  5.11070900E-04 -2.81446670E+00  1.03156374E+00  7.01561637E-03  3.71427470E-02
  2.63459283E-03 -5.97572984E-03  1.23874893E+00  1.16509969E+00 -5.65693403E-03
 -2.19761113E-02  2.05908752E-01 -3.19768958E-01 -4.03115745E-04  1.88137823E-04
  4.63073815E+00  4.05674043E-03 -2.34728211E-03  5.18157470E-01 -1.95726853E-03
 -1.86558182E-03 -4.27815962E+00 -4.50258153E-03  3.05090733E-03  1.25213940E-02
 -9.04747971E-02  5.47256418E-02  2.23405196E-06 -3.06338677E-04  2.01348327E-01
 -1.25536776E-03  3.45828851E-02 -5.16740583E-02  3.80940778E-03 -6.96729783E-05
  1.52924648E-02  2.74958457E-04  6.43686707E-03 -2.79565578E-01  3.86327183E-02
 -1.02625020E-01  1.59677992E-02  6.56059090E-03 -2.79444546E-01  3.85670084E-02
  1.02708498E-01  1.60933000E-02  4.71409982E-03  2.25098923E-02 -2.12797938E-01
  1.82867899E-01 -1.62193069E-01  1.09714138E-05 -3.14038517E+00  1.57948946E+00
 -8.66492790E-04 -3.20350001E-02  5.82252663E-04 -4.62280336E-04 -1.01873789E+00
 -1.08970362E+00  4.72311815E-03  2.25463416E-02 -2.13309158E-01  1.82560401E-01
  1.62542636E-01 -2.31147955E-04 -3.13862897E+00 -1.58407135E+00  1.11466629E-03
 -3.23183885E-02 -4.26559731E-04 -4.60139501E-04 -1.02101219E+00  1.08686947E+00
  2.07073581E-01 -1.62335392E-02  4.47303880E-01 -3.90800501E-01  1.48380354E-03
  7.75580174E-02  1.30987360E-01  6.32255786E-02  1.82833841E-02 -7.00924332E-03
  7.66256570E-02  1.33184365E-01  6.26224291E-02 -1.91821461E-02 -7.20471675E-03
  2.08024315E-01 -1.77893161E-02  4.45044166E-01  3.90826854E-01  1.31149105E-03
 -2.09241370E-05 -8.45469563E-05  1.28408914E-03 -2.44825093E-04 -1.16400282E-01
  1.77062829E-04 -4.85735393E-03 -2.44913840E+00 -1.31590290E-04  5.84495353E-05
 -4.27359637E-04  6.36874005E-03 -3.93904398E-03  5.27422702E+00 -5.29916978E-03
 -2.82449470E-02  5.16565043E-01 -3.82314239E-01  4.95860596E-01  9.62050799E-04
  4.44670991E-01  5.72897275E+00  1.36442350E-02 -8.13581587E-02  3.89457479E-03
  6.75862823E-03 -2.24340995E+00  1.14801215E+00 -1.16012023E-03 -8.30600366E-03
  2.90127766E-01 -2.96860674E-01 -1.81762135E-01 -4.25357292E-03 -1.89837717E+00
 -3.76039551E+00 -4.32198398E-02  3.89190214E-02  1.83322857E-03 -1.36418431E-02
  1.08349103E+00  1.27210727E+00  8.57827554E-06  4.35774781E-05 -8.66229584E-04
  1.71441051E-04  1.27911680E-01  4.22122110E-06 -5.32447006E-03 -1.46761128E+00
  5.05762668E-04  2.09767615E-04 -5.20703636E-04 -6.35308796E-02  2.50253856E-03
  1.38782041E+00  1.14769020E-03  8.24881028E-03 -2.88908052E-01  2.96580739E-01
 -1.81584289E-01  3.98805449E-03  1.90155702E+00 -3.74907390E+00  4.00101242E-02
 -3.94232927E-02 -6.33060305E-04 -1.31175252E-02 -1.08148668E+00  1.26758255E+00
  5.31461449E-03  2.83215341E-02 -5.18031656E-01  3.82828851E-01  4.95945034E-01
 -6.87875561E-04 -4.34781369E-01  5.71767908E+00 -9.95735186E-03  8.12799470E-02
 -2.87932061E-03  3.69084752E-03  2.23920355E+00  1.13938940E+00  1.19922035E-05
  4.36245469E-05 -2.71738507E-04 -2.68317125E-04  1.95884871E-01 -1.13902688E-04
 -7.92706025E-04  4.30435851E+00 -4.10960301E-04 -1.30931195E-04 -1.74979633E-03
 -6.61682608E-03 -4.27127184E-03  4.15553160E+00  1.75193835E-06  9.85361922E-06
 -1.02184563E-04  1.16166697E-04 -4.83591897E-02  1.74494793E-05 -8.11023846E-04
  4.74030459E-02  3.11189038E-04  1.06882687E-04  6.26589415E-05  3.88461364E-02
  2.65424968E-04  6.07122760E-01  2.51508908E-02  7.84941175E-01  6.91134117E-02
  1.75411746E-01 -4.60537662E-02 -2.51813966E-02 -7.83662300E-01 -6.89681726E-02
  1.74944057E-01  4.63492121E-02  1.59100233E-02  6.80833877E-02 -7.76598267E-01
 -1.57537514E-01 -2.67442144E-01  2.38173409E-04  1.75008504E+00  8.55389076E-02
 -4.09554831E-03 -3.15076189E-01 -1.40818428E-03 -1.50415813E-03  5.61538475E-01
  6.60129916E-01 -1.59093805E-02 -6.80908024E-02  7.76887580E-01  1.57717239E-01
 -2.67219026E-01  6.18687602E-05 -1.75042635E+00  8.30313103E-02  3.57175426E-03
  3.15254846E-01  3.92290708E-04 -1.23200996E-03 -5.62994986E-01  6.58825663E-01
 -3.29131230E-01  1.29866124E+00 -1.77313353E-01  5.18337352E-01  2.40682657E-03
  2.17116337E-01  8.23760228E-02  2.36306380E-01  4.91313568E-02  3.85517500E-03
 -2.16703782E-01 -8.40015137E-02 -2.35701366E-01  4.91766625E-02 -3.89975718E-03
  3.28058433E-01 -1.29844345E+00  1.76036802E-01  5.17358911E-01 -8.77822819E-04
 -1.82258853E-02 -8.14825841E-02  1.43229421E+00  6.15443123E-02 -4.57726365E-04
  1.48909429E-03 -1.04135777E+01 -1.34564768E-02 -1.63313283E-02 -2.62916349E-01
 -2.90558584E-02  2.30877251E-03 -5.41145744E+00 -1.58436432E-03  1.22121237E-02
  5.85308763E-02 -1.13857323E+00 -1.10771709E-02  6.21752825E-02  6.09362370E-03
  6.30744692E+00  1.07229739E+01  6.62622310E-02  3.97520544E-01  2.57278976E-02
  1.13744852E-02 -2.42960836E+00  5.42518807E+00 -1.43119534E-02 -6.48653463E-02
  1.17382429E+00  5.25493832E-02 -3.98236266E-02 -6.95917897E-03  6.64080837E+00
 -1.09854179E+01 -6.87434567E-02 -3.91151687E-01  4.70806253E-02 -2.26398806E-02
  2.77044020E+00  5.51882943E+00  1.54139515E-02  7.22846217E-02 -1.38517895E+00
  1.93220989E-01  4.46203683E-04 -2.63905764E-02 -1.08617454E+01  1.80938298E-02
 -3.34848191E-02  2.34927263E-01 -1.11316283E-01  4.31207101E-04  6.39816296E+00
 -5.72697129E-03 -1.43105484E-02 -6.48694326E-02  1.17436553E+00  5.18078888E-02
  3.99803417E-02 -6.82895112E-03  6.61476743E+00  1.09964066E+01 -6.61855204E-02
 -3.90469862E-01  4.49478469E-02  2.37029361E-02  2.76986631E+00 -5.51874141E+00
  1.22020602E-02  5.84752645E-02 -1.13710369E+00 -1.16233511E-02 -6.27560803E-02
  6.27541049E-03  6.27621406E+00 -1.07417492E+01  5.91750277E-02  3.97331672E-01
  2.39148940E-02 -8.38980694E-03 -2.43738308E+00 -5.42078356E+00 -9.47910950E-03
 -4.15568179E-02  2.92019934E-01  3.23853269E-01  9.99763719E-05 -3.37984493E-04
 -1.51010428E-01 -5.22421493E-04 -1.42960930E-02 -4.48268187E-02 -6.74189757E-03
 -5.21391702E-04 -2.72145599E-02 -1.37399667E-03  1.34944265E-02  6.17873068E-02
 -5.32407642E-01  5.09544615E-01 -6.05148431E-05 -1.82403285E-02 -6.68353046E-01
 -7.77956040E-04  5.81398706E-02 -9.01759005E-02 -9.21260228E-02 -1.85509341E-05
 -4.58112103E-01 -4.85903965E-04 -2.03427628E-02 -1.60229036E-01  2.93575069E-01
  2.19041563E-01  3.33806357E-02 -2.00776977E-02 -1.58139037E-01  2.93888904E-01
 -2.19650568E-01  3.34577421E-02  1.62677441E-03  5.18316257E-03 -3.47236960E-02
 -3.75514943E-02 -4.60222331E-03 -5.97230908E-05 -2.18808140E-02 -1.57691156E-02
  7.82507317E-04  3.19720659E-02  2.39589368E-03 -1.31037734E-04 -8.23521558E-02
 -4.18968037E-02  1.64662438E-03  5.26090976E-03 -3.55961602E-02 -3.77108917E-02
  4.87899700E-03 -1.20462699E-04 -2.08559888E-02  1.51171617E-02  1.38699021E-03
  3.16440594E-02  2.46360912E-03 -5.36150200E-05 -8.25342151E-02  4.13894034E-02
 -7.67818346E-01  2.26246145E+00  5.23797987E-01  5.01406337E-01  2.46749020E-03
  7.61654971E-01 -2.10783360E+00  5.06470632E-01 -5.25767846E-01 -2.70033513E-03
  7.61746127E-01 -2.10611406E+00  5.07927268E-01  5.24521526E-01 -2.62424230E-03
 -7.67785367E-01  2.26339278E+00  5.24319047E-01 -5.01418392E-01  1.85384571E-03
 -1.25412245E+00  1.31574656E+00 -5.47413789E-01  4.70783280E-02  9.85682104E-07
 -4.29284773E-05 -3.26143346E-01  5.02752910E-03 -6.18629409E-03 -3.42490636E-02
  8.93817116E-04 -4.62661404E-05 -3.61707127E-02 -5.23032100E-05 -1.43049987E+00
  1.49991970E+00 -5.51913563E-01  3.12180555E-02  1.60200703E-02 -1.08109730E-03
 -3.42490973E-02  3.85697523E-01  2.47344117E-03  1.32716679E-01 -2.00896724E-03
  1.86232933E-03 -3.58162961E-02 -7.17176127E-02 -1.52024212E+00  1.59396922E+00
 -5.87720878E-01 -4.47485942E-02  2.24249150E-02  1.35969028E-03 -2.06310630E-01
 -1.57993874E-01 -2.94970153E-02  7.61846942E-02 -1.26312995E-02 -1.43581627E-02
 -6.41618637E-03 -5.99534314E-02 -1.27264671E+00  1.33581880E+00 -5.62300385E-01
 -8.56897647E-02  3.87831191E-05  3.24941214E-03 -1.11988329E+00 -4.54649758E-03
  8.30972879E-02  1.06290884E-01  4.56613816E-04  4.62149352E-05 -2.92664596E-01
  1.33814398E-04 -1.52022520E+00  1.59395313E+00 -5.87791262E-01 -4.47718801E-02
 -2.24009099E-02  1.36616195E-03 -1.97907565E-01  1.53747025E-01 -2.92957029E-02
  7.61842270E-02 -1.27591940E-02  1.43533662E-02 -6.04975742E-03  5.98282072E-02
 -1.43047926E+00  1.49990061E+00 -5.51986288E-01  3.11596818E-02 -1.60180180E-02
 -1.11790013E-03 -2.63104995E-02 -3.81142308E-01  1.96020960E-03  1.32669307E-01
 -1.99682834E-03 -2.21547620E-03 -3.57521899E-02  7.14824214E-02 -3.15930972E-02
  2.90567042E-02  1.32227297E-02  3.81264817E-03  4.23676517E-05 -2.58718562E-05
  4.45079577E-02 -6.31533742E-04  2.21850445E-03  1.10526539E-02  8.25420257E-05
  1.11652111E-04  3.98735256E-02 -1.17619220E-04 -2.19158592E-02  2.00810455E-02
  1.79683630E-04 -2.19927375E-02  6.52517152E-06  8.70834900E-03 -9.78749196E-01
  1.00901803E-03 -1.41330133E-01  1.35581726E-01 -4.22260955E-02 -2.31633182E-04
  2.14087974E-01 -6.61128332E-05 -1.71191701E-02  1.00486983E+00 -1.32215803E-01
  1.46296394E-01 -2.17669046E-02 -1.71763226E-02  1.00424783E+00 -1.32363881E-01
 -1.45939566E-01 -2.18483376E-02 -3.22592825E-02  2.65903500E-02  3.86760284E-02
  2.01162718E-03  9.40699746E-03 -6.36025524E-06 -1.28265803E-02 -4.38213947E-02
 -2.86590951E-04  1.58399992E-02 -7.93711360E-05 -2.85261687E-04 -9.22708191E-03
 -1.88608336E-02 -3.22803135E-02  2.66067817E-02  3.87434444E-02  2.02543845E-03
 -9.40297932E-03  5.19164857E-06 -1.27815453E-02  4.38004098E-02 -4.00026627E-04
  1.58006760E-02 -1.44223395E-04  3.08760320E-04 -9.20866589E-03  1.89631683E-02
 -2.30537439E-02  6.00762853E-01  6.83596708E-02  1.13028034E-02 -2.47942201E-03
 -2.44837418E-02  2.85463444E-01 -3.77874501E-03  4.30471375E-02 -3.41659168E-03
 -2.44596377E-02  2.85387249E-01 -4.57135357E-03 -4.25896989E-02 -3.40906681E-03
 -2.30697057E-02  6.00492411E-01  6.75803418E-02 -1.16651452E-02 -2.41772555E-03
  1.11617330E-04 -1.20943355E-04  1.03167964E-04 -2.28668265E-06 -8.99877492E-02
 -3.14179798E-05 -5.83882788E-05 -8.23811101E-01 -8.00758444E-05 -4.11736191E-06
 -1.34143976E-04 -1.60714538E-04 -2.58503688E-04 -4.72652358E-01 -1.77182748E+00
  1.90641088E+00 -1.27371340E+00  1.96360290E-02 -7.96957305E-02  2.99023196E-04
 -1.66700999E-01 -7.53946311E-01  7.38262509E-04 -1.07309478E-01 -8.18855749E-05
  8.41820647E-04  1.93252023E-01  1.42214754E-01 -1.83112379E+00  1.97013441E+00
 -1.30520452E+00 -1.53117931E-02 -8.00346213E-02 -4.84498053E-04 -4.59356241E-01
 -1.10978947E+00 -2.93919959E-03 -1.03891286E-01 -1.46820922E-04 -1.43297981E-03
  1.80143220E-01 -1.60086399E-01 -1.69915422E-04  1.82885505E-04 -1.36087156E-04
 -1.79885603E-05 -8.81667311E-02 -6.74664942E-07 -3.66467519E-04 -1.61357848E+00
 -1.28779617E-04 -6.49083468E-05 -1.35525216E-05 -9.69734774E-03  2.31501892E-04
  4.79555769E-01  1.83108224E+00 -1.97009022E+00  1.30513120E+00  1.52798778E-02
 -8.00254589E-02  4.66952425E-04  4.59368955E-01 -1.11021964E+00  2.90645027E-03
  1.03934924E-01  1.46357916E-04 -1.44942639E-03 -1.80333616E-01 -1.59868655E-01
  1.77197248E+00 -1.90656768E+00  1.27376006E+00 -1.95988109E-02 -7.96662378E-02
 -3.70685409E-04  1.66320918E-01 -7.54052259E-01 -1.54468061E-03  1.07311083E-01
  1.68457282E-04  8.02608050E-04 -1.93032134E-01  1.42279584E-01 -1.56101587E-05
  1.39887310E-05  2.50878245E-05  2.88045242E-05 -1.78231349E-02  6.25667103E-06
  3.18701921E-05 -3.17940316E-02 -7.51402471E-05  2.82074467E-05  2.49912222E-05
  2.61836096E-04  7.52274962E-05 -3.61024687E-02  1.34376988E-05 -1.28813358E-05
 -7.69840694E-06 -7.56094732E-06 -2.36368655E-02 -4.99163104E-06  1.23543255E-04
  2.04212342E-01  1.35855386E-04  1.06456623E-05  5.57923619E-05  1.90058523E-02
 -1.06298244E-05  2.85366899E-02  3.11185467E-03  1.93605562E-01  2.67433203E-02
  5.09113454E-02 -1.55992396E-03 -3.13452756E-03 -1.93726023E-01 -2.66883565E-02
  5.09177523E-02  1.58522159E-03 -6.59738818E-03  5.45796541E-03  1.46045555E-02
  6.32206155E-03 -2.96740592E-03  1.90655900E-05 -5.21743806E-02  1.63441640E-02
  7.33947750E-05  1.76337277E-02 -7.01747815E-06  8.67793731E-05 -1.97040065E-02
  4.00097953E-03  6.60404237E-03 -5.46426327E-03 -1.45959296E-02 -6.31603044E-03
 -2.96452573E-03 -2.67610457E-05  5.21017670E-02  1.62634209E-02 -4.52737339E-06
 -1.76416044E-02  4.50209775E-05  9.77549393E-05  1.97179393E-02  4.02252941E-03
  5.67375599E-02 -7.98581550E-01 -9.27160762E-02 -1.96539909E-01  1.16245017E-03
  6.14259344E-02 -8.33992342E-01  1.40049870E-01 -1.80421278E-01  5.24725435E-04
 -6.14637978E-02  8.33979802E-01 -1.40063290E-01 -1.80381427E-01 -6.29486519E-04
 -5.68006553E-02  7.98804160E-01  9.25826226E-02 -1.96665123E-01 -1.45298756E-03
  1.92570835E+00 -2.07787354E+00  1.50106769E+00  8.23739084E-03 -2.50536657E-05
 -2.10894408E-04  3.79673884E-01 -2.11646113E-03  5.21653689E-03  1.03947445E-01
  1.38968677E-03 -1.95668182E-05  1.22954430E-01 -4.26509887E-05  1.18017770E+00
 -1.27306190E+00  8.78592321E-01  7.98944960E-02 -5.47110471E-03 -6.01604153E-04
  8.99877390E-01  8.64871798E-02 -1.41679888E-02  5.91469174E-02 -4.61242996E-03
  7.54194439E-04  3.62147703E-01  9.03768580E-02 -1.01679034E+00  1.09719616E+00
 -7.74084869E-01  8.31473048E-02  1.16990787E-02  1.75858275E-04  8.80849583E-01
  7.46941271E-02  4.67283893E-03 -5.08280042E-02 -9.44943765E-03 -1.11498832E-02
 -3.85169446E-01  1.21456797E-01 -2.12380988E+00  2.29154500E+00 -1.60084517E+00
  1.97469899E-02  1.34884324E-05  5.63425349E-04  7.52722705E-01  1.90476751E-03
  1.39990246E-02 -1.28330697E-01 -1.26594636E-02  6.99283020E-05 -9.71321504E-02
 -5.11279430E-05 -1.01768082E+00  1.09815578E+00 -7.74641243E-01  8.31760167E-02
 -1.16930775E-02  1.46515988E-04  8.77185918E-01 -7.29491813E-02  4.54856694E-03
 -5.07529699E-02 -9.42090915E-03  1.12998034E-02 -3.85442055E-01 -1.21115148E-01
  1.18065397E+00 -1.27357485E+00  8.78797814E-01  7.99385555E-02  5.42437935E-03
 -6.55340265E-04  8.96188001E-01 -8.85686694E-02 -1.46191463E-02  5.90612328E-02
 -4.76443695E-03 -8.96031892E-04  3.62380624E-01 -9.05046641E-02  6.17943852E-02
 -5.94748179E-02 -1.34445713E-02 -2.18864465E-02 -2.82678994E-05  1.86624009E-04
  8.10213347E-02  1.29936480E-04 -1.21068836E-03 -4.63571074E-02 -1.44390911E-04
  1.92852777E-05 -1.65404777E-01 -6.48603013E-05 -5.84346161E-02  5.58847335E-02
  5.07794733E-03 -4.18269530E-02  1.62772355E-05  5.55982913E-03  2.73107057E-01
 -1.87363149E-04  1.60154950E-06  6.15718105E-02 -6.75994696E-03 -1.01331606E-04
  1.47698227E-01 -7.74842848E-05  2.78048988E-02 -1.42876085E-01  2.03784658E-02
 -1.56162289E-01  2.32538977E-02  2.78073811E-02 -1.42846077E-01  2.05229102E-02
  1.56113701E-01  2.34087861E-02  1.94484523E-02 -1.59220112E-02 -4.62206019E-02
 -1.21288543E-02 -1.65310623E-02 -6.84657094E-06  2.43127200E-04  8.24928975E-02
  2.07590505E-04 -3.58363283E-02 -6.96726054E-05  1.24421253E-04  8.35318679E-03
 -3.97348156E-03  1.94611314E-02 -1.59338781E-02 -4.62082138E-02 -1.21487621E-02
  1.65170234E-02 -3.85441105E-05  1.61801305E-04 -8.26394709E-02  1.98634738E-04
 -3.58731655E-02 -7.97095990E-05 -1.13265941E-04  8.30969997E-03  3.97326103E-03
 -3.22543044E-02  5.94207758E-01  1.19972429E-01  6.66685924E-02  1.40939197E-04
  2.77396352E-02 -4.81591131E-01  8.77743318E-02 -6.20645643E-02 -1.13550824E-02
  2.77068681E-02 -4.81567974E-01  8.81242894E-02  6.18488413E-02 -1.13529168E-02
 -3.22371348E-02  5.94292407E-01  1.20271086E-01 -6.65670219E-02 -1.42800902E-04
 -8.03958682E-05  8.74874255E-05 -1.00445436E-04 -1.78995327E-06 -5.37700652E-02
 -2.56120731E-05  3.18208782E-04  4.51075988E-01  1.24078302E-04  2.27826934E-05
  2.55058897E-05 -1.17155884E-03  2.03013934E-05 -3.44807500E-01 -1.86553424E+00
  2.02876431E+00 -1.43047848E+00 -7.74992848E-02 -6.34338219E-02  3.69032503E-04
 -1.06819274E+00  8.20408320E-01  3.99687090E-03 -4.25464375E-02  2.61608962E-03
 -2.40112443E-04 -2.82892912E-01  1.17529832E-01  1.80464165E+00 -1.96239987E+00
  1.36955137E+00 -7.80460601E-02  5.83340153E-02 -4.78167564E-04 -1.07683700E+00
 -8.90663076E-01 -3.92219406E-03  3.19232320E-02  4.23143936E-03  2.27152001E-03
  2.95548129E-01  1.12619453E-01  1.28126454E-03 -1.39304942E-03  9.59613993E-04
  1.64416416E-05  5.23126797E-02 -2.59607296E-07 -3.40057953E-04 -5.11939721E-01
  1.68348855E-05 -5.06234198E-05 -1.11365590E-04  1.15046525E-03 -1.67724017E-04
 -3.06760733E-01 -1.80536261E+00  1.96318215E+00 -1.37000492E+00  7.80267690E-02
  5.83912716E-02  4.51392372E-04  1.07621243E+00 -8.91199639E-01  3.44898063E-03
 -3.18228350E-02 -4.08315902E-03  2.31358782E-03 -2.95268473E-01  1.13048047E-01
  1.86523624E+00 -2.02843780E+00  1.43007650E+00  7.74222339E-02 -6.34582538E-02
 -4.35709083E-04  1.06800212E+00  8.20491254E-01 -4.08029107E-03  4.24229585E-02
 -2.69834506E-03 -4.44993943E-04  2.83146364E-01  1.17522572E-01  1.51010345E-05
 -1.49975263E-05  3.36100505E-06  3.11405728E-05 -1.13415704E-02  1.36761306E-05
 -7.33171245E-05 -2.10751147E-01 -3.66835258E-05  1.12142925E-05  8.96574976E-05
  4.25840062E-04  1.23234698E-04 -6.26848310E-02  3.48195162E-05 -3.41668864E-05
  1.20840663E-05  2.40919133E-05  1.06799090E-02  5.60305582E-06  1.64063434E-04
  2.78986426E-01  1.59707377E-04  3.35825504E-05  3.16684730E-05  8.00690109E-03
 -1.04721084E-04  3.52541355E-02  1.41542206E-02  1.70916375E-01 -2.86565380E-03
  1.19026733E-01 -1.06999995E-02 -1.41623025E-02 -1.71064211E-01  2.96685690E-03
  1.18960356E-01  1.07551297E-02 -8.11878451E-03  7.23630646E-03  4.01206181E-03
  3.65687453E-03  8.26916437E-03 -1.04074059E-05 -3.95814487E-02 -4.99608010E-02
  3.02854759E-04  2.47376800E-02  6.43566830E-05  5.74019833E-05 -1.83647349E-02
 -1.13734281E-02  8.10347029E-03 -7.22343622E-03 -3.97890973E-03 -3.64717240E-03
  8.27946594E-03  9.02066121E-06  3.95880750E-02 -4.99795874E-02 -1.94209637E-04
 -2.47074747E-02 -5.35720623E-05 -1.21474368E-05  1.83742226E-02 -1.14715211E-02
 -1.43705513E-02 -6.56678404E-02  9.09700072E-03 -4.78496718E-03  1.78537053E-04
  1.61719023E-02  8.97562554E-03  3.58881243E-02 -3.85143288E-03  4.13205579E-03
 -1.61911857E-02 -8.69315051E-03 -3.60581513E-02 -3.77716361E-03 -4.13267628E-03
  1.43832958E-02  6.54918506E-02 -9.03912104E-03 -4.71754757E-03 -1.70612108E-04
 -2.28689550E+00  2.49107870E+00 -1.82855501E+00 -3.21053941E-02  1.26705281E-05
 -2.44647253E-04 -3.68446678E-01  9.68189790E-04  1.86896943E-03 -2.77487275E-02
 -8.49743396E-05  5.04741985E-05  1.10682048E-01 -3.49924095E-04  8.36548874E-01
 -9.10672923E-01  6.40630101E-01 -2.12133749E-02  6.78852358E-02 -2.43124401E-04
 -2.46144226E-01  2.79257583E-01 -6.80827459E-03  3.92529396E-02 -2.11321017E-03
  7.87328758E-04 -3.19678840E-01 -1.89938154E-01  1.06076330E+00 -1.15480107E+00
  8.24110619E-01  2.91492635E-03  6.85108751E-02 -2.69431584E-04  1.63856725E-01
  3.72597326E-02 -3.57941706E-03  2.13960356E-02 -5.66597973E-03 -1.13716225E-02
 -2.09733819E-01  2.07438292E-01 -2.16043315E+00  2.35304446E+00 -1.68725347E+00
  2.31769847E-02 -1.28320398E-06  1.46676395E-03 -1.59792954E-01 -3.21452337E-04
  1.24604731E-02  3.31209453E-02 -1.99449647E-02 -1.94107852E-05  1.46337974E-01
 -1.14830061E-04  1.05974652E+00 -1.15369378E+00  8.23227077E-01  2.92932438E-03
 -6.85094618E-02 -2.79858983E-04  1.64867762E-01 -3.82064364E-02 -3.76490542E-03
  2.13028890E-02 -5.54408153E-03  1.13276982E-02 -2.10088730E-01 -2.07157148E-01
  8.37493434E-01 -9.11702201E-01  6.41360163E-01 -2.12005407E-02 -6.79223617E-02
 -2.83410646E-04 -2.44759989E-01 -2.78113623E-01 -6.89537929E-03  3.92176785E-02
 -1.67204704E-03 -5.15939499E-04 -3.19447542E-01  1.90243750E-01 -1.72755456E-02
  1.79428358E-02 -3.34789253E-02 -2.88379965E-03  1.39516832E-05  9.84079905E-05
  2.24890337E-02 -4.58674052E-04 -1.04918389E-03 -8.59119556E-02 -3.12355211E-04
  1.38549171E-04  2.10346681E-01 -4.43535864E-05  1.43111000E-04  8.54376471E-04
 -5.18302150E-02 -1.07340544E-02  8.46476839E-07  5.26523692E-03 -3.52480019E-01
  1.60571583E-04 -4.20339957E-02 -3.88193273E-02 -3.64099496E-02 -1.18253923E-04
  1.61106990E-01 -8.26488480E-05 -4.72332392E-03  2.62076987E-01 -2.62506384E-02
  1.11061726E-02  1.40399641E-02 -4.71489235E-03  2.62097639E-01 -2.62789176E-02
 -1.10149717E-02  1.40993411E-02 -1.52531081E-02  1.31139365E-02  2.42939775E-02
  3.47821683E-03  6.35474576E-03  8.18393710E-06  3.51653615E-02 -6.96410585E-02
  1.17549934E-04  4.48248944E-02 -1.47807055E-05  1.30443462E-04  7.34687327E-03
  1.17285063E-02 -1.52656515E-02  1.31255852E-02  2.42992030E-02  3.49270156E-03
 -6.35079309E-03  2.55061448E-05  3.52930760E-02  6.98166561E-02 -1.02972216E-04
  4.48215450E-02 -4.38460118E-05 -5.47232934E-05  7.42969382E-03 -1.16873981E-02
 -2.14967353E-03  7.23707289E-02 -1.76595304E-01  9.95726292E-02  2.23495311E-04
  1.14351702E-03  4.01601843E-02  1.57297192E-01  9.65173721E-02 -8.74766579E-03
  1.09579360E-03  3.99374881E-02  1.57246608E-01 -9.65667391E-02 -8.74791165E-03
 -2.15387158E-03  7.20548640E-02 -1.76689352E-01 -9.94892923E-02  2.04393789E-04
  1.65938445E+00 -1.82158464E+00  1.34515615E+00  4.88640927E-02 -7.67684074E-05
  1.18821637E-04 -1.36244460E+00 -2.49048554E-03 -2.36324036E-03 -3.40892752E-01
 -1.68601511E-03  5.40037924E-04 -9.11679223E-01  3.92867349E-04 -1.53802544E+00
  1.68775178E+00 -1.24560845E+00 -3.25639149E-02 -8.31373888E-02  2.65478479E-04
  9.62962684E-01  1.80673002E+00  1.45861177E-03  3.10908999E-01 -1.21528467E-03
  1.65909559E-03 -3.31707694E-01  8.24288531E-01  1.41533098E+00 -1.55317501E+00
  1.13064872E+00 -3.53422373E-02  6.51902845E-02 -8.28003606E-04  1.03320157E+00
 -2.05774554E+00 -6.16076311E-03 -3.24868094E-01 -9.70140222E-04 -7.36033038E-03
  3.76357712E-01  7.85118442E-01 -1.55970504E+00  1.71184860E+00 -1.27490839E+00
  4.71125754E-02  3.05004239E-05 -1.38044338E-03 -1.98632923E+00  3.09839266E-03
  4.35247126E-04  3.59833712E-01 -2.03553471E-02  1.61334421E-04  8.64056315E-01
 -5.28472239E-04  1.41456181E+00 -1.55233018E+00  1.12997487E+00 -3.53002352E-02
 -6.52010235E-02 -7.73858194E-04  1.02937041E+00  2.05896807E+00 -5.95702614E-03
 -3.24805402E-01 -1.46919918E-03  7.71166641E-03  3.75524329E-01 -7.85136231E-01
 -1.53732572E+00  1.68698093E+00 -1.24485888E+00 -3.24145931E-02  8.31377385E-02
  3.34899823E-04  9.58046182E-01 -1.80861401E+00  3.56208640E-04  3.10877633E-01
 -1.41685348E-03 -1.41509052E-03 -3.32088064E-01 -8.23821026E-01 -8.61166406E-03
  6.77420059E-03  4.77576815E-02  1.49812235E-02  2.16167395E-05 -9.39724016E-06
 -5.55901649E-02  3.53231977E-04 -4.84440254E-04  1.23707603E-01 -4.73875769E-04
 -1.82767718E-04 -1.16595421E-01  1.32180802E-04 -3.46288804E-02  3.57955159E-02
 -4.69308757E-02  1.67960380E-02 -3.42407722E-06  1.70554042E-03 -5.02511475E-01
  4.30149106E-05 -4.31630172E-02 -4.85756418E-02 -4.53459646E-02 -9.56040142E-05
  6.10613426E-02 -1.83579052E-05 -3.87034832E-03  3.43309862E-01 -7.07346579E-03
  1.23604974E-01  5.74184180E-03 -3.83204530E-03  3.43272227E-01 -7.07862316E-03
 -1.23563563E-01  5.76761885E-03  1.51069076E-02 -1.37379245E-02 -4.21618309E-03
 -3.49921238E-03  7.08525258E-03 -1.85747042E-05 -2.97786109E-02 -9.23213242E-03
 -9.91405929E-05 -2.36362608E-02  9.88265247E-05 -1.37021316E-04 -9.61460018E-03
 -3.15998135E-02  1.51189945E-02 -1.37500068E-02 -4.20058601E-03 -3.49724358E-03
 -7.07478287E-03 -2.53550490E-05 -2.99604939E-02  8.96266725E-03  1.76856936E-04
 -2.36348509E-02  1.36219962E-04  6.54731036E-05 -9.77682066E-03  3.15973970E-02
 -3.55543968E-02  4.55166297E-01  1.05506165E-01  2.83455194E-02 -6.78779719E-04
  5.42098687E-02 -7.00915521E-01  1.27841527E-01 -6.43041886E-02 -2.68498321E-03
  5.41755752E-02 -7.00745398E-01  1.28130622E-01  6.40030589E-02 -2.52889060E-03
 -3.55250449E-02  4.55042907E-01  1.05632264E-01 -2.82532361E-02 -8.66718688E-04
 -4.95188417E-02  5.72807577E-02 -8.16654656E-02 -4.91160366E-03  2.15023301E-06
  2.34707409E-04 -1.25426398E-02 -4.80684788E-04 -2.39557147E-04  9.98654592E-03
 -1.21759158E-03 -3.98807031E-05 -2.11227010E-02  8.61641423E-06  6.50844018E-03
 -8.12359935E-03  2.56264883E-02  1.48942519E-02  9.86523763E-03  9.50112194E-04
 -8.01551174E-02  5.40267880E-02  8.72632788E-03 -5.85674577E-02  3.55720610E-03
 -6.16411865E-04 -1.31129804E-02  5.31284257E-02  1.81471353E-02 -2.23678818E-02
  1.10913466E-01  4.34560066E-02 -2.09296474E-03 -4.21453331E-04  3.49900733E-02
 -6.83217266E-02 -8.19201004E-03  1.48251672E-01  8.67448561E-03  9.48719737E-04
  6.96988448E-02  1.69014427E-01  7.58797993E-02 -8.58242409E-02 -1.02816222E-01
  1.85649493E-02 -2.53310815E-06  3.73227627E-04  1.70322353E-01  2.42276585E-04
  5.58904158E-03 -1.87345438E-01 -5.06846413E-03 -3.14877279E-07  5.93312037E-01
 -3.79163170E-04  1.81474919E-02 -2.23676221E-02  1.10885394E-01  4.34454849E-02
  2.06956594E-03 -4.28425206E-04  3.44060011E-02  6.84794574E-02 -8.10876633E-03
  1.48231467E-01  8.61788101E-03 -9.72036022E-04  6.95874655E-02 -1.69025608E-01
  6.55403943E-03 -8.17664228E-03  2.57258176E-02  1.48905817E-02 -9.86961037E-03
  9.34020587E-04 -8.09299875E-02 -5.42506099E-02  8.79131722E-03 -5.85181591E-02
  3.44534130E-03  6.68654472E-04 -1.31391568E-02 -5.30382517E-02 -7.64259706E-02
  8.20827670E-02 -2.29835452E-02  5.15176222E-03  1.00118411E-06 -3.11650927E-05
 -1.15733331E-02  6.62365482E-05 -7.52543453E-04  6.47453428E-04 -8.32514617E-05
 -1.64079107E-05  1.25816617E-02  8.06091169E-06 -3.62992940E+00  3.89833234E+00
 -1.08775064E+00  9.88508744E-02 -2.30242367E-05 -7.69598567E-03 -1.19653419E-01
  8.93799942E-05 -7.85703859E-03 -1.07317060E-01  1.08688016E-02  2.28434622E-05
  5.38775127E-02 -2.21785351E-05  4.29344059E-02 -9.15099565E-02 -4.46235896E-02
  4.81824173E-02 -3.32036706E-03  4.29365386E-02 -9.16993923E-02 -4.46092673E-02
 -4.81068916E-02 -3.32623641E-03  4.96231881E-03 -5.00609154E-03  1.30785454E-03
  1.60988278E-03  8.28329404E-04 -5.72914578E-06  1.70604710E-03  1.80447637E-03
  1.65819918E-04  3.37444109E-04  1.08057758E-04  6.30337234E-05 -4.02309901E-03
  6.50001393E-03  4.97753775E-03 -5.02076634E-03  1.29380523E-03  1.60566949E-03
 -8.27315434E-04 -3.77037250E-06  1.74696103E-03 -1.76966227E-03  1.85394741E-04
  3.38913339E-04  1.17424512E-04 -7.02193165E-05 -3.99417470E-03 -6.51357526E-03
 -3.44007349E-03 -9.01350022E-02  1.85525841E-02 -3.50733263E-03 -9.24876903E-05
  3.62357423E-02  2.13781314E-01  5.17733706E-02 -9.64445601E-03  1.80916096E-03
  3.61945519E-02  2.13942677E-01  5.19484379E-02  9.45495859E-03  1.76028751E-03
 -3.41984773E-03 -9.01341058E-02  1.86775578E-02  3.58213880E-03 -1.10798094E-04
  7.56442792E-02 -8.53931664E-02  3.41150822E-03 -7.47775439E-03  2.99489333E-05
 -3.82660368E-06  1.40774406E-01 -7.07857980E-04  7.94951157E-04 -5.52703516E-02
  4.38417527E-04 -4.10363524E-05  5.69613588E-01  4.36194651E-04  4.63563755E-02
 -5.52523148E-02  1.45768425E-01 -3.07549813E-02  1.06341224E-02 -9.66900226E-05
 -1.73623001E-01 -2.84462311E-01 -2.00228860E-03  6.30497464E-02 -2.29814101E-04
 -7.70672294E-05  1.16973131E-01 -2.02078257E-01 -1.39129050E-02  1.62054026E-02
 -2.51474638E-02 -3.89454352E-03  8.75219057E-03  3.06071682E-05 -5.23001744E-02
  2.65063332E-01  2.51792940E-03 -2.08525565E-02 -6.79521646E-04  9.75930268E-05
 -5.13295213E-02 -1.01936024E-01 -1.55853077E-02  1.79276051E-02 -2.16338857E-02
  1.92897940E-03  5.72788698E-06  3.29666921E-04  2.83794976E-01  4.69980169E-04
 -2.07995370E-03 -1.58617614E-02  6.02995724E-04  7.52906666E-06 -9.02965873E-02
  7.20598157E-05 -1.39655888E-02  1.62689438E-02 -2.53537660E-02 -3.81201263E-03
 -8.75898894E-03  1.98497017E-05 -5.30942395E-02 -2.64591798E-01  2.32387032E-03
 -2.08723594E-02 -6.16827620E-04 -8.92830719E-05 -5.13970865E-02  1.02146899E-01
  4.63578759E-02 -5.52496661E-02  1.45548245E-01 -3.07249519E-02 -1.05013360E-02
 -1.05914382E-04 -1.75136349E-01  2.84972302E-01 -1.85860783E-03  6.29790983E-02
 -3.06208789E-05 -1.35701158E-08  1.17838082E-01  2.02133292E-01 -3.67138496E+00
  3.97335725E+00 -1.30009516E+00  6.08004916E-03  3.41898254E-05  3.85242653E-05
 -1.54510179E-01  9.15523306E-05  6.40442374E-05 -1.39697303E-01  1.77219986E-04
 -9.36745148E-05 -1.84850864E-02  2.40759996E-05  7.57924098E-02 -8.21309098E-02
  2.92500823E-02 -8.43718155E-03  9.20910675E-07  3.89297855E-04  9.94400063E-02
 -1.13035041E-04  8.39441243E-03  2.66450847E-04  4.62912460E-03  2.46826127E-06
  4.72107971E-03  3.09000133E-06  1.38148531E-03 -6.94973680E-02  2.88455966E-03
 -3.06565477E-02  2.37390932E-03  1.38401140E-03 -6.94298446E-02  2.91170553E-03
  3.06131907E-02  2.38801066E-03 -1.17586598E-01  1.19042320E-01 -1.10240718E-01
  1.14811174E-02  1.01537547E-02  4.26300907E-07  8.75359335E-02  1.28608808E-01
 -2.16179207E-05 -7.94228059E-02 -1.04450173E-04 -3.19269541E-05 -6.63923542E-02
  1.62036664E-01 -1.17663369E-01  1.19119293E-01 -1.10267949E-01  1.14923937E-02
 -1.01885881E-02  1.59714919E-05  8.76668087E-02 -1.28317365E-01  6.39156983E-05
 -7.94235970E-02  5.11108949E-05 -2.10111310E-04 -6.60427187E-02 -1.62095905E-01
  1.94015486E-02  1.30025801E-01 -7.07761406E-02  2.06491317E-02 -6.24940351E-06
 -1.34985991E-02  2.63827999E-02 -3.30012946E-02  3.78793952E-03 -8.50348129E-04
 -1.35035385E-02  2.60595821E-02 -3.28792977E-02 -3.75848327E-03 -8.42253132E-04
  1.94823508E-02  1.29320061E-01 -7.04339452E-02 -2.02965993E-02 -1.56959964E-04
  8.87950869E-02 -1.08158908E-01  2.55266234E-01 -3.20583446E-02  4.23046127E-05
 -2.50528226E-05 -1.92218494E+00 -1.63858188E-03 -5.80986209E-04 -2.89719361E-02
 -1.36293933E-04  3.01478507E-04  1.19549160E-02  4.58370270E-05  2.36882684E-02
 -2.82300850E-02  5.81385569E-02 -2.37338712E-02  3.65668884E-03 -1.00671797E-04
  2.61435923E-01  7.20522917E-01  7.62768484E-04  5.01719108E-02 -2.50012669E-05
  2.14658766E-04 -1.39638894E-01  5.33801024E-02  2.66029218E-02 -3.20443803E-02
  4.56171942E-02 -1.57091232E-02  6.70494538E-03  2.73197521E-04 -1.95785233E-01
 -1.97284820E-01 -5.73254567E-03 -3.98301820E-02 -1.66294328E-03 -1.81344509E-03
  5.85919868E-02  1.42451462E-02  1.01025043E-02 -1.17187043E-02  1.79498186E-02
 -1.39090763E-02  3.08273691E-06  7.75163143E-04 -2.45017176E-01  1.56188820E-03
  1.54536584E-02  4.63059134E-02  1.72832560E-03 -6.26948736E-06  2.57695462E-03
 -2.69473877E-05  2.66228828E-02 -3.20680550E-02  4.56329920E-02 -1.57065368E-02
 -6.70458573E-03  2.79780560E-04 -1.98067425E-01  1.99241255E-01 -5.49446934E-03
 -3.98709397E-02 -1.77437593E-03  1.79122627E-03  5.86947520E-02 -1.42771068E-02
  2.36817292E-02 -2.82207282E-02  5.80806043E-02 -2.37589476E-02 -3.65728584E-03
 -1.28124518E-04  2.58770998E-01 -7.22730909E-01 -7.31850995E-05  5.02346731E-02
 -6.99781978E-06 -6.64593718E-05 -1.39624510E-01 -5.33122808E-02  2.11411267E-01
 -2.39217322E-01  6.66679394E-02 -3.94072042E-03  1.95247302E-05 -2.79830238E-05
 -1.16015537E+00 -5.68309552E-04  2.06354924E-04 -2.39569958E-01  5.33101466E-05
 -3.02893883E-04 -2.64907672E-01 -3.11826440E-04 -1.39319797E-02  1.60234707E-02
 -1.33752669E-02  3.68343996E-03  1.94546237E-06  1.12169008E-03 -2.10708259E-01
 -1.63867839E-04 -2.56473732E-02  1.15760122E-02 -6.31480114E-03 -4.26288200E-05
  3.82388068E-02 -3.25562059E-05 -2.94714125E-03  1.76002979E-01 -2.33619514E-02
  3.53601292E-02 -5.16059610E-03 -2.93374491E-03  1.76258094E-01 -2.34094095E-02
 -3.53948892E-02 -5.20822494E-03 -2.55320067E+00  2.71940269E+00 -1.20650649E+00
 -7.89136158E-03 -2.01028093E-02  6.12347365E-06 -1.48416652E-01 -2.88369374E-01
  7.56573435E-05  3.61824324E-02 -4.61556275E-06 -7.74400482E-07  3.89251796E-02
  7.71125532E-03 -2.55333509E+00  2.71954637E+00 -1.20658654E+00 -7.89556352E-03
  2.01150138E-02 -2.02755407E-05 -1.48805848E-01  2.88098543E-01 -2.95205098E-04
  3.61774508E-02 -1.16270800E-05  1.37624254E-04  3.88598466E-02 -7.64602660E-03
 -2.75291596E-02  4.15079943E-01  2.06624405E-02  8.46212354E-05 -6.09488139E-04
 -1.64476766E-02  8.27242354E-02 -2.33004773E-03  3.43583639E-02  2.39606895E-04
 -1.64295254E-02  8.23981619E-02 -2.21472230E-03 -3.43851791E-02  2.64403866E-04
 -2.75974555E-02  4.15882301E-01  2.08150074E-02 -2.29256494E-04 -7.85609273E-04
 -2.96216680E-05  3.43998525E-05 -2.08805199E-05 -4.25111158E-06 -2.25451622E-02
  2.19315971E-06  2.66244414E-04  1.44002699E+00  5.40022789E-04 -4.37182005E-05
 -5.02919583E-05  3.82772859E-04  2.58660883E-05  6.63776290E-03  1.78277412E-02
 -2.16143581E-02  4.82911709E-02 -9.18235762E-03 -3.78558707E-03  1.29015330E-04
 -1.31609737E+00  6.06666117E-01 -1.14317434E-04  2.40267442E-02  1.09136076E-04
  1.87595726E-04 -1.96335137E-02 -1.43575057E-02 -1.39067054E-03  1.64508021E-03
 -1.20617326E-03 -6.40935810E-03 -3.45313358E-03 -1.47229153E-04 -1.30453139E+00
 -6.52488694E-01  9.63885261E-04 -1.76049323E-02  6.79696370E-04  3.69871881E-04
  5.09871928E-03 -2.44482726E-02 -9.95038149E-06  1.16302163E-05 -7.59357801E-06
 -1.25407752E-05  2.97643982E-03 -6.84270980E-06 -3.18284891E-04 -1.54149666E+00
 -2.61460770E-05 -1.82865871E-05  1.63718802E-05 -1.01143489E-03 -5.83368677E-05
  3.09026989E-02  1.37856147E-03 -1.63205983E-03  1.26459856E-03  6.36766025E-03
 -3.44587523E-03  1.53718792E-04  1.30402356E+00 -6.53312102E-01 -1.48603778E-03
  1.76054579E-02 -5.37015819E-04  3.06183821E-04 -5.13534680E-03 -2.43580781E-02
 -1.78372188E-02  2.16232892E-02 -4.81699447E-02  9.15072218E-03 -3.76333488E-03
 -1.34990921E-04  1.31624867E+00  6.06543614E-01  2.38222705E-04 -2.39423747E-02
 -1.20693831E-04  2.03834833E-04  1.94604374E-02 -1.42693846E-02 -6.34507199E-05
  7.31006624E-05 -4.58511184E-05  3.86512363E-06 -6.85384757E-03  1.09050327E-05
  5.70325015E-04 -1.07704732E+00  3.13335548E-04 -7.20172059E-06 -2.89521213E-04
  2.24725038E-04 -5.09616401E-04  4.55972314E-01  1.47827125E-05 -1.70559058E-05
  1.44860114E-05 -7.26848114E-06 -4.19403810E-03  4.29156885E-06  3.70308681E-05
  2.20566598E-01  1.23099293E-05  2.10556694E-05  2.67953136E-05  8.08992353E-03
  4.75936696E-05  6.33732127E-03  7.24289024E-03  1.05895577E-01 -3.99556549E-03
  2.65017234E-02 -6.79214719E-03 -7.20571153E-03 -1.05925001E-01  4.02421947E-03
  2.64997269E-02  6.82977324E-03 -2.57176659E+00  2.74875344E+00 -1.32459874E+00
 -1.23279751E-02 -3.39696450E-02  1.02110529E-05 -1.00665510E-01 -2.54867460E-01
  1.86465031E-04 -3.22193794E-02  4.33931392E-05 -9.76428049E-06  7.55640034E-04
  2.48855824E-03  2.57162689E+00 -2.74860556E+00  1.32456738E+00  1.23638059E-02
 -3.39374672E-02  1.01721632E-05  1.00951517E-01 -2.54847749E-01  2.30002802E-04
  3.22186470E-02  1.10541800E-05  2.38150741E-05 -7.40744425E-04  2.42360186E-03
  1.06069151E-02 -7.84037922E-02  3.11902136E-02 -6.48130401E-02  2.32612651E-04
 -9.83986032E-03  5.77990478E-02  8.79614056E-02  6.72021419E-02  6.89839727E-04
  9.83515254E-03 -5.74513817E-02 -8.79758559E-02  6.71877008E-02 -6.34891393E-04
 -1.05184833E-02  7.79580360E-02 -3.12913192E-02 -6.46243837E-02 -2.74954235E-04
Total SCF Density                          R   N=       14535
  1.86459030E-01  4.47683717E-01  1.08286748E+00 -5.53819426E-02 -2.11372513E-01
  7.91448785E-01 -6.02793026E-03 -2.03177767E-02  5.33498867E-02  4.53230726E-01
  3.99003422E-07  2.06683960E-06 -1.15664153E-05 -8.23513888E-06  5.85283463E-01
  1.52983143E-05  5.49316551E-05 -2.19129405E-04  5.99386577E-05  4.89467537E-07
  5.74091671E-01  4.02511571E-03  1.32642789E-02 -2.56900513E-02  4.14068319E-02
  9.43685098E-05  8.48411131E-04  4.13471721E-01  7.39463483E-05  2.67816471E-04
 -7.35648318E-04 -1.03760095E-04 -2.14648805E-01 -4.59449600E-04 -2.30901174E-03
  3.33713544E+00 -1.09225808E-04 -3.90503596E-04  1.18124458E-03  5.28528356E-04
 -6.20511137E-05 -4.72014311E-04  8.70939158E-04  5.17305627E-04  1.32863510E-03
  9.09290431E-03  3.16759941E-02 -9.16422439E-02  2.58793248E-02 -4.13685245E-08
 -2.87647517E-05  6.06282663E-02 -4.74496056E-05 -1.68362160E-04  3.17150941E-02
 -3.19850412E-06 -8.74880606E-06 -2.19555265E-06  2.30759438E-05  2.12812390E-05
  9.18212027E-03  1.86310278E-05  1.53178572E-04 -8.65406202E-04  1.21878618E-05
  7.11661789E-03 -3.73738029E-06 -1.39104077E-05  4.67377202E-05  4.57375034E-05
  6.43980411E-05 -2.13087157E-05  7.17737487E-05  3.00277404E-05  9.19327672E-07
  7.14423429E-06  7.30712967E-06  1.95837395E-02  1.35881522E-03  6.46067688E-03
 -2.04651686E-02 -1.91817041E-01  8.71754985E-05  2.41069640E-04  1.04244052E-01
  1.26838351E-04 -4.05924996E-04  9.11067273E-03  7.47246838E-06 -2.33120705E-05
  1.76648995E-01 -8.49253600E-06 -3.09231542E-05  9.08672114E-05 -4.89997570E-05
  1.07812284E-01  9.24009908E-06  3.20018916E-05 -3.02133633E-01 -3.93217018E-05
 -3.05816392E-05 -9.07871942E-07 -4.61982584E-05  1.22090617E-05  7.14721846E-02
  1.61158517E-03  5.65207028E-03 -1.34441184E-02 -1.19089929E-02  2.44168497E-02
  1.10565999E-05  7.36853944E-03 -1.56610395E-02 -1.04113173E-04  6.88172534E-03
  1.00223532E-06  4.75255013E-06  1.62744593E-02  1.30342402E-02  1.86612966E-01
  5.68928871E-03  1.94283073E-02 -4.37020118E-02 -4.05578395E-02  8.47623172E-02
  4.77700019E-05  2.16850406E-02 -5.49570669E-02 -3.89806666E-04  2.27417214E-02
  1.54427819E-07  1.39628730E-05  5.37333985E-02  4.27647846E-02  4.48487409E-01
  1.08622956E+00 -1.50587793E-02 -4.86174202E-02  8.91032563E-02  1.10850577E-01
 -2.77747613E-01 -2.27205895E-04 -4.14232997E-02  1.45589215E-01  1.31945509E-03
 -6.04409520E-02  4.58700600E-06 -3.11169567E-05 -1.45083117E-01 -1.17051424E-01
 -5.95631777E-02 -2.25877467E-01  8.40795585E-01  1.58003529E-02  5.50387144E-02
 -1.80348876E-01 -6.06915260E-02  1.98203650E-01 -2.01503260E-04  8.61341679E-02
  7.35081002E-02  6.47793310E-06  5.34853744E-03 -2.37166106E-05  1.11297876E-04
  1.09575985E-01 -2.36845190E-02  5.98737943E-04  2.32623431E-03 -2.08707390E-02
  5.72629161E-01 -2.42494908E-02 -8.38863509E-02  2.71750165E-01  1.79921278E-01
 -3.04764848E-01  2.87768859E-04  8.24592020E-02  1.35819377E-01  3.03349775E-04
  1.30814276E-03 -6.51601111E-08 -9.96029031E-06  1.30036175E-02 -6.36594310E-02
  3.55685303E-03  1.21660686E-02 -5.10842529E-02  2.13686531E-02  5.70265949E-01
  2.77284418E-05  9.68405342E-05 -3.20204954E-04 -1.93078917E-04  3.11486475E-04
  2.58147960E-01 -8.77188846E-06  6.50245785E-04  6.03749675E-03  1.85356844E-04
  1.55414740E-02 -6.55263214E-02  2.47781119E-04  1.30286569E-04 -6.10113105E-06
 -2.46438455E-05  4.45284203E-05 -2.04893175E-04 -1.32558214E-04  4.37131730E-01
 -1.15347465E-02 -4.57505075E-02  1.69987643E-01  1.75971901E-01  6.12833300E-02
 -1.60834042E-03  2.15337194E-02 -2.23643246E+00  5.91767891E-04 -1.92450137E-02
 -8.40221160E-05  1.34034203E-04 -1.23720079E-01  1.59857434E-01 -1.12858584E-02
 -4.29142521E-02  1.74715304E-01 -1.10879628E-01  6.19753615E-03 -1.84548285E-04
  1.73830365E+00  4.02639580E-03  1.21065015E-02 -3.25813175E-02  2.35278827E-02
 -5.26705484E-02 -8.16363259E-04 -1.44320122E-01  1.91882965E+00  3.19046313E-04
 -1.94630581E-02 -1.87172975E-05 -1.94572664E-04 -8.72861696E-02 -1.45286494E-01
 -2.63747992E-02 -8.67408654E-02  2.27381132E-01 -3.03929473E-02 -9.56067601E-02
  4.90882077E-04 -1.30147950E+00  1.36014695E+00  1.44851366E-04  5.13095198E-04
 -1.46925816E-03 -6.47014000E-04  2.32739339E-04  7.80802297E-02 -1.12835616E-03
 -1.42201464E-03  7.07863313E-04  4.21637434E-04  3.32259338E-03 -9.38912290E-03
  7.03694771E-04  1.62879787E-04  1.75623592E-04  6.57940285E-04 -2.28396431E-03
 -2.97322009E-04 -2.08168359E-04  8.46123832E-02 -2.39680936E-05 -1.47656241E-03
  1.91850660E-02  5.70201087E-03  1.90755868E-02 -4.96127905E-02 -2.43663431E-02
  7.69620060E-03  2.19300705E-04 -7.82867356E-03  6.22267545E-02 -2.98017595E-04
  9.41429508E-03 -6.01672299E-05  1.22553590E-05  2.01729212E-02  2.90707049E-03
  8.46862801E-03  2.98186397E-02 -9.09853093E-02 -2.24351392E-03  1.92311716E-05
 -3.93092860E-04 -7.78532947E-02  3.23400302E-02  1.86952176E-04  2.34207434E-02
  1.93896393E-07  3.46144011E-06  1.76225199E-05 -5.69464212E-05 -1.11773332E-04
 -4.79528151E-02 -1.54130087E-04  2.43177649E-04  2.24424471E-03  1.07590659E-04
 -1.59789170E-04 -8.79329206E-03  1.73006465E-04 -1.31891607E-05  2.08168352E-05
  7.89254784E-05 -2.87904385E-04 -2.73835036E-05  2.23579841E-04  2.81568294E-02
  1.82893108E-04  4.40093684E-06  1.08741374E-03 -7.41334363E-05  1.30162646E-02
  2.21255383E-05  7.67737196E-05 -2.16193956E-04 -7.49224722E-05 -3.06504287E-05
  6.61726671E-02  1.78922214E-04  6.33104834E-04 -3.33282368E-04  4.45925793E-05
  6.92024236E-04  1.40375068E-03  1.50491118E-04 -6.69569688E-05  1.60318462E-05
  6.40626489E-05 -2.57113491E-04  1.30516203E-04  1.07180792E-04  2.39519573E-02
 -7.60597529E-04  2.72382214E-04  8.17864793E-03  1.11597667E-04 -6.60276643E-03
  7.92654204E-03  8.64751993E-03  2.88701225E-02 -8.15396963E-02 -6.53126830E-02
 -2.08543850E-02 -8.93585914E-05  7.17225711E-02  1.68423029E-01  5.10504106E-05
  1.30376611E-02  4.85518826E-05  5.02172116E-05  5.71016084E-02 -2.84722652E-02
  7.86436104E-04  1.53736278E-03 -2.50052205E-04  1.15599304E-01  6.98363981E-03
  2.42919427E-04 -1.41757238E-01  4.14879844E-02  5.72190373E-05 -1.70763984E-03
  9.36723386E-05  6.12569509E-05  6.10692343E-02  1.38196681E-02  4.50490847E-02
 -1.27612796E-01  1.88266139E-02  7.03471457E-02 -5.82266096E-05 -7.61659824E-02
 -2.41586118E-02 -1.48550742E-04  1.74830434E-03 -1.73456447E-06 -6.97361166E-05
 -5.27581919E-02  1.55092576E-02 -3.92671082E-03 -1.11971479E-02  2.36025988E-02
 -1.46747841E-02 -1.30597917E-01  1.83693643E-04 -1.88655028E-03  7.98017054E-02
  2.15689316E-05  4.04085999E-03 -1.11631314E-04 -4.48180173E-05 -1.80543355E-02
  7.69285313E-02 -4.93436971E-04 -1.71137354E-03  6.84914353E-03  2.00983883E-03
 -2.84360064E-03 -2.21147340E-05 -1.25549937E-02 -9.96771558E-03 -5.82558500E-05
 -1.07609587E-03 -1.94486240E-05 -1.62990433E-06 -5.19791915E-03  5.33967651E-03
  1.62534825E-03  5.75850974E-03 -1.42892939E-02 -2.90746275E-02 -4.39867471E-05
 -1.68204053E-05  4.14806832E-03  1.23925153E-02  9.01002783E-05  7.74291345E-03
  2.23876993E-05 -1.07280303E-05 -1.67208210E-02  4.42459477E-03  1.86499677E-01
 -1.65925386E-03 -6.07484426E-03  2.60244908E-02  7.72905252E-03 -1.01604462E-02
 -4.90512049E-05 -3.94989129E-02 -3.92906096E-02 -2.00570649E-04 -3.09319103E-03
 -6.15457684E-05 -4.43027696E-06 -1.63829457E-02  1.80256362E-02  5.75462577E-03
  1.97510621E-02 -4.54930555E-02 -1.00522288E-01 -1.36860818E-04 -7.15651415E-05
  1.80716952E-02  3.51144921E-02  2.80234147E-04  2.61729114E-02  5.56912939E-05
 -2.95417807E-05 -5.50553432E-02  1.41331319E-02  4.48088743E-01  1.08478913E+00
  5.75722557E-03  2.27878596E-02 -1.01239029E-01 -3.92142753E-02  4.59034425E-02
 -7.50418461E-04  9.37770305E-02  1.55248866E-01  5.09544720E-04  7.28603686E-03
  1.86705195E-04  4.66069272E-06  4.98215190E-02 -4.87132152E-02 -1.43561806E-02
 -4.58450704E-02  7.63907108E-02  3.18155555E-01  2.49670472E-03  6.58962900E-04
 -9.24796674E-02 -6.45622079E-02 -2.39634527E-04 -7.19082844E-02  2.37000757E-04
 -3.62364159E-05  1.53087329E-01 -4.04220427E-02 -5.80108738E-02 -2.19987552E-01
  8.14501652E-01 -5.36417462E-03 -1.94234331E-02  8.50014941E-02  2.20147186E-02
 -3.38656054E-02  1.62995251E-04 -1.85121737E-02 -1.09676446E-01 -3.06446265E-04
  2.81572126E-02  7.98858070E-05 -1.01294242E-04 -3.00880382E-02  5.81912007E-02
  2.86494164E-02  9.91334265E-02 -3.16625883E-01 -4.05707220E-01  1.58826737E-03
  3.72104248E-04  2.34558184E-02 -1.18447895E-01  1.00147780E-03  8.11223300E-03
  1.71232502E-04 -2.53966992E-05 -4.92326272E-02 -8.47257916E-03 -7.94786398E-04
 -3.00816845E-03  2.20264469E-02  5.52155655E-01  1.95387027E-03  7.28085359E-03
 -3.03539226E-02 -1.36177791E-02  1.87499215E-02  1.61126892E-05 -3.72762062E-02
  3.34610812E-02 -4.49579747E-05 -4.35024723E-03  9.27907166E-05 -1.88695004E-04
 -7.39504213E-03 -6.31307538E-03 -6.26714048E-05 -1.87457816E-04  1.78484311E-03
 -2.06081067E-04  2.65960538E-02  8.06062202E-04 -6.30601237E-02  1.52300798E-01
 -1.82553304E-06  1.69432693E-03 -6.75938246E-05 -3.03028339E-05 -1.12916787E-03
  1.02087221E-01  3.32457147E-03  1.14280023E-02 -4.78932111E-02 -1.78379304E-02
  5.44459073E-01  5.06940844E-06  2.03118066E-05 -6.99738733E-05 -8.61947806E-05
 -8.03825645E-05 -7.16050257E-02 -7.19894436E-04  1.16124157E-03  1.50201867E-02
  1.47728895E-04  1.17273695E-02 -6.54435716E-02  1.25958078E-04  8.23928698E-06
  2.75767852E-06  9.75955116E-07  3.12358252E-05  5.85658552E-04  5.42847944E-04
  3.40482881E-01  1.00623130E-03  1.38582433E-03  4.54535357E-02 -3.88313794E-04
  7.15214832E-02 -1.66487226E-02  2.77368354E-04  2.00785312E-06  3.54885513E-05
  9.55870405E-05  7.34318775E-04 -3.54870564E-04 -2.00557563E-04  5.01579353E-01
 -3.18713775E-03 -1.67663111E-02  8.98025564E-02  8.65774039E-02  5.53884477E-02
  2.51138912E-03  8.06071785E-02 -1.96766717E+00  3.47989645E-04 -3.81827340E-03
 -5.77127135E-04  5.22243599E-05 -3.91015084E-02  1.26929746E-01 -2.69514126E-03
 -1.54540142E-02  1.12155413E-01  7.38122457E-03  2.84024934E-02 -3.70885050E-03
  1.49917184E+00 -1.13751706E+00 -2.23421955E-03 -4.38704042E-02 -1.41361241E-03
  1.10512810E-04 -1.01518022E-01 -1.22806012E-02  1.03854748E-02  3.66480944E-02
 -1.24352630E-01 -7.90061251E-02 -3.28859406E-02 -4.54420762E-03  1.42653974E+00
 -1.51286545E-02 -4.77537209E-02  1.18403458E-01  3.47358848E-03 -4.63481668E-02
 -2.92617968E-03  1.26820008E-01 -1.36918696E+00  3.28477891E-05  2.86999715E-03
  3.99504364E-04  4.93175005E-04  5.97996653E-02  5.09229071E-02  4.84288738E-03
  5.24995352E-03  5.67868645E-02  1.19637947E-01  1.55635347E-01  2.36677514E-03
  1.01902272E+00 -9.97648721E-01  3.02399651E-03 -7.08206551E-02  1.37720627E-03
 -7.29626008E-04  1.40744012E-02 -9.94922869E-02 -3.04641230E-02 -1.03110880E-01
  3.05633412E-01  6.04343411E-03 -1.13972024E-01  2.52972987E-03  8.69327517E-01
  9.28918060E-01 -3.33113130E-04 -1.20093021E-03  3.51512828E-03  1.81260451E-03
  2.18539947E-05 -1.77133197E-02  3.73273871E-03  2.66788416E-03  2.88910361E-03
 -7.89503710E-04  7.81909316E-04 -1.02243539E-02 -1.38380765E-03 -1.19984810E-04
 -3.81858597E-04 -1.41329120E-03  4.68545112E-03  7.71318675E-04  8.32346344E-04
  4.48750239E-02  3.27015649E-04  1.95400326E-03  2.41098462E-03 -7.95765529E-04
  1.11202166E-02 -3.24492730E-03  1.99744338E-04 -3.79616176E-04 -2.37583374E-04
 -8.44246067E-04  1.93552708E-03 -1.60490892E-03 -1.33055202E-04  8.08843722E-02
  3.00912601E-03 -5.36105675E-03  2.34920873E-02 -5.61357059E-05  5.36437877E-04
 -2.16543872E-03 -1.19050011E-02  1.80766104E-02 -8.17411917E-04 -8.26514534E-03
 -3.74173453E-02 -2.78662585E-04  3.36874831E-03  5.38144196E-05 -3.77939049E-05
  1.54558217E-02  1.20244963E-02  6.84379637E-03  2.28544717E-02 -6.06415785E-02
 -5.84474593E-03  3.95341405E-03  7.75063782E-04  2.30337103E-03 -1.54187326E-02
  9.18317242E-04  1.38003103E-02  4.06200802E-04 -9.96455976E-05 -1.17596090E-02
 -6.34700000E-04  7.58175569E-03  2.65756480E-02 -7.91909173E-02 -2.53836804E-03
  1.08784529E-03  1.12125538E-03  1.48954077E-02 -1.67566306E-02 -1.89256058E-03
  1.83123502E-02 -6.95324758E-05 -2.52157153E-04  7.87944400E-04  5.27179358E-04
  1.25639732E-05 -4.40827703E-02  8.48285667E-04  9.27491855E-04  5.81260507E-04
 -5.11051840E-05 -1.38510220E-03  8.51456553E-03 -2.19511275E-04 -8.65424016E-06
 -7.26537548E-05 -2.47197092E-04  6.64056060E-04 -9.29175871E-05  1.92555704E-04
 -5.13673957E-02 -5.78812242E-05  2.67975737E-04 -1.11985026E-02 -2.28882248E-04
 -3.53413936E-05 -4.73658426E-03  1.18034167E-04 -1.92079465E-04 -4.61989938E-05
 -2.04845564E-04  9.23329307E-04  2.25546303E-04 -1.81608179E-04 -2.15404634E-02
 -2.43164522E-04 -1.09225646E-04 -9.84630617E-04 -1.61779656E-04  8.08856135E-03
 -6.11631805E-05 -2.22193571E-04  6.26570569E-04  3.85359414E-04  5.90941856E-05
 -1.86535704E-02  1.10300000E-03  8.64612475E-04  1.43974187E-03 -1.37319464E-04
  1.07397815E-04  4.19848274E-04 -2.06699559E-04 -3.35445413E-05 -8.33940714E-05
 -2.97103548E-04  9.14959196E-04  2.72416330E-04  1.47808010E-04 -4.20399365E-03
 -4.46203141E-04  4.08835604E-04 -3.55165516E-03 -1.84951873E-04  3.40276027E-03
 -2.50663946E-03  1.50117932E-04 -1.45292103E-04 -5.98268431E-05 -2.36840133E-04
  7.20009689E-04 -2.67065647E-04 -4.29516278E-05  2.00383556E-02  3.00582265E-04
 -1.93405582E-03  9.16465589E-03 -5.04827231E-04  3.16698875E-03  5.43278151E-03
 -2.04946751E-03 -7.45293583E-03  1.84125303E-02  2.40236172E-02 -2.21690296E-02
  4.33211671E-04 -2.11443531E-02  6.66680186E-02  2.62699729E-04 -1.61719049E-02
 -1.23872672E-04 -4.51432419E-05 -2.63845747E-02 -2.22801672E-02 -1.65550005E-02
 -5.43997362E-02  1.50529136E-01  4.81451125E-02 -2.17597042E-03 -5.52621742E-04
  1.38108654E-02  8.44304485E-02 -9.99352731E-04 -1.03325705E-02 -3.32142963E-04
  8.72801142E-05 -4.97888972E-04  8.28857668E-03  2.35029860E-04 -4.63549441E-04
  6.24367189E-03 -1.07158991E-01  7.39030960E-03 -6.92066271E-04  4.12947127E-02
 -2.63484710E-02  1.35692142E-03 -5.34850033E-03  1.71649345E-05  7.05606444E-05
  5.10526983E-02  6.84272009E-03  2.21927641E-02 -6.57330022E-02 -1.36520999E-02
  4.79704603E-02  1.36956686E-04 -5.26638234E-02  1.02322067E-02  1.77184176E-04
 -7.04774801E-03 -6.60284309E-05 -2.73337166E-07 -3.55506224E-02  5.74497802E-03
 -5.71553616E-03 -1.89455426E-02  5.58335465E-02 -6.04268351E-03 -1.03715864E-01
 -5.14047745E-04 -1.80746038E-02  9.54107578E-02 -8.20809006E-04 -3.84935115E-03
 -3.65861570E-04 -3.58056864E-05 -7.11682478E-03  6.28285128E-02  2.82113473E-03
  7.25184853E-03 -1.30111958E-02 -1.82306873E-02  1.23925939E-01 -7.05511252E-04
 -7.36694941E-03 -9.01107345E-02  1.00919024E-03 -7.14735416E-03 -2.22555580E-05
  1.35950381E-04  1.79205107E-02  7.26518860E-02 -4.45508502E-04 -1.52328850E-03
  5.19475512E-03  3.07410987E-03 -1.31669395E-06 -9.49802577E-05  6.65706787E-03
  8.10429191E-05 -9.27412397E-05 -3.16477117E-04  5.85634588E-06 -2.00758742E-06
  4.16290678E-03 -3.28701654E-06 -4.57251838E-04 -1.59102949E-03  6.16986683E-03
  4.86757855E-03  2.30275396E-03  1.09179129E-04  5.93988471E-03 -7.09270350E-03
  3.06189341E-04  7.91397244E-04  1.27425777E-04  2.52467416E-06 -1.60203333E-03
 -8.28338160E-03  1.48710093E-03  5.23508428E-03 -1.33972095E-02 -1.47503018E-02
 -2.34401988E-02  1.22080723E-04  6.48830495E-03  9.05717819E-03 -3.74485560E-04
  5.40595668E-03  8.74744292E-05  3.57178092E-05  6.23799099E-03 -1.49486446E-02
  1.86592875E-01 -1.45830118E-03 -5.28491036E-03  1.95732475E-02  1.14656322E-02
 -4.89762562E-06 -3.05147054E-04  2.00910208E-02  2.74837054E-04 -3.10364584E-04
 -1.69934207E-03  2.11699342E-05 -5.60951864E-06  1.28010247E-02 -1.11614534E-05
 -1.58605166E-03 -5.77340355E-03  2.36758547E-02  1.76462755E-02  8.33285039E-03
  3.82133402E-04  2.57072988E-02 -1.90222958E-02  9.89375993E-04  3.59886009E-03
  4.09291620E-04  2.67288602E-05 -5.96973096E-03 -2.73918555E-02  5.23792852E-03
  1.78971844E-02 -4.29530880E-02 -5.12709654E-02 -8.10686298E-02  4.23296282E-04
  2.78247119E-02  2.81629298E-02 -1.33469211E-03  1.79633076E-02  2.28728608E-04
  4.79397217E-06  2.06919820E-02 -4.93115319E-02  4.48079297E-01  1.08400748E+00
  3.79214388E-03  1.53852933E-02 -6.31085419E-02 -4.72604037E-02  1.58853171E-05
  1.25123131E-03 -5.79404373E-02 -7.26048470E-04  8.05799153E-04  8.21093696E-03
 -1.41878111E-04  1.02677641E-05 -3.18744361E-02  3.20360934E-05  6.20076250E-03
  2.37875117E-02 -9.85246484E-02 -8.13832639E-02 -3.16711847E-02 -1.65499260E-03
 -1.13126802E-01  3.63062878E-02 -2.75340332E-03 -1.16195421E-02 -1.27514740E-03
 -1.03352792E-04  1.34026787E-02  8.05614887E-02 -1.27286856E-02 -4.07506042E-02
  7.57770727E-02  1.68430769E-01  2.64538456E-01 -2.31308413E-03 -1.12384424E-01
 -8.68896839E-02  4.20104946E-03 -4.90022931E-02 -4.10596855E-04  5.65227336E-04
 -5.78129253E-02  1.39605405E-01 -5.67135486E-02 -2.14858637E-01  7.96718509E-01
 -2.97943639E-03 -1.12216923E-02  4.47709692E-02  3.70367738E-02 -2.70344305E-05
  4.74126020E-04 -2.50200595E-02 -1.71730540E-04  7.12324375E-04 -1.25257823E-02
 -4.38934834E-04  1.60077687E-05 -2.22116503E-02 -5.46590035E-06 -3.20061619E-03
 -1.18010803E-02  5.18779267E-02  3.83990004E-02  1.68072739E-02 -1.61676006E-03
  5.82251196E-02  3.88342550E-02 -2.76725391E-03  1.49013992E-02 -7.35728761E-04
  7.38566674E-05 -2.99513000E-02 -1.49518110E-02  1.29296295E-02  4.41329668E-02
 -1.24929116E-01 -8.53756241E-02 -1.81403836E-01  2.70739913E-04  1.88013516E-01
 -8.58389454E-02  2.87439753E-03  2.05567946E-02 -2.01487268E-04 -3.37779814E-04
  8.63643881E-02  2.29045149E-02  4.16544615E-03  1.41726887E-02 -4.50028926E-02
  5.26042262E-01 -1.05651269E-07 -3.15481016E-07  1.74833994E-06  4.39314441E-06
 -4.95794980E-02 -2.92745667E-05  4.14826713E-06 -9.26386370E-03  4.94428423E-06
  4.44437982E-06  1.45196164E-06  5.21358919E-05 -6.33015381E-06 -1.40873262E-02
 -2.79605721E-03 -1.00166934E-02  4.68328941E-02  3.58682707E-02  2.08063170E-02
 -2.00550307E-04 -1.55057512E-02 -6.55179160E-02 -1.56347749E-05  1.85891103E-02
  3.71087375E-05 -1.02313193E-04 -2.06010706E-02 -4.98054118E-02  2.42274847E-02
  8.40806680E-02 -2.73248165E-01 -1.98785369E-01 -3.01854407E-01  8.43643618E-04
 -2.85345627E-02 -2.53582508E-02  4.32856690E-04  9.51775407E-03 -4.05751841E-04
  2.30270555E-04 -2.61589269E-02 -6.98154209E-02  2.73115891E-07  1.36129478E-06
 -1.12810842E-05  3.07909713E-05  5.97838906E-01  1.17694547E-06  1.78359809E-05
 -2.66064885E-04 -1.45425041E-04  5.50529568E-05 -1.52466717E-01  1.15236962E-04
  1.03698720E-04  1.56688183E-02 -5.37379222E-04  5.33416325E-03  8.17525943E-06
 -6.55196163E-04  9.30272840E-06  3.61643272E-05  1.48261989E-04 -5.01028225E-04
 -1.55236025E-04 -2.19598484E-04  2.08675977E-02 -1.79675438E-03  3.71293222E-03
 -1.93039989E-02  1.00498696E-03  3.94540988E-02 -2.19741329E-02 -7.58503856E-04
  6.54128429E-04 -2.88715607E-05 -6.83427377E-05 -1.00803283E-03  5.74365674E-04
  5.02501333E-04  2.49766921E-01  9.32713705E-03 -1.86377333E-02  8.34330743E-02
 -2.75720427E-03  2.40585712E-02  4.66674205E-02  1.33664453E-03  1.70688253E-03
 -4.67597906E-04 -1.56170150E-03  4.46673430E-03  4.74728913E-03  1.95074524E-05
  4.25683474E-01 -2.49789846E-02 -8.59145694E-02  2.50115800E-01  7.08840584E-02
  2.10273693E-06 -1.26070519E-02  2.31801971E-01 -1.87708817E-03  1.49169647E-03
 -1.20525423E-02  1.32846029E-03  6.07505801E-05  4.02946268E-03  4.40851649E-05
 -8.79420307E-03 -3.88854668E-02  1.59307850E-01  1.32235632E-02  8.97012631E-02
  1.21692688E-02  1.15246270E-01 -1.38759380E-01  5.50194227E-03 -6.82913987E-02
  4.97516063E-03 -2.14343315E-03  3.69837940E-02 -8.78883134E-02 -2.24021771E-02
 -7.44346333E-02  2.06410028E-01  5.77873903E-03 -7.73202592E-02  1.68339747E-02
 -2.83636845E-02  2.46108087E-01 -7.95568443E-03 -1.96676915E-02  7.70176155E-04
 -3.89857069E-03 -1.55103237E-02 -6.35436151E-02  1.17944726E-02  3.83498888E-02
 -1.40678370E-01 -1.38358900E-01  3.91373227E-05 -4.47815614E-02  5.45726691E-01
 -5.67990889E-05 -2.07098801E-04  5.78076973E-04  1.79838377E-04  2.84339408E-02
  3.58998073E-04  2.19676145E-03 -2.26490613E+00 -3.73936603E-04  9.47326645E-05
 -1.33076297E-04  6.66338640E-05 -1.60747726E-04  1.11591435E-01 -5.73131238E-03
 -2.76126851E-02  1.55065532E-01  7.93692112E-02 -8.61338382E-03 -6.82788772E-04
  1.63742113E+00 -1.33337825E+00  9.20725137E-04 -7.85121931E-02 -1.77822104E-04
 -3.23177489E-04 -5.76775734E-02  4.65624922E-03 -1.25376045E-02 -4.78254621E-02
  1.71366417E-01 -3.68005524E-02  7.84398210E-02 -1.21879004E-03  1.49264490E+00
  1.15056182E+00 -2.48442767E-03 -6.24761659E-03 -6.42636005E-04 -9.28892938E-04
  1.63670542E-02  7.59436297E-03 -8.11221280E-05 -2.72707977E-04  7.25571231E-04
  1.54669665E-04 -1.60619582E-01 -7.89578371E-05  1.69052731E-03  1.87824677E+00
  7.92835836E-04  2.87281698E-03 -8.69901628E-03 -5.05809840E-03  4.93989049E-06
 -2.79878327E-02 -8.68662702E-03  3.42861944E-04  2.10322421E-03  1.69475609E-03
  2.71299541E-03 -3.90317602E-06  3.35337062E-03 -8.99045972E-06  9.69191979E-04
  3.49501642E-03 -1.11332494E-02 -1.41353242E-03 -2.21582332E-03  2.04440926E-02
 -5.75869476E-03  9.50873992E-05  5.88128467E-03  1.88521112E-03  9.66559448E-03
 -4.24746927E-03  2.18742974E-05  1.31605196E-03  4.51322697E-04  1.70399101E-03
 -4.30745782E-03  3.47205689E-03  2.11297904E-03  4.87100371E-02 -1.29094051E-02
  7.27081552E-03 -7.95712451E-03  4.12060999E-03 -9.66774413E-06 -4.43126826E-03
 -3.75793433E-03 -1.87287301E-03  4.93964848E-04  1.89551760E-03 -7.18541081E-03
 -8.44392826E-03 -2.74141246E-05 -1.54503788E-02  1.81360701E-02 -2.98959686E-04
  3.45634474E-02  6.26314357E-04  1.66447058E-03  1.39028234E-03 -8.00203685E-05
 -6.71236461E-06 -1.33319515E-03 -3.50386781E-02  4.17884892E-04 -1.94113813E-04
 -2.16086004E-04  3.94638727E-05 -1.22889846E-06 -6.01867466E-03 -1.06053406E-05
  8.33114318E-04  3.84157602E-03 -1.42552943E-02 -3.30077362E-02 -7.66483503E-03
  4.65077354E-04  1.01724010E-02  2.57459629E-02  4.32982320E-04  1.32992704E-02
  4.66485789E-04 -1.00318789E-04 -1.77162333E-02  3.42488840E-03  8.07029474E-03
  2.69517731E-02 -7.31750128E-02  6.35096683E-04 -3.30232598E-03  2.25455297E-03
  1.94625827E-02 -3.11379226E-02 -1.01230237E-03  1.04470780E-02 -1.72470178E-04
 -2.94399963E-04  3.47396476E-03 -1.27191043E-02  9.54632814E-03  3.34459614E-02
 -9.54289502E-02 -2.08836015E-02 -2.16166712E-06  2.33395600E-03 -6.34811274E-02
 -3.71744762E-04  3.14548824E-03  3.67976777E-02  1.31274300E-04  4.75894769E-04
 -1.55940562E-03 -9.72791148E-04 -1.43294011E-05  3.09214460E-02  3.48311937E-04
 -9.41266925E-05 -2.97850794E-03  2.42245300E-04 -1.94499071E-03  7.94792321E-07
  8.03343576E-04 -6.03602955E-06  1.73910685E-04  6.15474449E-04 -1.95597825E-03
 -4.64873702E-04 -3.73460173E-04 -1.85409305E-02 -2.88519308E-03 -6.97891920E-04
 -3.62468737E-03  3.64977564E-04 -1.03393849E-02  4.67085898E-03  2.30462525E-04
  4.41002144E-05 -1.71250337E-04 -5.41521863E-04  9.57417198E-04  1.53014483E-03
  1.30773601E-03 -5.52132518E-02  1.76311604E-04 -4.09958159E-03  1.39794882E-03
 -6.09629178E-04 -1.33982972E-03  1.08937103E-03 -8.98265850E-04 -4.12442393E-04
  2.65284203E-04  7.55670313E-04 -1.19926941E-03 -6.32136172E-03  5.23655984E-06
 -1.12692177E-02 -1.47725598E-02  1.02270816E-04 -2.69522321E-02 -3.40732457E-04
  2.39010913E-02  1.35807886E-06  4.29217661E-06 -1.22023075E-05  7.80234027E-06
  1.45330730E-04 -9.44608589E-06  9.57702449E-07 -4.91891802E-04  2.32120491E-06
  6.29798601E-06  3.97174268E-06  1.68709122E-02  7.47763126E-06  2.05132567E-05
  4.76825591E-05  1.42373019E-04 -2.08212911E-04  2.38851801E-04 -9.76476901E-05
 -6.27923826E-02  3.72474903E-04 -7.49360010E-04 -9.19473613E-03  1.68876078E-04
 -8.40615874E-03  8.50747898E-04 -1.10208644E-04 -3.09492222E-04  2.19297654E-04
  7.23645863E-04 -2.02546709E-03 -1.02105782E-03 -1.46759018E-03 -6.19410455E-02
 -8.38735423E-04  6.78226765E-04 -9.86262206E-03  1.03873612E-04  8.09287224E-03
  5.01301837E-04 -3.54813971E-04 -3.73797434E-04 -2.29132290E-06 -7.27410555E-06
  1.62711162E-05  2.24514851E-06  2.08774222E-03  9.90308398E-06  1.16829552E-05
 -1.18706741E-03  4.10233349E-06 -3.45431511E-06 -2.38739908E-06  1.60756174E-02
  1.57064263E-03  3.42378172E-03 -3.19113719E-03  3.23630629E-02 -1.51730769E-05
 -1.71333492E-03 -2.98939022E-02 -2.22889935E-04  3.43817502E-04 -1.56168179E-02
 -8.42878717E-05  2.05332509E-05 -3.28965125E-02 -5.54051512E-06 -8.38166905E-03
 -2.79705139E-02  8.75161232E-02  3.81373134E-02 -3.51921285E-03  2.70268974E-04
  4.95285083E-02  6.67558724E-02 -4.78256151E-04  6.37488468E-03  2.20781212E-04
 -2.86621118E-04 -2.14435653E-02  2.58664892E-02  1.32836281E-02  4.32435790E-02
 -1.17482369E-01 -1.16834115E-01  1.05937466E-02  1.58427686E-03  1.07430717E-01
 -7.47730388E-02 -2.22424345E-04  1.28776496E-02 -2.66332229E-06 -5.50974566E-04
  5.43248145E-02  4.48714822E-02 -2.19738503E-03 -6.32428233E-03  1.12180668E-02
  2.13767116E-01 -1.33276077E-04 -3.46069735E-03 -6.22930423E-02  3.01217557E-04
 -2.68029268E-04 -1.05290718E-02 -4.15797980E-03 -3.28775243E-06  1.60256803E-01
 -7.29455540E-07 -1.44069551E-06  2.19735884E-06 -1.98656809E-05  1.25801948E-02
 -2.02302331E-05 -1.49857836E-05  1.05476963E-01  1.53319781E-05  4.90880717E-06
  2.69488531E-07 -2.49506728E-04  1.38296163E-05 -2.13519348E-02 -4.77480886E-03
 -1.59016950E-02  3.89772465E-02  5.43770828E-02  7.03915355E-03  8.64112913E-04
 -5.05869083E-02  7.28888622E-02 -4.42961543E-06 -1.00677799E-02  1.27368434E-04
  1.10008812E-04  2.37179959E-02  6.56617914E-03 -1.42975631E-02 -4.74168338E-02
  1.34332363E-01 -8.59420206E-03  6.43206786E-02  5.60661106E-04 -1.60931305E-02
  4.24172079E-03 -3.80007722E-04 -1.04271480E-02  1.44393721E-04 -4.46530098E-04
  2.17221459E-02  1.65962049E-02  1.94565008E-06  5.99531701E-06 -1.11316514E-05
 -1.65882361E-04 -1.18918638E-01 -5.57911571E-06  4.32416535E-05  3.36963127E-02
  3.20980976E-05  1.10801217E-05 -1.02784404E-05 -2.66661697E-03 -5.46662952E-05
  7.10017779E-02 -4.93278472E-04 -1.71084019E-03  6.84800357E-03  2.01014718E-03
  2.84088092E-03 -2.55732690E-05 -1.25559814E-02  1.00779964E-02 -5.66305400E-05
 -1.07586129E-03 -2.27195127E-05  9.40450330E-06 -5.20154362E-03 -5.34102898E-03
 -3.86344875E-04 -1.21614977E-03  2.90432758E-03  1.40023210E-03  2.64825255E-03
  1.51390742E-05  6.70409447E-03  1.48202606E-02  1.12403863E-04  1.13794083E-03
  2.93926325E-05  2.72844791E-05 -1.09615324E-03  2.30232119E-03 -4.92170276E-04
 -1.69691987E-03  6.73468183E-03  4.99034093E-04  4.77946202E-03  3.74075490E-05
  1.79441442E-02 -4.40925512E-03 -3.72305193E-04 -5.61237596E-04 -1.30502932E-05
 -1.28296238E-04  7.42502449E-03  2.98934827E-03  1.48723529E-03  5.23831726E-03
 -1.27283107E-02  1.29162678E-02 -2.42366736E-02 -2.90676446E-05 -2.23902708E-02
  1.24494962E-02  4.56604838E-04  8.07111992E-03 -1.72541686E-04 -2.21971712E-04
  1.33010056E-02  1.42824177E-02  1.86499569E-01 -1.65870751E-03 -6.07296114E-03
  2.60200189E-02  7.72974618E-03  1.01512341E-02 -6.16436456E-05 -3.95019021E-02
  3.96845036E-02 -1.93475479E-04 -3.09257955E-03 -7.18765706E-05  2.95693042E-05
 -1.63943974E-02 -1.80316771E-02 -1.22258794E-03 -4.22398850E-03  1.24068610E-02
  5.26005958E-03  9.90864351E-03  3.88447379E-05  2.09774754E-02  5.31925492E-02
  3.72342351E-04  3.69067313E-03  9.31613071E-05  9.61586128E-05 -3.13511316E-03
  6.21403931E-03 -1.69690700E-03 -6.19512678E-03  2.62612011E-02  1.68027957E-03
  1.75002458E-02  1.05927517E-04  5.96192154E-02 -9.54053771E-03 -1.30960153E-03
 -1.14089526E-03 -6.86289610E-05 -4.52399786E-04  2.48745516E-02  9.41063830E-03
  5.23550997E-03  1.78984306E-02 -4.07490995E-02  4.40865518E-02 -8.41121200E-02
 -6.86995264E-05 -7.43932584E-02  4.75060880E-02  1.72349233E-03  2.69552312E-02
 -5.46861870E-04 -7.32855246E-04  4.33026645E-02  4.73671859E-02  4.48088394E-01
  1.08478806E+00  5.75640199E-03  2.27843947E-02 -1.01229020E-01 -3.92043270E-02
 -4.58803728E-02 -6.99218132E-04  9.37950694E-02 -1.56353238E-01  4.74719974E-04
  7.28747578E-03  2.07701003E-04 -8.32144247E-05  4.98399735E-02  4.87391964E-02
  3.02261907E-03  1.26974006E-02 -4.70615173E-02 -2.05805287E-02 -3.88151285E-02
  3.06602365E-04 -5.43927796E-02 -1.79898179E-01 -6.56866289E-04 -7.96345850E-03
  2.54390272E-05 -3.95427698E-04  5.86717256E-03 -1.20279614E-02  6.73517054E-03
  2.62630449E-02 -1.12653185E-01 -1.22225694E-02 -7.75353983E-02  6.61941132E-04
 -1.67982571E-01 -3.47788952E-03  3.36220638E-03  2.07864168E-03  3.23502687E-04
  1.23531765E-03 -7.03199781E-02 -2.95590516E-02 -1.33975854E-02 -4.29540214E-02
  7.57616675E-02 -1.24775264E-01  2.73348984E-01 -1.01894126E-03  2.06299736E-01
 -1.70503248E-01 -4.37883627E-03 -7.31945652E-02  9.82120125E-04  2.05031584E-03
 -1.17657258E-01 -1.34200722E-01 -5.80152365E-02 -2.20002209E-01  8.14587786E-01
 -5.36686207E-03 -1.94330361E-02  8.50372610E-02  2.20270614E-02  3.38650839E-02
  1.52449527E-04 -1.84959244E-02  1.10445982E-01 -2.73953561E-04  2.81592276E-02
  6.97225568E-05  1.18916513E-04 -3.01190002E-02 -5.82313011E-02 -1.32843646E-03
 -4.99264871E-03  1.88873403E-02 -1.37712817E-02  3.21052638E-02 -2.14023770E-04
 -7.39233478E-02  4.52208257E-02  6.58908416E-04 -7.15561767E-03  3.81582762E-05
 -2.63719414E-05  4.65459207E-03 -2.06043545E-02  4.96498662E-04  1.67099855E-03
 -1.21815717E-02 -2.92072676E-03 -9.19856432E-03 -1.66380627E-04 -8.60093809E-02
  3.66834979E-02 -1.24248849E-03 -8.82144721E-03 -4.71133914E-04 -7.18259727E-05
 -2.94191265E-02 -1.42774654E-02 -1.47439462E-02 -5.12491052E-02  1.68356054E-01
 -8.51925586E-02  1.98746444E-01  6.59950106E-04  5.82386962E-03  3.62116171E-02
  3.48976346E-03  6.25854553E-04  1.51857928E-03  1.02817560E-03 -1.16815790E-01
  8.74813440E-03 -8.00487807E-04 -3.02729257E-03  2.20665295E-02  5.52122061E-01
 -1.95324597E-03 -7.27827950E-03  3.03349949E-02  1.36135976E-02  1.87543184E-02
  6.87798100E-06  3.73027850E-02  3.37254790E-02  5.60378570E-05  4.34496855E-03
 -9.02325975E-05 -2.20052109E-04  7.41131101E-03 -6.31653950E-03 -2.64098969E-03
 -9.87181586E-03  3.88478399E-02  3.17891902E-02  1.91440549E-02  3.57773438E-04
  7.94082844E-03  3.06735052E-02 -3.43101632E-04 -7.67673546E-03  2.03695106E-05
  1.12810419E-04  8.52005856E-03 -1.11850896E-02 -4.77804965E-03 -1.74949743E-02
  7.75119821E-02  9.21643826E-03  5.54164617E-02 -5.87960309E-05  4.79105162E-02
  1.38586078E-02  1.47540546E-04  2.06463548E-02  1.80336785E-04 -4.36190261E-04
  5.61950636E-02 -3.16692385E-03  2.34432639E-02  8.10787879E-02 -2.64569305E-01
  1.81249617E-01 -3.02003003E-01 -5.86461128E-04  7.72977454E-02  7.81234644E-02
 -2.06462421E-03  3.30315405E-03 -1.31254924E-03 -1.48136237E-03 -1.04850619E-02
  6.43297849E-02 -3.32556980E-03 -1.14318149E-02  4.79135597E-02  1.78322883E-02
  5.44465906E-01  6.75699001E-06  2.62954209E-05 -9.28066692E-05 -5.28664736E-05
  1.24259547E-04 -7.16307001E-02 -6.48532789E-04 -7.71756632E-04  1.50308217E-02
  2.02496136E-04  1.17570448E-02  6.54537976E-02  2.31920982E-04  3.34936480E-05
 -4.62704431E-06 -2.18929174E-05  1.28237587E-04  3.90955704E-04 -3.45560409E-04
 -1.49099978E-01  2.55787167E-03 -5.03820671E-04 -2.63743682E-02 -4.16567273E-04
  5.97658252E-03 -1.01179488E-02  3.51528367E-04 -2.53636393E-05  3.42608326E-05
  9.45123386E-05  7.12152939E-04 -1.68886070E-04  6.71583993E-05  1.86577331E-02
 -3.53944681E-03  6.07083510E-03  3.67925364E-03  9.59748526E-04  4.16642608E-02
  2.37011113E-02 -9.03088101E-04 -2.67082806E-04  1.30955635E-04  4.54587579E-04
 -2.42502055E-03  3.44826788E-04 -9.39633079E-04  2.49784459E-01  1.69470542E-02
  7.76758663E-04  4.87042612E-02  2.25775068E-03 -5.51890223E-02  6.19685911E-02
  1.59924126E-03 -4.94881651E-04  3.97035190E-05  1.10809196E-04  6.67613313E-04
 -3.69516279E-04  2.43364483E-04  5.01572917E-01 -3.07858901E-03 -1.63722079E-02
  8.86949360E-02  8.61681678E-02 -5.54503506E-02  1.87097268E-03  7.65884249E-02
  1.96596422E+00  9.84284476E-04 -3.98634229E-03 -3.79165490E-04  6.40496145E-05
 -3.88693281E-02 -1.26935360E-01 -1.28804425E-02 -3.97240329E-02  7.92945003E-02
 -4.15812027E-02  4.89087038E-02 -3.07762446E-03 -1.26534532E+00  1.21993120E+00
 -3.91748417E-03  5.42803797E-02 -1.18852883E-03  7.16851045E-04  4.25001107E-02
 -1.25188772E-02  1.80309009E-02  5.99279588E-02 -1.68814185E-01 -8.55038062E-02
 -4.81551096E-02 -3.23942618E-03 -1.06246729E+00 -9.78223986E-01  6.86160189E-03
 -1.82230860E-03  8.98683592E-04  1.84312200E-03  7.10219232E-02  1.20660377E-02
  6.62227391E-03  2.82740464E-02 -1.13533107E-01  1.87738784E-01  2.84960086E-02
  9.52549600E-03 -3.16478485E-02 -1.49083105E+00 -1.24120267E-02  2.01641534E-02
  3.03797197E-05  8.27072515E-04  1.06961823E-01  1.59505932E-02  1.04794867E-02
  3.69836296E-02 -1.25267170E-01 -7.83393293E-02  3.31073274E-02 -4.18056656E-03
  1.42342017E+00  1.50657089E-02  4.75293739E-02 -1.17809433E-01 -3.32640193E-03
 -4.63143339E-02  3.23610612E-03 -1.24608106E-01 -1.36887657E+00 -4.84071108E-04
 -2.75888397E-03 -5.87808177E-04  4.91023845E-04 -5.99591525E-02  5.09576423E-02
 -4.75461959E-03 -1.78933046E-02  8.40206536E-02  1.72730881E-02 -1.19767273E-02
 -6.46114247E-03  1.02351716E+00 -7.70823891E-01 -2.00627495E-03 -1.86576181E-02
 -1.86178045E-03  3.38651011E-04 -5.65084569E-02  3.77479360E-02  4.36851864E-03
  9.39354304E-03  3.88348794E-03 -3.69580214E-02  1.41064784E-02 -6.30295575E-03
  9.78710390E-01  6.19102150E-01  2.02482174E-03 -6.19060482E-03 -4.34691093E-04
  1.20198051E-03  2.50566992E-02  3.03420839E-02 -9.11770640E-03 -2.83689748E-02
  8.74474450E-02  8.59543295E-02 -2.55325901E-02  1.85025521E-02 -2.44330329E-01
  1.15030912E+00 -7.61236979E-03  3.08059817E-02  4.22705947E-03  6.61632260E-04
  7.50324115E-02  4.17625025E-03  3.04268489E-02  1.02980405E-01 -3.05324233E-01
 -6.35188255E-03 -1.14043393E-01 -2.91454000E-03 -8.67973665E-01  9.28650062E-01
 -3.25332139E-04 -1.17420302E-03  3.43377710E-03  1.78358630E-03 -2.72882581E-05
 -1.77290428E-02  3.70604840E-03 -3.95336835E-03  2.89020409E-03 -7.74059207E-04
  7.91396642E-04  1.02338065E-02 -1.38005801E-03  1.98117238E-04 -4.46082226E-04
 -1.60553760E-03  5.08962418E-03  8.82127067E-04  6.67222479E-04 -3.35969589E-02
  5.17477006E-03 -2.17109638E-03 -9.15838509E-03 -1.07170201E-03  6.22961176E-04
 -2.33397026E-03  1.21966433E-04 -3.97586110E-04 -3.70062803E-04 -1.30044455E-03
  3.32539737E-03 -1.22622438E-03 -1.80569968E-04  3.69843333E-03  7.70049819E-03
 -1.43213481E-03  1.10701284E-02 -2.02924360E-03  9.13780343E-03  9.75646282E-03
  1.40053836E-03  1.08145729E-03 -3.74254763E-04 -1.33417772E-03  4.20677725E-03
  2.87883823E-03 -4.11914455E-04  8.34519193E-02 -8.00389970E-03  3.47601320E-03
 -7.94700297E-03 -9.98068541E-04  1.39374964E-03  9.86692227E-03 -2.09086079E-04
  3.43907153E-04 -2.31582305E-04 -8.24382592E-04  1.87840325E-03 -1.61608236E-03
  5.26030221E-05  8.09199429E-02  2.18559297E-03  6.02587398E-03  2.34986786E-02
 -5.47389204E-05  5.40383294E-04 -2.16921622E-03 -1.18980511E-02 -1.80627467E-02
 -7.98253100E-04 -8.26443672E-03  3.77736317E-02 -2.71500222E-04  3.37263754E-03
  5.10397234E-05  2.78196284E-05  1.54460090E-02 -1.20315304E-02  4.17795695E-04
  9.81551787E-04  1.88314495E-03  7.99791608E-03  9.67132020E-03  5.80662319E-04
 -2.12273978E-02  1.89228569E-02  9.00127747E-04  4.98964437E-03  4.02353531E-04
 -6.23534871E-05  4.38558337E-03 -8.53265085E-03 -5.59614399E-04 -1.13480791E-03
  2.05729042E-03 -8.82787905E-03 -2.06476064E-02  9.42187465E-04 -2.13254927E-03
  6.04713259E-03 -2.04313405E-03  6.59741396E-03 -9.19270738E-05 -5.31566565E-04
  5.75656244E-03 -1.00057534E-02  5.40775885E-03  1.79698404E-02 -4.90229775E-02
  2.05622047E-02 -9.52491615E-03 -2.77171817E-03 -1.96482134E-02  5.87129051E-03
  4.13094362E-03  1.04516412E-02 -6.13476867E-04 -1.06927726E-04  1.29005347E-02
  1.04110229E-02  7.58244274E-03  2.65780538E-02 -7.92034848E-02 -2.54489709E-03
 -1.08363115E-03  1.13933322E-03  1.52426977E-02  1.66076735E-02 -1.89381259E-03
  1.83139932E-02 -7.44203900E-05 -2.68183944E-04  8.38434196E-04  5.29047849E-04
  1.65671983E-05 -4.40573598E-02  8.85079612E-04 -7.22488230E-04  5.78528015E-04
 -5.10558703E-05 -1.38978380E-03 -8.51052017E-03 -2.03826589E-04 -4.93747491E-06
 -7.87878165E-05 -2.94995764E-04  1.04557248E-03  2.17826512E-04  3.58439089E-04
  1.27510472E-02  1.11303848E-03 -5.98106889E-04 -1.77431564E-03 -2.58423808E-04
  8.54331787E-03 -5.56034182E-03  3.06800953E-05 -2.22269416E-04 -1.43288117E-05
 -7.31641525E-05  3.41727251E-04 -4.77858567E-04 -1.88327104E-04  4.16400500E-02
  7.69387407E-04  3.69005311E-04  9.12906240E-03 -8.79080398E-05 -1.92104626E-04
  2.68386133E-03  6.72932092E-05 -1.23154435E-04  9.16312777E-05  2.42262262E-04
 -4.47047891E-04 -2.07106493E-04  3.92549783E-04  2.40212341E-02  7.91381015E-04
  5.12461647E-04 -6.79512858E-06 -1.70933842E-04 -1.34247700E-03 -8.09043005E-03
 -2.39974123E-05 -1.31692982E-04 -4.64248763E-05 -2.04868976E-04  9.23407345E-04
  2.70503067E-04  2.33517771E-04 -2.15513617E-02 -1.17524647E-04 -9.61583122E-06
 -9.91264925E-04 -1.58688688E-04  8.08168780E-03  6.54410210E-05  2.35704929E-04
 -6.61005364E-04 -3.84925311E-04  3.83380717E-05  1.86729846E-02 -1.13944680E-03
  8.19324418E-04 -1.43991108E-03  1.37652028E-04 -1.07224224E-04  4.20031915E-04
  1.95430165E-04 -3.59950307E-05  9.26631196E-05  3.36935863E-04 -1.09553655E-03
 -2.25018747E-04 -2.35040787E-04  4.10392790E-04 -7.50412857E-04  5.27368782E-04
  2.98043481E-03  2.76847094E-04 -3.91225522E-03  2.51211730E-03 -1.13742690E-04
  6.88381658E-05  1.27372762E-04  4.48482274E-04 -1.22052653E-03  7.71914682E-05
 -4.13902326E-04 -2.37193605E-02 -1.83288640E-03  1.21792062E-03 -9.76101905E-03
  5.26234300E-04 -2.68881502E-03 -5.38633067E-03 -1.79932196E-04 -2.40565501E-04
 -3.96051233E-05 -1.72888880E-05 -5.32551799E-04  3.25920810E-04  2.30801866E-04
 -4.66849597E-02  3.87103735E-03 -8.92969659E-04  4.43169758E-03  2.93739768E-04
 -1.08800184E-03  5.02740732E-04  5.39907970E-04 -4.42822101E-04  5.88996644E-05
  2.33248867E-04 -7.05396899E-04  2.92067989E-04 -3.17751397E-05 -2.00412970E-02
 -3.57058840E-04 -1.89636673E-03 -9.16769989E-03  5.03621144E-04 -3.16590823E-03
  5.43715479E-03 -2.04960741E-03 -7.45134365E-03  1.84012956E-02  2.40319919E-02
  2.21476847E-02  4.34649473E-04 -2.11037891E-02 -6.70053098E-02  2.43836828E-04
 -1.61559375E-02 -1.18062692E-04  6.18253581E-05 -2.63328565E-02  2.23010894E-02
 -1.13287843E-03 -3.25844835E-03  6.98811143E-03 -2.45625725E-03 -1.03004771E-02
 -8.95967743E-04  7.32200961E-02 -2.42030884E-02 -9.05133796E-04  4.13354096E-03
 -3.66977670E-04  4.27343209E-05 -2.38551423E-02  3.76476504E-03  7.42723259E-03
  2.48835245E-02 -7.03480190E-02 -2.94399248E-02 -5.62228529E-02 -9.11826638E-04
  7.12873661E-02 -2.48917166E-02  1.41863072E-03  5.77440787E-03  6.56011153E-05
  1.78667987E-04  1.72916387E-02  7.29036904E-04  6.25512468E-03  2.07489579E-02
 -5.79688485E-02  8.63539009E-02  2.61008449E-02  1.33150700E-03 -1.55469641E-02
 -1.60470046E-02 -3.77175775E-03  3.50791200E-03 -8.92818531E-04  3.51637654E-04
  5.42758493E-02 -2.17775310E-02  2.43183027E-04 -4.32805436E-04  6.14882013E-03
 -1.07163657E-01 -7.35009537E-03 -6.95879589E-04  4.10383340E-02  2.64798807E-02
  1.37493500E-03 -5.31611455E-03 -1.52539107E-06 -7.73648444E-05  5.10285669E-02
 -6.84397522E-03 -2.21973205E-02  6.57480371E-02  1.36124752E-02  4.79619659E-02
 -9.36932511E-05  5.26956763E-02  1.05714710E-02 -1.81352541E-04  7.04483375E-03
  7.39061562E-05 -8.26814820E-06  3.55799292E-02  5.70604630E-03  3.73944195E-03
  1.14226970E-02 -2.81337331E-02  1.44683927E-02  1.16188398E-02  5.46242288E-04
 -1.29389181E-02 -6.64511079E-03  6.84926917E-04 -3.55981519E-03  2.84212619E-04
  5.72349360E-05  3.37963218E-03 -2.39323225E-02 -2.99798327E-03 -9.43934529E-03
  2.96324726E-02  1.42990756E-02 -3.12048237E-03  2.44296910E-04 -1.23489833E-02
  3.02488007E-02 -1.09861500E-03  9.98816551E-03  1.12679059E-04 -2.49102674E-04
 -7.84411479E-04 -3.02844515E-02  1.49374750E-02  4.92739300E-02 -1.39499831E-01
 -2.30297863E-02 -6.98079513E-02 -1.70376075E-03  6.35936658E-02  7.30175254E-03
  1.89988049E-03  1.26998117E-02  3.99027518E-04 -3.69856313E-04 -4.48800972E-02
  1.66612378E-02 -2.82390258E-03 -7.26219726E-03  1.30437216E-02  1.82830154E-02
  1.23876610E-01  8.08365280E-04  7.53128046E-03 -9.02190775E-02 -1.04680550E-03
  7.14159047E-03  5.18845087E-05  1.29027733E-04 -1.79038152E-02  7.26309639E-02
  1.61174584E-03  5.65258610E-03 -1.34449913E-02 -1.19136911E-02 -2.44141225E-02
  2.76764928E-06  7.35263558E-03  1.58600092E-02 -1.00834894E-04  6.88163530E-03
 -6.10892465E-06 -1.84259031E-05  1.62598078E-02 -1.30503213E-02 -4.85553426E-04
 -1.69462453E-03  7.15594137E-03 -7.39979680E-04  4.83536946E-03 -9.38451078E-06
 -2.46758702E-02  4.51772446E-03  1.48840492E-04  1.03366547E-04  3.51737850E-05
  2.05302245E-05  7.19650385E-03 -4.64057883E-03 -3.86433488E-04 -1.22295278E-03
  3.02416507E-03 -1.32644839E-03  2.64356330E-03 -7.44106596E-06 -1.30379310E-02
  4.67468137E-03 -4.51449244E-04  4.16480218E-04 -8.03350910E-05 -9.42146676E-05
 -1.13686904E-03 -3.73889073E-03 -4.57332646E-04 -1.58635737E-03  6.20158947E-03
 -3.19869008E-03  2.79571023E-03  3.59554940E-05 -8.79677476E-03  5.55258272E-03
  9.73415559E-04  8.33151982E-04  1.72568004E-04 -4.94447321E-05 -8.37218961E-03
  4.78493164E-03  1.62475528E-03  5.75246950E-03 -1.43518056E-02  2.86488940E-02
  5.84458260E-05 -2.89759005E-06 -2.53116700E-03 -4.91855174E-03 -3.87994520E-04
  6.84177924E-03 -6.31206137E-05  8.49648361E-05 -1.65435000E-02  5.71821002E-03
  1.86612730E-01  5.68985253E-03  1.94300950E-02 -4.37048518E-02 -4.05752227E-02
 -8.47533460E-02  1.94140290E-05  2.16310242E-02  5.56598811E-02 -3.78593985E-04
  2.27417829E-02 -2.42416913E-05 -5.88208422E-05  5.36847964E-02 -4.28183847E-02
 -1.69457572E-03 -6.21102109E-03  2.76501821E-02 -2.62085409E-03  1.75754371E-02
 -4.11775756E-05 -8.04768090E-02  2.01100969E-02  5.38807780E-04  1.29617115E-03
  1.15259971E-04  7.55460764E-05  2.38534317E-02 -1.51081923E-02 -1.21643241E-03
 -4.22515693E-03  1.27026052E-02 -4.98540390E-03  9.88098337E-03 -3.20284917E-05
 -4.02828602E-02  1.76078696E-02 -1.62388295E-03  9.76988138E-04 -2.98915173E-04
 -3.41787882E-04 -3.27205536E-03 -1.14215676E-02 -1.59128811E-03 -5.77437718E-03
  2.37903946E-02 -1.17947513E-02  1.00162681E-02  1.47723109E-04 -3.88878361E-02
  2.69850098E-02  3.51020547E-03  3.84217333E-03  6.11627945E-04 -1.47675024E-04
 -2.79399077E-02  1.59356688E-02  5.75644382E-03  1.97437978E-02 -4.58317077E-02
  9.91331632E-02  1.72931564E-04 -1.83866515E-05 -1.48732962E-02 -5.51897120E-03
 -1.43090151E-03  2.28477962E-02 -2.16223789E-04  3.02990281E-04 -5.43612029E-02
  1.89531569E-02  4.48486562E-01  1.08622674E+00 -1.50610988E-02 -4.86247670E-02
  8.91133536E-02  1.10946586E-01  2.77737821E-01 -1.41846954E-04 -4.12975850E-02
 -1.47679497E-01  1.29660883E-03 -6.04539207E-02  8.40150466E-05  1.52745972E-04
 -1.44969217E-01  1.17201074E-01  7.15417879E-03  2.76446768E-02 -1.21820931E-01
  1.84908755E-02 -7.72412558E-02  1.87212816E-04  1.90886653E-01 -7.07908910E-02
 -1.71186545E-03 -5.29379532E-03 -2.95245281E-04 -2.35745177E-04 -6.23297264E-02
  4.45439277E-02  2.90491738E-03  1.24090273E-02 -4.70730859E-02  1.88609910E-02
 -3.88866205E-02  1.64947191E-04  8.09721368E-02 -8.31666485E-02  5.12855943E-03
  1.89178969E-03  1.05020053E-03  1.10737231E-03  7.02849112E-03  2.81389124E-02
  6.16902953E-03  2.36731362E-02 -9.85209447E-02  5.18659107E-02 -4.68387066E-02
 -5.05489935E-04  1.59279847E-01 -1.53229068E-01 -1.11790868E-02 -1.42679602E-02
 -1.95242749E-03  2.17260919E-04  8.74547135E-02 -3.90924907E-02 -1.42870303E-02
 -4.54866706E-02  7.64017391E-02 -3.16677761E-01 -1.74531148E-03  9.19659907E-05
  1.10401999E-01 -5.59991835E-02  4.71076919E-03 -6.06310901E-02  5.80366239E-04
 -9.36735972E-04  1.50439420E-01 -5.58588508E-02 -5.95704698E-02 -2.25901590E-01
  8.40938981E-01  1.58108974E-02  5.50745225E-02 -1.80464358E-01 -6.07855516E-02
 -1.98298040E-01 -1.87697693E-04  8.60088492E-02 -7.38221031E-02 -9.90652629E-06
  5.33994245E-03 -2.53302953E-05 -1.73415605E-04  1.09538926E-01  2.36416083E-02
 -7.41314499E-04 -2.62553601E-03  1.85107079E-02 -1.58670303E-03  8.69480725E-03
  2.30443772E-05 -5.69779036E-02 -8.01772412E-02 -4.43675221E-04  7.09606161E-03
  2.24107464E-05 -1.79464434E-05  2.61779669E-02 -8.23098973E-03  1.40058561E-03
  5.26092949E-03 -2.05788489E-02 -1.37978194E-02 -3.17934740E-02  3.04994517E-04
 -4.13884593E-02 -1.71773991E-02  8.77080760E-04  7.99602766E-03  2.19996818E-04
  2.28191038E-04 -2.45158600E-03 -1.44569101E-02  4.86754845E-03  1.76465115E-02
 -8.13852623E-02  3.83742248E-02 -3.58815290E-02 -1.63862009E-04  1.31229733E-02
 -7.91585227E-02 -1.41204196E-03 -3.29945414E-02 -4.74994583E-04 -1.95853119E-04
  3.81028197E-02 -5.44176211E-02 -2.90656007E-02 -1.00492043E-01  3.18092815E-01
 -4.05710840E-01  3.07583843E-04  8.29688554E-04  7.06342712E-03 -1.19479398E-01
  7.70499346E-04 -5.84803910E-03 -1.23536310E-04 -2.85559069E-04  4.81685690E-02
  5.98298317E-03  5.92878500E-04  2.30460428E-03 -2.07538518E-02  5.72554317E-01
  2.42449924E-02  8.38706170E-02 -2.71698604E-01 -1.79910030E-01 -3.04618113E-01
 -6.11956749E-04 -8.25119123E-02  1.36038740E-01 -1.95154563E-04 -1.30132539E-03
 -2.17397099E-05 -4.91823640E-05 -1.31150412E-02 -6.36178374E-02 -4.83602427E-03
 -1.75777231E-02  7.72415035E-02 -8.68768811E-03  5.34827316E-02 -3.65631948E-05
 -9.03123773E-02  2.97893356E-02  1.50338365E-04  2.34856754E-02  5.38673311E-05
  7.39714422E-07  5.51553693E-02  6.44524880E-03 -2.64821055E-03 -9.90874276E-03
  3.88231424E-02 -3.20713563E-02  1.91728344E-02  4.31239505E-04 -4.90658614E-02
 -1.20881861E-02 -6.56082395E-04 -9.67738827E-03 -3.46989247E-04 -2.29387161E-04
  1.03222478E-02  1.16365151E-02 -2.30490661E-03 -8.34049436E-03  3.17103314E-02
 -1.68050044E-02  2.08171765E-02  1.64420894E-04 -8.96881442E-02 -8.77237002E-03
  2.18355887E-03  7.68163525E-03  4.08673046E-04 -1.32410736E-04  3.51851971E-03
  7.05753972E-03  5.69290579E-05  1.81845218E-04 -2.64023790E-03 -1.42308829E-03
  2.65506621E-02 -7.91446966E-04 -2.80873343E-02  1.55530406E-01 -7.55846224E-04
 -3.95987926E-03 -2.28964782E-04  1.76425153E-04  2.11114444E-03 -1.03710968E-01
 -3.55587464E-03 -1.21623728E-02  5.10696675E-02 -2.13636874E-02  5.70257415E-01
  3.69695904E-05  1.28859471E-04 -4.29640467E-04 -2.41961096E-04 -6.06216499E-04
  2.58172107E-01 -1.01277471E-04 -7.64187835E-04  6.04704729E-03  2.32365723E-04
  1.55757053E-02  6.55180157E-02  2.74410173E-04 -1.82149389E-04 -1.25500717E-05
 -5.24961810E-05  2.31929047E-04  2.53755699E-05  1.37729396E-04 -5.99378439E-02
  1.30900940E-03 -1.97914091E-03  1.14894751E-02 -3.21448740E-04 -3.83781282E-02
  3.01083162E-02  4.54514557E-04 -3.14419156E-04  1.64346764E-05  4.28141726E-05
  2.92698838E-04 -1.83043318E-04 -3.16135565E-04 -1.49111825E-01 -2.92521684E-03
  6.54371733E-03 -3.36057339E-02  5.64483468E-04  1.27476561E-02 -4.15742557E-04
 -8.98663134E-04 -5.61169604E-04  1.06124264E-04  3.71211713E-04 -1.61162607E-03
 -1.64603664E-03  2.44957780E-04  2.08635393E-02  1.21803900E-02  8.32576983E-04
  2.04387583E-02  4.92020380E-04 -1.85099077E-02  6.28003490E-02  2.59144374E-04
 -8.33911692E-04 -2.50210701E-06 -2.16719370E-05  4.91166719E-04  5.45631777E-04
 -9.02991057E-04  3.40456368E-01 -3.89590371E-03 -2.22971735E-03  4.48893861E-02
  8.09215109E-04 -5.13603619E-02  4.21995357E-03 -5.83273799E-04  4.99483565E-04
 -9.22740999E-06 -3.53329168E-05  8.84902627E-05 -2.28007811E-04  2.42450265E-04
  4.37159631E-01 -1.14270734E-02 -4.53571357E-02  1.68879096E-01  1.75736382E-01
 -6.15749988E-02 -2.25556522E-03  1.75284163E-02  2.23710790E+00  1.32893592E-03
 -1.94000446E-02  1.40895140E-04 -2.08996758E-05 -1.23549876E-01 -1.60030298E-01
 -2.45383781E-02 -7.99908971E-02  1.89414678E-01 -5.71918551E-02  9.02658102E-02
  1.17310629E-03 -1.39206099E+00  1.38920347E+00 -1.98825043E-03  2.56981089E-02
  5.19391715E-04  5.14391263E-05  4.41174693E-02 -5.83953926E-03  6.77268659E-03
  2.12224197E-02 -5.50389849E-02 -7.33995446E-02 -8.18548083E-03  2.89226944E-03
 -1.26683351E+00 -1.02400803E+00  4.25248817E-03 -2.09711201E-02  1.26142742E-03
  7.68398064E-04  7.30175696E-02  1.26771366E-02  6.07319878E-03  2.61530877E-02
 -1.14274652E-01  5.79147005E-02  1.54779842E-02 -1.62652080E-03  1.12096672E-01
 -1.63740888E+00 -5.22426037E-03  1.08364210E-02 -3.04073578E-03 -3.78803365E-04
  4.90760762E-02  5.05837441E-02  4.23058324E-03  1.83705857E-02 -9.33097678E-02
  2.40954362E-02  6.33221259E-02  1.35296752E-03  1.49753417E+00 -1.01886012E+00
 -6.14056018E-04  2.63977100E-03  7.71206897E-05  4.03512973E-04  1.34858226E-02
  1.82940468E-02 -1.11108148E-02 -4.22994386E-02  1.72911345E-01 -1.11050192E-01
 -5.85439357E-03 -3.02280655E-04  1.73861235E+00 -3.95226104E-03 -1.18408381E-02
  3.18894709E-02 -2.38515228E-02 -5.26337796E-02  2.78232010E-04  1.41996354E-01
  1.91647847E+00  3.19369922E-04  1.93654256E-02  2.20890879E-04 -2.11045944E-04
  8.75236692E-02 -1.45187668E-01 -4.41579540E-03 -1.97529345E-02  6.97712259E-02
  8.00987764E-02  2.95690809E-02  1.88947902E-03 -1.38701237E+00  1.13479079E+00
 -2.61885482E-04  1.69375711E-02  3.36677486E-04  4.31412152E-04  1.25885489E-01
 -4.04784581E-02 -1.47883769E-02 -5.30751751E-02  1.79560467E-01 -4.48128564E-02
  3.05579715E-02  7.54735145E-04 -1.21925272E+00 -7.69791290E-01  1.38671664E-03
 -1.87910004E-02  7.09298577E-04  5.41442784E-04  2.39680999E-02 -6.75720520E-03
  7.14152560E-03  1.91849455E-02 -3.67040345E-02 -3.91105751E-02 -6.54739329E-02
 -3.57638137E-03  1.36927077E-01 -1.33153396E+00  3.40526621E-04 -2.54165692E-02
  5.53702957E-04 -7.46118987E-04 -6.69717765E-02  7.29127089E-02 -1.23589139E-02
 -3.49961949E-02  6.42669473E-02  1.18782992E-01  1.52299791E-01 -1.07541973E-03
  1.13483837E+00 -9.96441154E-01 -2.79989256E-03  1.55323403E-02 -9.09842120E-05
  3.76145372E-04 -8.45737818E-02  9.55066793E-02  2.64574529E-02  8.70382212E-02
 -2.28317443E-01  3.02623763E-02 -9.54147589E-02 -7.17176419E-04  1.30009375E+00
  1.35744315E+00  1.41607657E-04  5.04210209E-04 -1.45663196E-03 -6.56485477E-04
 -3.22269741E-04  7.81685938E-02 -1.13324210E-03  2.41199049E-03  7.10163069E-04
  4.26941593E-04  3.31926079E-03  9.38157556E-03  7.64876457E-04 -2.65535831E-04
  1.42472519E-04  5.10982520E-04 -1.60223977E-03 -3.68438266E-04 -1.46132882E-04
  1.14934933E-02 -2.73767780E-03  8.46909196E-04  8.37460265E-03  2.29200254E-04
 -8.70613894E-03  8.96484616E-03  2.28816462E-04  3.27359817E-05  9.65740195E-05
  3.14877259E-04 -4.66543999E-04  6.23646396E-04  3.74946466E-04 -2.64223139E-02
 -4.60087227E-03  1.64371112E-03 -9.16715900E-03  8.71555318E-04 -1.78182063E-03
 -2.98249079E-03 -8.91712602E-04 -6.76881674E-04  3.02529163E-04  9.71602095E-04
 -2.67791963E-03 -2.81492619E-03 -3.26487167E-06 -1.93456907E-02  5.55898924E-03
 -1.56747847E-03  5.87032640E-03  4.01267778E-04 -3.60743900E-03  9.19663275E-03
 -5.34725623E-04  5.85290999E-05  8.27866138E-05  2.56876477E-04 -1.72562146E-04
  1.12514025E-03  3.91995186E-05  4.54151175E-02 -1.75231328E-03 -3.54027066E-03
  2.40722152E-03  9.36364257E-04 -1.12011787E-02  3.55968102E-03 -1.07296229E-03
  8.77957329E-04  1.98436245E-04  7.36878829E-04 -2.53045936E-03 -2.29414373E-04
  6.17797816E-05  8.46438707E-02  5.80212980E-04  2.19110341E-03  1.92077034E-02
  5.69962704E-03  1.90678871E-02 -4.95996725E-02 -2.43720733E-02 -7.70863067E-03
  1.87559865E-04 -7.84203076E-03 -6.15107354E-02 -3.21186746E-04  9.40710545E-03
 -7.94853335E-05 -3.19927611E-05  2.01457467E-02 -2.95137693E-03  9.93832124E-05
  1.28253487E-03 -5.25383208E-03  7.09090363E-03 -2.34871599E-02 -3.53064079E-04
  2.51315841E-02 -1.66282949E-02  2.32992533E-04  7.31488915E-03 -6.71060155E-05
  9.27939314E-05  2.67981276E-03  6.40130237E-03  1.13572307E-03  3.68259476E-03
 -7.93626900E-03 -7.16432745E-03  7.67913711E-03 -4.32466371E-04  5.37210971E-02
  1.83466010E-02 -1.06085473E-03  4.98219138E-03 -2.58339544E-04 -2.79826771E-04
  4.12767342E-03  3.55596999E-03  7.89554140E-04  3.59178951E-03 -1.15947602E-02
  1.48863440E-02 -1.85905971E-02  9.88707949E-04 -6.82644236E-02  7.79171025E-02
  1.88186648E-03  1.32922759E-02  3.69149746E-04 -1.76332531E-04  6.38974709E-03
  1.00632816E-02  7.73967062E-03  2.61617197E-02 -7.18803399E-02  8.10809157E-03
 -1.70147983E-03 -4.29875618E-04 -4.33209883E-02  7.05460471E-02 -7.66216824E-04
  1.37992113E-02 -2.22564945E-04  1.88640758E-04 -1.03055954E-02  3.83427105E-03
  8.46704793E-03  2.98133982E-02 -9.09875631E-02 -2.22844363E-03 -1.13390850E-05
 -4.36252195E-04 -7.73472088E-02 -3.19729886E-02  1.65101285E-04  2.33998132E-02
 -1.17535047E-05 -3.60585596E-05  1.33128366E-04 -4.99840847E-05  1.84013985E-04
 -4.79959881E-02 -1.64070557E-04 -1.00779742E-04  2.24513548E-03  1.05036770E-04
 -1.57105486E-04  8.79642866E-03  2.11017341E-04  2.42218087E-05  3.82174367E-05
  1.25073661E-04 -3.25039723E-04  3.09809601E-05 -1.34028525E-05 -3.83942559E-02
  3.93974417E-04 -2.29860873E-04 -8.70052131E-03 -6.83129630E-05  4.11377452E-03
 -5.77089043E-03  6.28873068E-05 -9.79963643E-05  3.07884973E-05  9.77494009E-05
  1.78663045E-05  5.03242341E-05 -8.82982216E-06  5.97322047E-03 -1.29658350E-03
  1.79147190E-03  6.19370162E-04  4.13979394E-04  8.55023444E-03  3.90888755E-03
 -3.63551166E-04 -2.97951601E-04  1.31714767E-04  4.24341434E-04 -1.32000143E-03
 -7.11622505E-04 -7.59475071E-05  3.94591074E-02  4.97935744E-03  4.83305490E-05
  9.66662759E-03  4.78288014E-04 -1.03366586E-02  8.41066842E-03  2.13541599E-04
 -1.01751882E-04  2.97809059E-05  8.02620014E-05  1.69309742E-04  2.07247388E-04
  1.04181567E-04  7.15166267E-02 -1.28935636E-03 -1.49683629E-03  1.11239799E-02
  4.16842965E-04 -3.48345078E-05 -3.40473041E-03 -3.43044868E-04  4.15559262E-04
  2.67720563E-05  9.87660358E-05 -3.45202455E-04 -3.62440212E-05 -3.61465662E-04
  2.81256315E-02  3.04029897E-04  1.38205406E-04  1.07172852E-03 -6.89084539E-05
  1.30206547E-02 -3.08794045E-05 -1.06928872E-04  2.97392692E-04  1.31103093E-04
 -3.45499967E-05 -6.61704250E-02 -1.98572195E-04  1.05242624E-03  3.33496253E-04
 -6.58663490E-05 -6.89993876E-04  1.40894812E-03 -2.20388678E-04 -9.25192959E-05
 -2.81971095E-05 -1.02457646E-04  3.10268747E-04  7.02010852E-06  8.07953866E-05
 -3.01041397E-02 -2.81788065E-04  6.78613400E-04 -8.95525615E-03 -1.07946522E-04
  5.76537779E-03 -7.54263776E-03  5.67705993E-05  2.61833485E-05 -3.07251763E-05
 -1.09652106E-04  4.42433208E-04  2.31604715E-05  1.19039563E-04  1.01116517E-02
 -9.62478897E-04  1.80541716E-04  2.33318522E-03  4.35067282E-05  5.56345156E-03
  2.50940894E-03 -3.16405991E-05  7.05306136E-05 -1.18925581E-05 -5.87566993E-05
  1.98925731E-04 -7.80384823E-05 -6.78936183E-05  2.19669957E-02  2.20261869E-03
 -6.33050035E-04  4.24276885E-03  8.27312755E-05 -4.67141437E-03  8.53781125E-04
  3.00902755E-04  1.22527231E-04  1.36058650E-05  3.76497160E-05  9.06972931E-06
  6.73593027E-05 -8.18049755E-05  1.66482679E-02  1.59502045E-04 -8.74889934E-04
  3.24834089E-03  8.05123866E-05  4.73298524E-03 -2.50843075E-03 -7.62823896E-05
 -7.93861289E-05 -2.89939833E-05 -1.08827944E-04  3.95410576E-04 -2.36568660E-04
  1.99398262E-04 -2.39528738E-02  1.10997248E-03  4.66223398E-04 -8.19051161E-03
 -1.43122144E-04  6.60676766E-03  7.92643187E-03  8.62875562E-03  2.88063021E-02
 -8.13536365E-02 -6.53940159E-02  2.10207773E-02 -8.37698982E-05  7.18220001E-02
 -1.68961481E-01 -1.38784491E-07  1.30192579E-02  4.00001272E-05 -6.54607000E-05
  5.71897436E-02  2.84957282E-02  7.20197648E-03  2.38720190E-02 -6.23845640E-02
  2.61984294E-02 -5.52175894E-02  4.32888123E-04  4.44354968E-02 -1.26162324E-01
  1.53971930E-04  2.66612696E-03  7.82589946E-05 -5.46422940E-05  1.72434696E-02
 -1.89996188E-03 -1.09893360E-03 -3.14314406E-03  5.88817643E-03  4.65550486E-03
 -8.53082732E-03  3.48035165E-04  4.29474612E-02  5.67430289E-02  1.65295766E-04
  4.40123134E-03  2.19673256E-05  1.12678709E-04 -2.38563474E-02 -3.36864555E-03
 -1.59718980E-03 -5.95325419E-03  1.33503606E-02 -2.99251427E-02  2.05668426E-02
 -7.52680660E-04  3.70619922E-02  5.81545901E-02  6.85355133E-06 -1.77231163E-02
  2.28138083E-04  1.15773353E-04 -2.14899545E-02 -2.36899949E-02 -1.67207562E-02
 -5.50545314E-02  1.53094179E-01 -4.92312444E-02  1.20740129E-03  3.07327622E-04
 -1.01960288E-01 -1.39370455E-02  2.40902473E-04 -1.17519326E-02  1.14452251E-04
 -1.52267683E-04 -5.07809364E-04  7.19092027E-03  7.88488712E-04  1.54217919E-03
 -2.54315575E-04  1.15574590E-01 -7.21237325E-03  1.92515804E-04 -1.42310779E-01
 -4.15070969E-02  2.89412984E-05 -1.71635053E-03  8.28837105E-05 -1.02863960E-04
  6.11055627E-02 -1.38295120E-02 -4.50833638E-02  1.27710973E-01 -1.87695618E-02
  7.03524296E-02  1.10679383E-04  7.61714316E-02 -2.45075026E-02  1.26697237E-04
 -1.76871866E-03  1.00390305E-05 -6.60386800E-05  5.27237156E-02  1.55015233E-02
  4.63376401E-03  1.50847469E-02 -4.44693408E-02  8.23134947E-03  6.47813151E-03
  3.22771421E-04  6.21511649E-03 -4.06403194E-02 -4.24469469E-05 -6.41530481E-03
  8.17030907E-05  2.93952104E-05  1.86187602E-03 -3.40895394E-02 -2.30544256E-03
 -6.22567640E-03  1.20620740E-02  2.05895511E-02 -1.11904002E-02  2.16787817E-05
  1.28806348E-02  3.79409127E-02  4.02853048E-04  8.51449521E-03  2.04070677E-04
  5.69544331E-05 -3.77102087E-03 -2.39198389E-02  8.27592532E-03  2.73668836E-02
 -8.04923556E-02  1.49356828E-02 -4.97978381E-02 -6.53231287E-04  8.79369301E-02
  5.01153747E-03 -1.30618413E-03 -3.44186590E-03 -5.40753584E-05 -3.13254780E-04
 -2.58411875E-02  6.59897057E-03 -4.42075655E-03 -1.41224199E-02  4.03981587E-02
  8.52296076E-03  1.02064970E-01  5.13640238E-05  1.19218749E-02 -9.92694694E-02
  3.39811183E-04  6.25425383E-04  2.24863602E-04 -1.59156998E-04 -8.25796941E-03
  6.28036921E-02  3.91554921E-03  1.11596901E-02 -2.35059175E-02  1.45315762E-02
 -1.30592756E-01 -2.66030284E-04  1.57886257E-03  7.95850948E-02  1.41445871E-05
 -4.06968290E-03  1.57496432E-04 -8.01826353E-05  1.81176824E-02  7.69045944E-02
  1.29463435E-03  4.40475217E-03 -1.14485636E-02  2.54018141E-02 -1.74602684E-06
 -5.60600360E-06 -1.70667971E-02  7.12259914E-05 -3.56790202E-05  4.35674662E-03
 -3.05023235E-06 -4.13380754E-07 -2.54702660E-02 -1.30758176E-05 -3.37363776E-04
 -1.11435627E-03  1.74140528E-03 -4.08058781E-03  2.18982020E-03 -4.68146817E-06
  9.65297997E-03  1.31253237E-02  6.18385194E-05 -1.15542028E-03  1.67100257E-06
  7.21636233E-07 -5.60268952E-03  8.42859701E-03  1.88052967E-04  6.17204961E-04
 -2.09723220E-03  3.21935715E-03 -5.74560807E-04  1.72536256E-06 -1.55715158E-04
 -9.06669625E-03 -1.54016947E-04 -1.77564428E-04 -1.41818503E-05 -3.56232863E-05
  1.28004730E-03  2.69984166E-03  2.55904884E-05  6.41373202E-05 -1.01839383E-04
  3.95738294E-04  4.25190446E-07  3.93296408E-06 -1.17759157E-02 -6.12534134E-05
  2.79547541E-04  1.67706445E-03  8.95886793E-06  3.99285616E-07  1.70364034E-03
 -3.44002745E-07  1.87969219E-04  6.16799863E-04 -2.09344193E-03  3.21812454E-03
  5.74174999E-04 -8.30015889E-07 -4.56753938E-05  9.00629280E-03 -1.50185240E-04
 -1.77117143E-04 -1.67207868E-05  3.77514640E-05  1.28106987E-03 -2.70607626E-03
 -3.37147115E-04 -1.11363566E-03  1.74386498E-03 -4.07941609E-03 -2.18946387E-03
 -5.21458290E-06  9.78401045E-03 -1.30901786E-02  5.61501824E-05 -1.15348275E-03
 -4.31838894E-06  6.88064874E-07 -5.62429607E-03 -8.42885381E-03  1.88810401E-01
  4.54229346E-03  1.54771839E-02 -4.05052116E-02  9.06444213E-02 -5.59548033E-06
 -2.12032616E-05 -5.80367229E-02  2.27960950E-04 -1.16047324E-04  1.55526472E-02
 -9.42906305E-06 -9.48861203E-07 -8.76123453E-02 -4.42046230E-05 -1.15929865E-03
 -3.90968884E-03  6.72971849E-03 -1.50754044E-02  8.19549946E-03 -1.58344392E-05
  3.42069371E-02  4.48457139E-02  2.04551984E-04 -3.81626616E-03  5.87486228E-06
  2.11697525E-06 -1.93013540E-02  2.85923711E-02  6.78887938E-04  2.24673298E-03
 -7.77366141E-03  1.17097211E-02 -2.02021701E-03  5.99882521E-06  2.23828394E-05
 -3.05672724E-02 -5.16368180E-04 -7.55417009E-04 -4.69892996E-05 -1.21335089E-04
  4.27073599E-03  8.90154583E-03  9.54214251E-05  2.58118410E-04 -5.28284574E-04
  1.36336999E-03  1.63296662E-06  9.08708183E-06 -3.93226672E-02 -1.94289149E-04
  9.33291956E-04  5.82734128E-03  2.72144345E-05  1.35098181E-06  5.68144303E-03
 -1.42329829E-06  6.78479496E-04  2.24499650E-03 -7.76013629E-03  1.17053980E-02
  2.01876697E-03 -3.28102006E-06  3.71742671E-04  3.03765069E-02 -5.03834542E-04
 -7.53884168E-04 -5.54355062E-05  1.28657396E-04  4.27457946E-03 -8.92256791E-03
 -1.15862209E-03 -3.90740163E-03  6.73775003E-03 -1.50708991E-02 -8.19384220E-03
 -1.82315405E-05  3.46265760E-02 -4.47417707E-02  1.84449627E-04 -3.80988410E-03
 -1.44277304E-05  2.65955860E-06 -1.93731940E-02 -2.85926823E-02  4.53930494E-01
  1.10250068E+00 -8.23176004E-03 -2.81817283E-02  7.22919614E-02 -1.98390153E-01
  6.12593230E-06  7.52195448E-05  6.82441044E-02 -8.41122335E-05  5.07058905E-05
 -3.88158747E-02  1.84339236E-05 -1.30132935E-05  1.68865411E-01  8.33528903E-05
  2.39435254E-03  8.42644671E-03 -1.78482125E-02  4.12529133E-02 -2.59294624E-02
  1.67919362E-05 -8.41030072E-02 -7.78191367E-02 -1.87314762E-04  7.98009759E-03
 -8.55598770E-06 -1.09787866E-06  3.46913442E-02 -4.71135916E-02 -1.70258252E-03
 -5.87220593E-03  2.22726411E-02 -3.02411828E-02  4.81625614E-03 -8.82780208E-06
 -1.98400524E-02  4.90486329E-02  4.83162809E-04  3.05285523E-03 -2.12850806E-05
  1.34751945E-04 -6.52311795E-03 -1.26052154E-02 -3.15173367E-04 -1.07467084E-03
  3.63477560E-03 -2.78206959E-03 -5.47374620E-06  1.01066757E-04  4.61803842E-02
  2.11302613E-05 -5.85100841E-04 -9.77614974E-03  1.19983493E-04 -1.20040431E-06
 -1.08654840E-02  9.34576272E-06 -1.70078260E-03 -5.86562330E-03  2.22370969E-02
 -3.02307208E-02 -4.81094774E-03  1.19939619E-05 -1.98751657E-02 -4.90388169E-02
  4.62323107E-04  3.04811320E-03 -9.68614038E-06 -1.44163381E-04 -6.53499799E-03
  1.26426267E-02  2.39410624E-03  8.42542160E-03 -1.78640053E-02  4.12434993E-02
  2.59194067E-02  3.09205143E-05 -8.42685044E-02  7.79950622E-02 -1.33815489E-04
  7.97203222E-03  3.24136060E-05 -9.98534213E-06  3.48127797E-02  4.71083772E-02
 -5.19112397E-02 -1.93795974E-01  4.46250743E-01 -2.21423557E-02 -7.62221926E-02
  2.46050707E-01 -3.92928169E-01 -1.27244204E-05  7.09491625E-05 -5.42015547E-02
 -2.35004635E-04 -1.69210960E-05 -5.97152288E-02 -3.02998262E-05 -3.49735882E-05
  1.56997773E-01  1.01637036E-04  4.44987161E-03  1.58013879E-02 -6.02831531E-02
  6.31566269E-02 -3.70936579E-02  2.21180847E-05 -1.08807773E-01 -2.05041909E-02
 -9.63581941E-05 -5.57531407E-03 -4.80221131E-06  1.08649924E-05  3.70924869E-02
 -6.23414156E-02 -3.06406813E-03 -1.09384242E-02  4.28035935E-02 -4.74770369E-02
  6.79027111E-03  5.85083239E-05 -5.78297505E-02  4.21184738E-02 -9.45871691E-05
  8.45021577E-03 -2.05854417E-04 -5.65822875E-05 -4.56426698E-03 -1.06103208E-02
 -7.03863847E-04 -2.76624500E-03  1.38067877E-02 -9.22962325E-03 -3.30760523E-07
  1.55216146E-04  2.12316438E-02  4.25009845E-05  9.48485595E-04 -9.05163897E-03
  1.80239479E-04  1.63324891E-06 -1.65851062E-02  1.53259620E-05 -3.06239217E-03
 -1.09324097E-02  4.27777015E-02 -4.74779414E-02 -6.79112490E-03  1.00528299E-04
 -5.78622336E-02 -4.20658695E-02 -9.81373744E-05  8.44097780E-03 -2.00569448E-04
  4.46700561E-05 -4.57717924E-03  1.06406799E-02  4.44953689E-03  1.57997018E-02
 -6.02802389E-02  6.31668017E-02  3.71131238E-02  4.03376776E-05 -1.09003022E-01
  2.05283474E-02 -3.44739774E-05 -5.55125666E-03  3.51616697E-05 -3.42684653E-05
  3.72063231E-02  6.23170907E-02 -4.62345087E-03 -1.69244716E-02  4.38966254E-02
  6.57081332E-01 -1.07641634E-05 -3.61692142E-05  9.38093131E-05 -1.85083139E-04
  1.76167385E-02  7.31504284E-05 -9.42943319E-05  3.22820868E-02 -4.54374014E-05
 -3.45676112E-05 -2.01383441E-05  1.30154235E-05  9.51800742E-05 -8.45679804E-02
 -1.17262061E-03 -4.49601132E-03  2.29477685E-02 -9.97456380E-03  3.09530470E-04
  7.47667239E-06  4.39364323E-02 -1.01358120E-01  1.02800712E-05  5.39791252E-03
 -1.34618276E-05 -9.12897423E-06 -3.53822974E-04 -1.56462889E-03  3.78567030E-04
  1.38760811E-03 -5.99130735E-03  3.10732453E-03  2.33238069E-03 -2.90705610E-05
  5.52692785E-02  6.04739197E-02 -8.40561893E-06 -3.38862853E-03 -8.18178003E-05
 -6.28389723E-05 -2.23017105E-03 -7.38708755E-03 -1.62635057E-07 -8.42988296E-07
  8.52372300E-06 -4.57057367E-06 -8.15613488E-04 -3.22480584E-05  4.43954603E-05
  5.91142261E-02 -2.20134278E-05 -4.65227484E-06  1.54150640E-05  1.67654834E-05
 -1.53462479E-05 -4.64753849E-03 -3.80239831E-04 -1.39406072E-03  6.02679019E-03
 -3.15368240E-03  2.32285993E-03 -3.60427925E-05 -5.53553438E-02  6.03810659E-02
  4.10290126E-05  3.39930450E-03  7.29276828E-05 -6.31296337E-05  2.23231802E-03
 -7.35565743E-03  1.17639949E-03  4.50900042E-03 -2.29772101E-02  1.00251500E-02
  3.46791752E-04  2.22451774E-05 -4.40680061E-02 -1.01243820E-01 -1.88188149E-05
 -5.38669192E-03 -1.07745600E-05 -3.48650569E-05  3.54789654E-04 -1.48786374E-03
 -1.93370060E-06 -6.27798970E-06  8.16725213E-06  5.55670207E-05  5.65162896E-01
  6.58894723E-06  2.13930291E-05 -7.14036809E-05  3.47568917E-05 -1.45900328E-05
  1.91508213E-01  3.53166946E-05  2.80304929E-04  1.22786102E-02 -1.48217608E-04
 -5.84396597E-02 -3.42434232E-05 -9.00350237E-05 -8.26672275E-06 -3.69467232E-06
 -7.73057272E-06  1.99954538E-05  8.37285575E-05  4.76561422E-05  1.66589442E-02
 -1.08090603E-03  6.13695103E-04  1.22865615E-02  3.00456250E-04 -1.20622326E-02
  2.39981919E-02 -1.89766683E-04  8.78963412E-05 -6.74108911E-06 -7.73805943E-06
 -5.58271103E-04 -1.50376363E-04 -1.68118525E-04 -7.07634799E-02  2.69836997E-03
 -3.99282747E-03 -4.13577009E-03 -7.59766993E-04 -6.95971622E-03 -4.25796944E-03
  6.51439434E-04  4.83973091E-04 -1.19323985E-04 -4.06446066E-04  1.63552058E-03
  1.60672549E-03 -1.63753117E-05 -5.58207816E-02 -1.17521080E-02 -2.90411489E-04
 -2.56053313E-02 -6.66758605E-04  1.81299444E-02  4.69152143E-06 -6.70025126E-04
 -1.12832805E-05 -1.15005602E-05 -2.47368527E-05 -4.93284757E-04 -1.84077771E-04
  1.95465945E-04 -7.07274316E-02  3.21489301E-03  3.71709615E-03 -4.17724061E-03
 -7.64524891E-04 -6.95231035E-03  4.26743978E-03  6.48092230E-04 -4.85888330E-04
  7.07424616E-09  5.45368851E-06 -2.49421687E-05  1.23397449E-04 -1.20728713E-04
  1.66790365E-02 -5.38724684E-04 -3.49668576E-04  1.24032406E-02  3.01444137E-04
 -1.20664884E-02 -2.40117146E-02 -1.88423158E-04 -8.50380266E-05 -7.92284755E-06
 -2.91815243E-05  8.62752003E-05  8.96260587E-05  3.88266619E-05  6.26293371E-01
 -9.57483409E-03 -3.21925844E-02  9.24255939E-02  6.01102395E-02 -6.83133000E-06
 -2.76149035E-04  1.46146501E-01 -9.52082710E-04  6.06354953E-04  6.14310931E-03
  1.62332815E-05  4.16886964E-05  1.15300781E-02 -4.09869265E-06 -3.37904079E-03
 -1.17006855E-02  3.54918188E-02 -1.89616481E-02  5.90892234E-02  1.26135071E-04
  5.73312132E-02 -4.00038326E-02 -6.94923219E-04 -9.90966391E-03  4.17634345E-05
 -6.51530643E-05  3.25898883E-03 -3.25978581E-02 -5.39882152E-05  8.42089353E-04
 -1.34883844E-02  4.30786044E-04 -1.62896840E-03  2.04071707E-04  6.41397325E-02
  4.26334815E-02  1.90764274E-03 -5.00089891E-03  4.46985229E-04  3.85563859E-04
  2.62805478E-03 -1.65652669E-02  1.08667900E-03  4.56853575E-03 -2.15315179E-02
  4.90564844E-03  7.29167431E-07 -8.42729126E-04  1.14852117E-01  9.84085307E-04
 -4.50960077E-03 -8.96125465E-03 -8.47363648E-04 -3.79162032E-06  7.64061108E-03
 -8.95088468E-06 -4.77181937E-05  8.63589745E-04 -1.35490419E-02  4.68027617E-04
  1.62597471E-03  2.06431689E-04  6.23680864E-02 -4.16034882E-02  1.88816596E-03
 -4.98629176E-03  4.62654383E-04 -4.03617547E-04  2.62321977E-03  1.65640863E-02
 -3.37834103E-03 -1.16979160E-02  3.54675225E-02 -1.90383511E-02 -5.90344379E-02
  8.34295343E-05  5.55615012E-02  3.89381028E-02 -7.14334305E-04 -9.91396674E-03
  4.83460925E-05  8.38002902E-05  3.28878556E-03  3.26115877E-02 -1.17407135E-02
 -4.16379856E-02  6.84610466E-02 -6.02256303E-02  6.32116839E-05 -2.15810543E-04
  8.44638953E-02 -1.50159532E-05 -5.39421707E-05  1.43454158E-04  1.12666838E-05
  1.16693302E-01  7.60203883E-05  2.45502702E-04 -7.70779450E-01 -9.87176780E-05
 -2.45242914E-05 -3.99046817E-05 -7.92367890E-05 -4.91981480E-05  1.03738391E-01
  7.47670927E-03  2.49482078E-02 -6.80038938E-02  2.22823866E-03 -7.45352630E-02
  6.20709529E-05  4.77230708E-01 -3.82321854E-01  3.40829114E-04 -1.54446959E-02
 -3.84542745E-05 -1.44751011E-04 -4.17573126E-02  1.60807403E-02  2.18636406E-03
  8.17298678E-03 -2.78000265E-02  2.65629153E-02 -3.00319419E-04 -1.16983382E-04
  4.18996559E-01  2.67960912E-01 -5.83163171E-04  1.18266903E-02 -1.76336832E-04
 -1.86639665E-04 -1.62078666E-02  8.60997803E-03 -1.27890932E-05 -4.47877678E-05
  1.29370126E-04 -1.29116665E-05 -1.47171594E-02 -9.02148401E-06  2.32598067E-04
  4.80066718E-01 -4.62527021E-05 -5.66514644E-05  7.17158032E-06 -5.63869511E-05
  1.19416953E-05 -1.84209172E-02 -2.20664310E-03 -8.24509358E-03  2.80099046E-02
 -2.66538575E-02 -3.48250966E-04  8.08148526E-05 -4.18866466E-01  2.68013286E-01
  8.32786930E-04 -1.18774148E-02  1.40531038E-04 -1.75200261E-04  1.62644319E-02
  8.52551399E-03 -7.51420037E-03 -2.50786304E-02  6.83725586E-02 -2.23101246E-03
 -7.45189984E-02 -1.00711486E-04 -4.77552600E-01 -3.81944132E-01 -5.52949463E-04
  1.53089325E-02  3.75377082E-05 -2.30532294E-04  4.18212576E-02  1.60742179E-02
 -1.33403959E-05 -4.52736544E-05  6.52858880E-05  1.08404018E-04 -1.46663606E-01
  7.30898123E-05  6.79244233E-05  2.28822525E-01  3.14071765E-05  1.13619057E-04
 -3.73079838E-04 -1.05913012E-04  1.83224385E-05  1.10033459E-01 -6.22700871E-05
  9.31968799E-05 -3.21386479E-04 -3.18539151E-05 -3.02495689E-03 -5.05955237E-07
  1.04895573E-04 -1.97280767E-05  2.96436116E-05  1.14156725E-04 -4.02146635E-04
 -6.25930061E-06 -2.68136706E-05  3.48893684E-02 -9.96379201E-04  1.49015525E-04
  1.19832351E-02  2.42821417E-04 -1.14406147E-02  1.31767402E-02 -1.09002899E-04
  7.30258475E-05  5.17709246E-06  3.12696131E-05 -4.45930900E-04  7.39057643E-05
 -2.46662253E-05 -3.43037608E-02  1.26316413E-03 -2.32753869E-03 -4.07743916E-03
 -3.55578869E-04 -7.90717917E-03 -3.67334636E-03  2.43297390E-04  1.66244428E-04
 -3.42837945E-05 -1.20141148E-04  6.08927061E-04  4.71747286E-04 -1.56777274E-06
 -3.73223655E-02 -7.39292746E-03 -6.09703708E-05 -1.26724255E-02 -3.48091679E-04
  1.21985104E-02  1.75728461E-06 -6.55143570E-04 -8.14060286E-06  1.58867046E-06
  1.88273713E-05 -4.03434255E-04  7.26386984E-05  3.26976485E-05 -3.42725172E-02
  1.36549670E-03  2.22532905E-03 -4.08035331E-03 -3.52481875E-04 -7.90641937E-03
  3.67785201E-03  2.41516267E-04 -1.53565884E-04  2.93881228E-05  1.13765795E-04
 -4.04740095E-04  6.19172345E-06 -7.57704667E-05  3.49281812E-02 -8.74327627E-04
 -6.08964479E-05  1.20128706E-02  2.31224762E-04 -1.14431624E-02 -1.31761563E-02
 -1.14884085E-04 -5.42819156E-05  1.57018915E-06  2.42194769E-06  6.98451799E-05
  6.69337268E-06  9.50571316E-05  7.54833721E-02 -3.00340950E-04 -3.53487545E-05
  2.53913263E-02  4.26538310E-03  1.41057969E-02 -4.31666940E-02 -1.21018855E-02
 -1.40920724E-05  3.30230863E-05 -1.14457710E-01  6.83488426E-04 -4.10467344E-04
 -1.33744960E-02  1.53999676E-05 -2.54170938E-05 -1.39734929E-02  3.93075289E-06
 -3.27411564E-06  3.29263514E-04 -3.35890488E-03  1.39763871E-02 -2.38378766E-02
 -1.86979333E-05 -3.19128985E-02  2.70528777E-02  5.14534231E-04  3.64323672E-03
  1.68800191E-05  3.42434357E-06 -9.80666160E-03  2.28867167E-02 -2.29862369E-04
 -1.28000795E-03  9.41312741E-03 -8.41826057E-03  3.04117795E-03  1.67262375E-05
 -4.60852988E-02 -2.63715570E-02 -1.34037227E-03  2.33817810E-03 -2.91511373E-04
 -2.82901341E-04  2.85513136E-03  1.01199752E-02 -1.85709288E-04 -1.00593176E-03
  6.20903909E-03 -3.46764875E-03 -6.95229813E-06  2.19099496E-04 -7.32321570E-02
 -7.04869948E-04  3.17618758E-03  6.43787513E-03  4.42427082E-04  3.55449135E-06
 -2.16015322E-03  1.14229471E-05 -2.29850397E-04 -1.28011149E-03  9.41149022E-03
 -8.43392326E-03 -3.03512815E-03  1.42238739E-05 -4.47991447E-02  2.56760893E-02
 -1.33783958E-03  2.33217544E-03 -3.01767919E-04  2.96106450E-04  2.85177789E-03
 -1.01273666E-02 -1.49369477E-06  3.35324163E-04 -3.36474020E-03  1.40079754E-02
  2.38261395E-02 -4.73223614E-06 -3.06473540E-02 -2.63550640E-02  5.39332775E-04
  3.65485527E-03  1.94833816E-05 -3.63608586E-06 -9.82523351E-03 -2.28948259E-02
  4.60151282E-03  1.47081644E-02 -7.67768111E-03  9.90571619E-03 -1.59357258E-06
  1.42146125E-05 -5.06558047E-02 -4.03597003E-05  1.53022968E-04  4.35863909E-02
  1.01645730E-05  3.65705274E-05 -1.31420155E-04 -3.18980117E-05 -8.68453599E-06
  9.55457550E-02  1.68107313E-04 -2.30593546E-04 -1.45053829E-03 -2.59801872E-05
  3.98828405E-03  2.96440252E-06  4.37035595E-05 -1.06151817E-06  5.73174326E-06
  2.25704737E-05 -8.09012620E-05 -9.86432436E-06  1.70744326E-05  3.92556653E-02
 -3.63419938E-04 -1.94974355E-04  1.22658004E-02  9.79912865E-05 -9.96644046E-03
  1.11854014E-02 -4.68021217E-05  1.39442148E-05 -6.70714019E-06 -1.53190361E-05
 -2.01422908E-04  1.61193918E-05 -8.56076240E-06 -2.23444394E-02  1.01148093E-03
 -1.15667389E-03 -3.90348122E-03 -2.59696866E-04 -7.74666424E-03 -3.53474658E-03
  1.68414927E-04  9.98358132E-05 -3.19887360E-05 -1.08849608E-04  4.63971734E-04
  2.78023805E-04 -5.64944622E-06 -3.20219339E-02 -4.38191924E-03  2.08096433E-04
 -7.95896358E-03 -3.22893798E-04  8.62551455E-03 -2.49512987E-06 -4.32408011E-04
 -6.13978291E-06 -6.80441189E-06 -1.55069213E-05 -1.98583607E-04  2.17506952E-05
  1.66953793E-05 -2.23492640E-02  6.64956857E-04  1.39896770E-03 -3.90654751E-03
 -2.54890324E-04 -7.74187761E-03  3.53755237E-03  1.69094862E-04 -9.91275221E-05
  6.06969991E-06  2.32873041E-05 -8.48712238E-05 -1.61061544E-05 -5.22373810E-05
  3.92567732E-02 -7.40005178E-04 -1.33795225E-04  1.22759277E-02  9.89646747E-05
 -9.97396935E-03 -1.11814222E-02 -4.18046111E-05 -7.43646210E-06 -2.12066015E-06
 -7.60348092E-06  3.08738273E-05  1.52022766E-05  5.09665062E-05  5.75609866E-03
 -1.11154161E-04  1.90345952E-05  1.76346057E-02  3.13959825E-05  1.78955000E-02
 -2.64324427E-06 -8.57123724E-06  2.04146294E-05 -6.45966435E-05 -5.45856816E-05
  3.43593008E-05 -2.31692287E-04  9.71806854E-04  6.23348166E-07 -2.37868680E-05
  2.46230242E-06 -9.15523719E-03 -3.44971501E-06 -3.49846761E-05 -4.34119305E-06
 -1.34165517E-05  2.45411045E-05 -8.14094048E-06 -1.22517194E-05  8.24821965E-04
 -8.12103333E-04  5.37563775E-04 -8.53016434E-04  1.20322554E-05  2.02295579E-04
 -2.31001384E-03 -1.40746153E-05  1.82882828E-05 -2.00885711E-08 -7.31520133E-07
  1.26354998E-05 -8.84522620E-06  9.39763991E-06  4.33944550E-03 -8.15926433E-04
 -5.23548840E-04 -3.26929971E-04  3.67588911E-06 -3.46586205E-04  3.07277784E-04
  2.38282915E-05  4.26495583E-07  1.32408646E-06  4.54985636E-06 -9.66178605E-06
 -4.88035398E-07 -3.82258975E-06 -1.18567437E-05 -9.43106067E-05 -8.68531229E-04
  7.95718783E-06  1.57907032E-05  3.06789899E-06 -1.41511879E-03 -8.85129680E-06
  4.46445941E-05  2.66335571E-06  9.87808305E-06 -3.20194426E-05  1.28387223E-05
  1.56310100E-05 -4.35186109E-03  6.89125777E-04 -4.65318082E-04  3.07174277E-04
  9.22949225E-06  3.40064343E-04  3.12428559E-04 -1.94296514E-05 -4.18721295E-06
  1.05989551E-05  3.40748283E-05 -7.99378709E-05  6.21815512E-06  1.97765819E-05
 -7.96402796E-04  7.76924199E-04  4.39004149E-04  8.82105671E-04  1.94096267E-06
 -2.13132917E-04 -2.31713709E-03 -3.03048619E-05 -1.23028817E-05  4.48142216E-06
  1.40383165E-05  3.05341503E-06  6.52885459E-05 -1.88233725E-05 -5.92023904E-06
 -8.18572816E-05 -1.20703234E-04  5.66818511E-07  2.95160095E-05 -1.53905690E-05
  3.46118129E-02 -1.47627484E-02 -4.98384573E-02  1.38228464E-01 -7.98409181E-02
 -6.99087206E-05  4.64011835E-05 -1.97690708E-01  1.83390680E-04 -1.78943437E-04
 -5.06594798E-02  2.12045272E-05 -3.28403384E-05 -1.08626207E-02  3.04668544E-05
 -3.41135230E-03 -1.17489111E-02  2.82031656E-02 -1.01288561E-02 -4.37044437E-03
 -4.08903179E-05 -1.45344666E-02  3.24446107E-02  1.68181061E-04 -9.99581899E-03
 -2.52394611E-05 -6.37231266E-05 -2.15939515E-02  1.41740293E-03 -1.06495991E-03
 -4.13147750E-03  1.63780755E-02 -2.41520487E-03  2.06584691E-03 -2.45458091E-05
 -5.79964696E-02  4.28053099E-04 -5.28076153E-04 -1.18551624E-03 -1.76205687E-04
 -1.18816142E-04  8.14040880E-03  8.11950860E-03 -1.79323716E-03 -6.38194466E-03
  2.21863690E-02 -3.62511215E-03 -3.73777278E-07  2.14130038E-04 -2.63375250E-02
 -3.41753729E-04  1.48500725E-03  1.92928127E-04  2.43085138E-04  5.52583843E-08
 -5.95936288E-03  5.41362621E-06 -1.06592270E-03 -4.13513938E-03  1.63933830E-02
 -2.43631966E-03 -2.07817146E-03 -4.93459107E-05 -5.73163378E-02 -6.10877817E-04
 -5.32543157E-04 -1.19347843E-03 -1.84185049E-04  1.29418353E-04  8.12280470E-03
 -8.13626456E-03 -3.39966826E-03 -1.17087434E-02  2.80790096E-02 -1.00489404E-02
  4.39956671E-03 -3.12217147E-05 -1.39560623E-02 -3.24295626E-02  1.89060590E-04
 -9.94993214E-03 -4.87219565E-06  7.80647647E-05 -2.15364218E-02 -1.41850323E-03
  1.60867284E-03  4.44499201E-03  1.67677141E-02  1.02716513E-01  1.83947282E-04
  4.03416386E-05 -6.64048952E-02  2.36570176E-05  9.49927072E-05  5.04421032E-02
  2.96034809E-05  1.07035170E-04  1.65425014E-01 -1.14192863E-05 -4.12610625E-05
  1.49896784E-04 -9.18961974E-05  7.21940555E-02  4.80452762E-06 -2.47020297E-04
  2.42259440E-01  6.88789468E-05 -6.23116299E-05  2.72405799E-05  3.36723277E-05
 -1.83660239E-06  1.96012454E-02  4.05580144E-03  1.39611073E-02 -4.91575398E-02
  1.56912446E-02 -4.17413095E-02  7.67509733E-05 -2.28537549E-01  2.24538363E-01
 -1.22905997E-04  6.20953518E-03 -1.22182108E-05  6.48207009E-05  2.89595656E-03
  9.45470688E-03  8.63731915E-04  2.94202204E-03 -5.68316103E-03  3.27078132E-03
  5.17014132E-03 -2.50907582E-05 -1.99678375E-01 -1.78437874E-01  2.91381081E-04
  4.46122488E-03  1.32233031E-04  1.31134277E-04 -1.34638043E-03  1.20208829E-02
 -3.96041965E-06 -1.38427133E-05  4.33056734E-05 -6.76729086E-06 -7.51484629E-03
  8.09833501E-06 -8.74633043E-05 -2.47571939E-01  2.28183162E-05 -2.37538979E-06
 -6.65956050E-06  7.93685718E-05 -9.32056562E-07  4.20346608E-03 -8.66918845E-04
 -2.95464380E-03  5.72726337E-03 -3.29403325E-03  5.15397883E-03  4.09164372E-05
  1.99519280E-01 -1.78442562E-01 -4.36520421E-04 -4.47906576E-03 -1.16908298E-04
  1.27489444E-04  1.35690952E-03  1.19727430E-02 -4.06571856E-03 -1.39953293E-02
  4.92603722E-02 -1.57128390E-02 -4.16731406E-02 -1.13413529E-04  2.28636541E-01
  2.24232642E-01  2.24496192E-04 -6.22070970E-03  3.17914569E-05  9.46860490E-05
 -2.91412851E-03  9.43156718E-03  3.22995266E-06  9.56727168E-06  1.91514946E-05
  1.74461585E-04 -1.15305251E-01  4.24290352E-05 -1.41079687E-04  2.83900027E-03
  4.52390477E-06  6.48580845E-05 -4.34745356E-05 -2.71640656E-06  5.60934998E-05
  1.07394380E-01 -1.05606670E-05 -1.05772149E-04  6.48260166E-04 -5.33569339E-04
 -7.37311854E-07  9.39527246E-04  1.71533160E-03  3.62854617E-05 -7.59116486E-06
  4.42442579E-06 -6.35267819E-05  4.22757881E-07  9.88337852E-04 -1.11822868E-06
  1.97849595E-04  7.08686455E-04 -3.25276533E-03 -3.64600066E-03 -4.64065354E-04
 -6.15389375E-04  7.10288392E-04 -2.80465617E-04 -4.89967241E-04  1.31128567E-03
 -3.53120005E-04  1.76345656E-04 -1.23860820E-04 -1.74171224E-03 -3.86947885E-04
 -1.32242045E-03  2.83155428E-03  3.89591300E-03  1.83775992E-03 -1.15028478E-03
  5.66488656E-04 -2.54052671E-03  7.37059442E-04 -4.40126804E-03 -1.57165858E-04
  8.02951694E-05 -1.96834079E-03 -6.24937981E-03  1.44659163E-03  4.89860049E-03
 -9.99796556E-03 -2.61040647E-02  8.21486645E-06  2.06593605E-03 -1.83231166E-02
 -2.16952377E-05 -1.74107078E-03  9.87677845E-03  7.06324614E-04  4.59234113E-07
 -2.45492943E-02  1.52567112E-05 -3.86976943E-04 -1.32251812E-03  2.83190002E-03
  3.89520400E-03 -1.84114529E-03 -1.15143995E-03  6.26244155E-04  2.51517698E-03
  7.37546493E-04 -4.40200976E-03 -1.55725952E-04 -7.87704657E-05 -1.96312681E-03
  6.24851763E-03  1.97929587E-04  7.09083806E-04 -3.25640724E-03 -3.64701470E-03
  4.66941185E-04 -6.12909571E-04  7.71769628E-04  3.08459664E-04 -4.93314289E-04
  1.31064833E-03 -3.50720936E-04 -1.78556849E-04 -1.23109493E-04  1.73846916E-03
  4.46960928E-05  1.70515914E-04 -4.44259384E-04 -6.82977051E-04  1.07106341E-07
  7.33181789E-04 -2.60659579E-04 -3.85106692E-06  4.26816742E-04  1.26595240E-04
  2.76501960E-04  7.53622641E-07 -4.59509993E-04 -7.94264035E-07  1.88373136E-01
 -4.03041632E-05 -3.15452424E-04  1.85838467E-03 -2.00908123E-03 -2.68666298E-06
  3.39545076E-03  5.16674169E-03  1.26018120E-04 -8.43971130E-06  1.08004924E-04
 -2.38371461E-04  1.30908995E-06  3.07268175E-03 -3.93834965E-06  7.53839136E-04
  2.70786831E-03 -1.21541994E-02 -1.32745896E-02 -1.65983466E-03 -2.22144250E-03
  1.99975529E-03  4.46211230E-05 -1.77090915E-03  4.48025901E-03 -1.27285872E-03
  6.30380522E-04 -7.26570053E-04 -5.49623037E-03 -1.32374243E-03 -4.58256409E-03
  1.04086040E-02  1.46668805E-02  6.59920350E-03 -4.17873166E-03  2.62771852E-03
 -1.08307587E-02  2.70908716E-03 -1.47884128E-02 -5.18003330E-04  3.17893251E-04
 -6.46018887E-03 -2.08377479E-02  5.05332199E-03  1.71683314E-02 -3.60700239E-02
 -9.26397176E-02  2.93685790E-05  7.42478675E-03 -6.68270085E-02 -7.47520159E-05
 -6.49004740E-03  3.42084167E-02  2.47107519E-03  1.69836802E-06 -8.35054589E-02
  5.17235672E-05 -1.32388159E-03 -4.58303359E-03  1.04100317E-02  1.46641209E-02
 -6.61191922E-03 -4.18287800E-03  2.83728525E-03  1.07421775E-02  2.71154901E-03
 -1.47912359E-02 -5.13358719E-04 -3.12426694E-04 -6.44234879E-03  2.08341886E-02
  7.54147823E-04  2.70929443E-03 -1.21667504E-02 -1.32779986E-02  1.67020933E-03
 -2.21237664E-03  2.21340364E-03  5.25681625E-05 -1.78261350E-03  4.47831570E-03
 -1.26497620E-03 -6.37859677E-04 -7.24366383E-04  5.48513020E-03  1.86805906E-04
  6.93343942E-04 -1.67565021E-03 -2.47104034E-03  4.17221137E-07  2.65191217E-03
 -1.24518522E-03 -1.32643259E-05  1.53011484E-03  6.00342141E-04  9.96919032E-04
  2.76272205E-06 -1.49225248E-03 -2.69322966E-06  4.53293773E-01  1.10251654E+00
 -9.70747443E-05 -2.27682925E-04 -7.46746469E-04  5.16464785E-03  6.81932526E-06
 -7.79090308E-03 -2.18490428E-03 -2.60035391E-04 -2.21835784E-05 -1.01941513E-03
  5.85149682E-04 -1.54416344E-06 -3.40969533E-03  8.02101009E-06 -2.20730011E-03
 -7.93419630E-03  3.24882133E-02  3.27335126E-02  4.03853087E-03  5.06907128E-03
  7.52907270E-04 -6.17348291E-03  3.91227524E-03 -9.25666812E-03  2.88233974E-03
 -1.39294183E-03  3.70944330E-03  6.86500477E-03  2.20157357E-03  7.95272345E-03
 -2.01199861E-02 -3.91021660E-02 -1.62086064E-02  9.73681142E-03 -6.93429869E-03
  3.38793566E-02 -6.16124479E-03  2.70925246E-02  9.19898427E-04 -8.91984260E-04
  1.19628427E-02  3.49005212E-02 -8.86077163E-03 -3.02221503E-02  6.28146081E-02
  1.85408814E-01 -6.16863163E-05 -1.64459192E-02  1.53605819E-01  1.56553908E-04
  1.52539195E-02 -6.60283035E-02 -5.39475767E-03 -4.04578981E-06  1.55351966E-01
 -9.41557228E-05  2.20233861E-03  7.95531285E-03 -2.01266306E-02 -3.90937986E-02
  1.62429518E-02  9.74611677E-03 -7.38199659E-03 -3.36914317E-02 -6.17001333E-03
  2.70995799E-02  9.12898348E-04  8.79661692E-04  1.19299340E-02 -3.48901462E-02
 -2.20800217E-03 -7.93710165E-03  3.25126951E-02  3.27377229E-02 -4.06277911E-03
  5.04613362E-03  3.09693099E-04  5.97173339E-03  3.93428716E-03 -9.25417109E-03
  2.86833744E-03  1.40604667E-03  3.70732861E-03 -6.84349512E-03 -6.77122467E-04
 -2.39629589E-03  4.68716659E-03  6.02878701E-03 -1.23744313E-06 -6.08963397E-03
  5.59495713E-03  2.63171712E-05 -3.46129863E-03 -2.86075651E-03 -2.27596776E-03
 -7.53524752E-06  1.51106475E-03  4.43466852E-06 -5.23529459E-02 -1.97580573E-01
  4.52085236E-01  6.15337271E-04  2.04091690E-03 -4.69340934E-03 -1.28230380E-02
  3.38835461E-06 -7.07063485E-03  3.22790167E-02  5.62936520E-04 -1.14002893E-03
  1.44046246E-02  7.18182075E-04 -2.35133854E-05  2.70061468E-02 -1.77889337E-05
  2.25753000E-03  7.56201270E-03 -2.32099619E-02 -3.58563080E-02 -5.44145627E-03
  3.47215066E-03 -9.71799925E-03 -5.89556175E-02  5.56359050E-03 -1.00369911E-02
  3.10481660E-03 -1.00026838E-03  1.60799076E-02 -1.99013656E-02 -3.37200879E-03
 -1.23789901E-02  5.49767425E-02  4.28273718E-02  3.61099315E-02  7.73266322E-03
 -1.50582686E-01  1.38758066E-01 -6.30603858E-03  2.17365255E-02  1.51001530E-03
  1.11356721E-03 -6.44629073E-02 -7.32613631E-02  2.58854972E-02  8.89073627E-02
 -2.83287700E-01 -4.03781218E-01  1.23263955E-04 -3.43191921E-03  2.72466196E-01
 -6.12350048E-04  1.85340400E-02  3.57764870E-02  6.82591967E-03 -1.76339448E-05
 -1.48900591E-01  1.27757518E-04 -3.36955287E-03 -1.23701812E-02  5.49464545E-02
  4.27928185E-02 -3.61212571E-02  7.69989542E-03 -1.49706842E-01 -1.39198237E-01
 -6.31455122E-03  2.17426246E-02  1.53320780E-03 -1.12270916E-03 -6.43808723E-02
  7.32985003E-02  2.25753533E-03  7.56229885E-03 -2.32306953E-02 -3.58515152E-02
  5.45447618E-03  3.48390118E-03 -8.79292699E-03  5.94260410E-02  5.58654371E-03
 -1.00433072E-02  3.09850557E-03  9.65018670E-04  1.60842093E-02  1.98626305E-02
  4.86601619E-04  1.82161913E-03 -5.12228230E-03 -5.94949155E-03 -4.25579748E-06
 -5.11672890E-03  3.04378307E-03 -6.25131151E-05 -2.44622920E-03  1.47246347E-04
 -1.86514240E-03  7.03543124E-06 -4.94792589E-03 -1.73567885E-05 -4.17796022E-03
 -1.49705189E-02  4.02499579E-02  5.75590967E-01 -3.89633175E-07 -1.34126280E-06
  3.52039698E-06  5.30151131E-06 -3.59577187E-03 -4.48268625E-05  4.86476133E-06
  2.06456024E-02  5.53326109E-06 -3.33952293E-06  4.25244702E-06 -5.98843571E-04
 -3.36301526E-06  4.48793512E-03  1.28719820E-03  4.54248096E-03 -1.66781405E-02
 -1.54712540E-02  2.91164660E-03  1.49647876E-03 -2.93840043E-02  1.17842630E-02
 -3.20611495E-04 -1.04878520E-03  2.62755515E-04  3.09956256E-04 -1.55863515E-03
  5.80000866E-03 -3.42228694E-03 -1.22377000E-02  4.06813558E-02  3.36330815E-02
  3.73862221E-03  6.77563893E-04  3.36982183E-02 -3.86312254E-02 -1.77733145E-03
 -2.65541375E-03  7.40850006E-04 -2.00819771E-03  5.17776785E-03  5.57454677E-03
 -6.40407213E-06 -2.20872029E-05  7.18144364E-05  1.13019639E-04  1.73222318E-02
 -9.50235195E-05 -1.27739945E-05  9.89971228E-03  5.39918809E-05 -1.83241858E-05
 -2.85951615E-05 -1.02337506E-02  1.01893864E-04  1.16299410E-01  3.42317475E-03
  1.22409421E-02 -4.06935833E-02 -3.36372848E-02  3.79160382E-03 -5.71330820E-04
 -3.36250955E-02 -3.85984273E-02  1.71882112E-03  2.65064527E-03 -7.44745132E-04
 -1.98901002E-03 -5.13794159E-03  5.56398940E-03 -1.28804091E-03 -4.54532160E-03
  1.66862252E-02  1.54857115E-02  2.90108548E-03 -1.44584957E-03  2.94054136E-02
  1.17668755E-02  3.50880945E-04  1.05220958E-03 -2.31173349E-04  3.17718046E-04
  1.55705080E-03  5.80276062E-03 -1.29203208E-07 -4.27800940E-07  4.86809436E-07
  3.43912296E-07  4.40908729E-04 -3.54512462E-05  2.53764498E-06  9.61406473E-04
 -2.13314205E-05  8.93988079E-08 -1.25328812E-05  2.23691995E-05  1.38186747E-06
 -5.61791275E-04 -1.72004933E-07 -6.12432468E-07  1.72297802E-06  2.71927895E-05
  6.19572990E-01  4.96220834E-05  1.92122510E-04 -1.02195458E-03  1.13551785E-04
 -4.64069832E-05  1.07822642E-01  2.45698613E-03 -4.59703939E-04 -5.13071876E-03
 -1.55541379E-03 -7.01497483E-03 -9.27531321E-06 -1.02199058E-03 -3.12097779E-05
 -8.02780188E-05 -2.35650672E-04  1.29643286E-03  1.87884679E-03 -1.04225360E-04
 -6.74291828E-02 -8.26429737E-03  5.47809194E-03 -2.75917581E-02  2.81893344E-03
 -3.28586150E-02  1.54365503E-02 -2.12176626E-03  1.18376954E-03  1.84294247E-04
  7.83695244E-04 -6.95409435E-03 -3.06133997E-03 -1.60184364E-03 -1.34403706E-01
  2.99471851E-02 -4.70214841E-02  6.43445388E-02 -5.74448109E-03  5.91395296E-03
  3.66069735E-02  5.94153597E-03  5.54127109E-03 -9.82074579E-04 -3.24230106E-03
  9.48434807E-03  2.03165766E-02 -1.83904507E-05  2.20443832E-01 -1.27058986E-01
  5.71414443E-04 -1.61186473E-01 -4.54844535E-03  1.23848832E-01 -2.78912487E-05
 -1.20924151E-03 -4.52715399E-05  1.78752580E-04  7.63843631E-04 -6.87867245E-03
 -3.06237562E-03  1.58932608E-03 -1.34413528E-01  2.92041674E-02  4.76061656E-02
  6.43086716E-02 -5.76679946E-03  5.89377426E-03 -3.66129401E-02  5.93643221E-03
 -5.58753035E-03 -7.71504460E-05 -2.24038000E-04  1.24061855E-03  1.83034054E-03
  1.95017249E-04 -6.74245106E-02 -9.03635649E-03 -6.09480242E-03 -2.75482883E-02
  2.83777569E-03 -3.28644540E-02 -1.54424854E-02 -2.14015242E-03 -1.21071403E-03
 -1.52223733E-05 -6.97976297E-05  4.59252337E-04  7.24021591E-04  4.21075614E-05
  8.22914749E-02 -2.10606992E-03  3.78043649E-05  4.97120695E-02  3.90310361E-04
  3.19858847E-02  1.15344774E-05  4.23357192E-04 -5.11751062E-06  3.32700908E-03
  1.18110733E-02 -2.80122554E-02 -1.80736171E-02 -1.30169680E-04  8.35905109E-01
 -1.08967761E-02 -4.01940641E-02  1.26716287E-01  6.56939489E-02 -2.95545609E-05
 -1.35540594E-03  1.44958626E-01 -8.85960310E-04  7.70847355E-04 -1.36524655E-02
  4.95942271E-04  4.69455446E-05 -2.25741416E-02  2.45020679E-06 -1.30082355E-02
 -4.88358086E-02  1.68274616E-01  2.31030657E-02  3.00286195E-02  5.05056339E-03
  1.11930266E-01 -5.47002802E-02  2.04378156E-03 -4.14113294E-02  1.21503412E-03
 -3.68369113E-04  1.64090510E-02 -4.21806654E-02 -9.34197485E-03 -3.25748487E-02
  9.79715111E-02 -5.78942594E-02 -5.00967589E-02  2.60554571E-03  3.08190770E-02
  1.22198187E-01 -2.54133056E-03 -1.55649540E-02  2.61330769E-04 -1.74139601E-03
  1.42972374E-02 -3.62542648E-02  1.74332800E-02  5.68285058E-02 -1.71121067E-01
 -8.51661435E-02  7.87301773E-05 -2.38508479E-02  3.09739602E-01  8.78546744E-04
  3.03111513E-03 -1.94296603E-02 -5.31938448E-03 -5.02285075E-07 -2.43762159E-02
  2.46691138E-05 -9.33748989E-03 -3.25597730E-02  9.79433693E-02 -5.78468979E-02
  5.00427608E-02  2.64018175E-03  2.90537652E-02 -1.21355701E-01 -2.56938639E-03
 -1.55471566E-02  2.69268493E-04  1.72128115E-03  1.42780946E-02  3.62615539E-02
 -1.30044386E-02 -4.88237875E-02  1.68259472E-01  2.30725147E-02 -2.99991899E-02
  5.02597942E-03  1.10327714E-01  5.38823384E-02  2.03080992E-03 -4.14181152E-02
  1.20046075E-03  4.08845907E-04  1.64124856E-02  4.22021127E-02 -5.02054804E-03
 -1.66139821E-02  1.22040385E-02 -1.59538292E-02 -9.30450277E-06 -3.45834252E-03
  7.66881427E-02  7.02671231E-05 -2.21212240E-03 -4.82804738E-02 -1.02413027E-03
 -7.03916074E-05 -2.78916284E-02 -1.70889415E-05 -5.19935660E-04 -4.13461549E-03
  2.54137701E-02  1.57359601E-01  5.41582930E-05 -5.29320894E-02  2.15549478E-01
  1.22658369E-05  4.37707162E-05 -1.23513370E-04 -3.53318202E-05 -8.56441352E-03
 -5.88928225E-05 -3.13800820E-04  2.82939082E-01  4.63804923E-05 -5.26452718E-06
  1.93342001E-05  2.03273697E-04  2.83534137E-05 -7.46206269E-03  2.25029800E-03
  9.38550902E-03 -4.22679781E-02 -3.38102087E-02 -6.97054810E-04 -9.39645117E-04
 -2.13421274E-01  1.57541183E-01 -4.33278973E-04  1.20728624E-02 -8.61374999E-05
  1.62479855E-04  2.18350159E-03 -1.21024374E-03  2.65699224E-03  9.07959986E-03
 -2.62624714E-02  3.22725813E-02 -3.30892256E-02 -1.10136176E-03 -1.79869524E-01
 -1.63088483E-01 -5.36303785E-04  9.07237347E-04  5.46804230E-04 -5.58264322E-04
 -6.89687458E-03 -4.49156368E-03  3.34724691E-06  1.27279900E-05 -3.49278671E-05
  2.99689815E-05  5.01060550E-02 -4.03758477E-05 -2.71639805E-04 -2.51984548E-01
  6.51716397E-05  4.52964869E-05 -2.73288442E-05 -2.93244491E-03  7.88380795E-06
  2.56520320E-02 -2.63747455E-03 -9.00990920E-03  2.60672656E-02 -3.21855394E-02
 -3.30852928E-02  1.19927235E-03  1.79625398E-01 -1.63005442E-01  3.82914564E-04
 -8.38219500E-04 -5.37517509E-04 -5.52712201E-04  6.85282213E-03 -4.47995139E-03
 -2.22157094E-03 -9.28122042E-03  4.19444854E-02  3.37768560E-02 -6.68877349E-04
  9.46374559E-04  2.13359869E-01  1.57277505E-01  5.21591863E-04 -1.19709928E-02
  1.11554863E-04  2.03814699E-04 -2.25465584E-03 -1.28671936E-03  9.87988419E-06
  3.17896017E-05 -1.26359217E-05 -1.24939865E-05 -2.12917753E-03  2.66145794E-05
 -1.43741640E-04 -6.05203888E-02  9.16094392E-07  1.00982789E-04 -3.07182936E-05
  6.56197617E-05  4.75575861E-05  2.87975388E-02 -4.80952944E-06 -1.63264630E-05
  2.75251693E-05  1.01075610E-04  2.17520444E-01 -1.59436607E-04 -1.36503023E-04
  1.14730200E-01 -1.50078293E-03 -5.42211236E-03  1.57772027E-02  9.14500045E-03
 -2.82930682E-05  6.33344286E-02  1.97098177E-02 -4.32748331E-04 -2.26207187E-03
 -3.68794087E-03 -3.72495620E-03  3.26574658E-06 -5.65453050E-03 -1.16917045E-05
 -2.04288316E-03 -7.38669987E-03  2.35463483E-02  5.10857326E-03  3.95075830E-03
 -3.22009794E-02  9.62816843E-03 -4.01717352E-04 -1.43264944E-02 -3.87716520E-03
 -1.77253783E-02  8.84702240E-03  8.94674745E-04 -2.72741691E-03 -1.52480124E-03
 -5.32714696E-03  1.23386663E-02 -8.59372508E-03 -1.95363897E-03 -6.96116398E-02
  2.67760690E-02 -1.93030462E-02  3.57283821E-02 -9.84751804E-03  2.82560877E-03
  1.96644225E-02  7.17414071E-03  3.01058704E-03 -5.78584536E-04 -2.44528010E-03
  1.06282152E-02  6.96722390E-03 -1.66622468E-05  1.19314700E-01 -5.16880411E-02
  4.89932457E-04 -8.81749639E-02 -5.44080048E-03  6.52483496E-02 -1.24779083E-05
 -5.63799245E-03 -2.98162608E-05 -1.52709880E-03 -5.33554246E-03  1.23738317E-02
 -8.60699381E-03  1.94174819E-03 -6.96136551E-02  2.60515740E-02  1.97861810E-02
  3.57057259E-02 -9.85865602E-03  2.81406048E-03 -1.96681639E-02  7.16567792E-03
 -3.03376450E-03 -2.04058278E-03 -7.37998463E-03  2.35294969E-02  5.08860806E-03
 -3.90286081E-03 -3.22020369E-02  8.89485332E-03 -1.01168577E-04 -1.43052975E-02
 -3.86765407E-03 -1.77312650E-02 -8.84086970E-03  8.85884065E-04  2.71967176E-03
 -6.69904780E-04 -2.24733401E-03  1.96106867E-03 -9.85296141E-04  2.25738265E-05
  4.73442095E-02  8.84567510E-03  4.07980295E-05  2.74903342E-02 -6.24729274E-03
  1.78215281E-02 -5.05764451E-06 -2.92498932E-03 -4.83462188E-06  5.32634126E-03
  1.93542256E-02 -4.31403200E-02 -2.89372015E-02 -1.07908690E-04  4.44412014E-01
 -1.08706223E-02 -1.31779914E-04  2.42235402E-01  1.26123682E-03  4.30407530E-03
 -1.17445333E-02 -4.67291401E-03  2.30549577E-06  1.20724756E-03 -5.28527872E-03
  1.14655484E-04 -1.31254062E-04  1.15420219E-03 -2.47947811E-04 -4.56748759E-06
  5.91248582E-03 -3.27251027E-06  1.00678880E-03  3.57587214E-03 -1.07669462E-02
  5.09871001E-03 -1.80554969E-03 -2.50160684E-03 -4.08998289E-03  2.76903864E-03
 -1.14897066E-03  5.31959462E-03 -6.95928007E-04  2.60204096E-04 -1.09149865E-03
 -1.56600342E-03  5.60184515E-04  2.46048409E-03 -9.86617548E-03 -6.00202640E-03
 -9.88780402E-03 -2.53482570E-03  7.19459364E-03 -9.81037275E-03  2.12178153E-03
  1.53434560E-03  1.92257103E-04  1.07498940E-03  2.21552595E-03 -7.29172164E-03
  3.56608280E-03  1.24742047E-02 -3.60721679E-02 -1.84728397E-03 -8.54612610E-06
  9.10863776E-03 -3.56123227E-02 -9.80458754E-05 -4.41928822E-03  1.20433118E-02
  3.15072713E-03 -1.62174815E-06 -9.78691444E-03  1.22163616E-05  5.60362679E-04
  2.46109719E-03 -9.86856288E-03 -6.00644060E-03  9.90415675E-03 -2.53237524E-03
  7.39891983E-03  9.71081028E-03  2.12420004E-03  1.53312513E-03  1.93518683E-04
 -1.07483082E-03  2.22638256E-03  7.28670623E-03  1.00675067E-03  3.57565697E-03
 -1.07686274E-02  5.10140267E-03  1.80039369E-03 -2.50336680E-03 -3.89131570E-03
 -2.67901599E-03 -1.15436686E-03  5.31939699E-03 -6.91894921E-04 -2.71244083E-04
 -1.08905996E-03  1.56036800E-03  3.30622414E-04  1.10003710E-03 -7.89470694E-04
  3.03977369E-04  7.49584967E-07  2.00681837E-03 -5.34149447E-03 -1.37586145E-05
  1.08784883E-03  3.37360191E-03  5.74408051E-04  5.70363632E-06 -5.52875503E-04
 -2.14619943E-06  6.65279339E-03  2.31336028E-02 -4.53130248E-02 -6.14475567E-03
  2.32589172E-05  2.28379652E-02 -1.18555627E-02  1.68430589E-05  1.31201248E-02
  7.62186092E-03 -3.00164149E-04 -1.09324652E-03  3.16725592E-03  1.41445139E-03
 -1.02697003E-05  1.58035531E-02  5.84528733E-03 -2.25281808E-05 -1.78524695E-03
 -1.59459916E-04 -5.43393940E-04 -7.91900538E-07  2.97256501E-04 -2.61852271E-06
 -4.25141439E-04 -1.62043934E-03  5.69398120E-03  1.80320569E-03  8.77395713E-04
 -3.59097473E-03  2.65206300E-03 -3.95377460E-03  1.71630508E-03 -2.06477761E-03
 -4.42695356E-03  2.31497118E-03  1.58543331E-03 -1.54356134E-03 -5.81326275E-04
 -1.98833233E-03  6.15015439E-03 -2.04756411E-03  7.54080128E-05 -2.81633665E-02
 -4.22432412E-03  9.55119882E-03 -8.35403948E-03  3.18472951E-04 -2.32695992E-03
 -4.50616273E-03 -1.09668157E-03 -1.85985566E-03  9.43858177E-04  2.91063655E-03
 -8.16398949E-03 -1.01057773E-02 -1.23321450E-05 -4.35202189E-02  2.27125403E-02
  2.94126635E-05  2.37816191E-04 -2.02614085E-03  2.75526633E-03 -3.02740675E-06
 -1.36516733E-03  1.27466159E-05 -5.79367959E-04 -1.98196296E-03  6.13473502E-03
 -2.07283616E-03 -5.12456607E-05 -2.81691100E-02 -4.29183279E-03 -9.52664683E-03
 -8.35835748E-03  3.21680503E-04 -2.32242172E-03  4.50667660E-03 -1.09927460E-03
  1.86584177E-03 -4.24237734E-04 -1.61773910E-03  5.69014595E-03  1.81394093E-03
 -8.71260901E-04 -3.59611630E-03  2.60496684E-03  3.93842580E-03  1.72192921E-03
 -2.06205092E-03 -4.42923926E-03 -2.31323118E-03  1.58303407E-03  1.54719453E-03
 -2.35783419E-04 -7.89842453E-04  8.98808462E-04 -9.35224058E-06  4.49357586E-06
  5.15375715E-03  2.65389608E-03 -8.97408735E-07  4.11910250E-03 -1.54618086E-03
  3.54093195E-03 -5.04993534E-07 -8.11577422E-04 -2.40252767E-07 -1.42352424E-03
 -5.12638972E-03  1.12739299E-02  1.85751431E-02  5.05972405E-05 -1.50122300E-02
  1.29879804E-02  1.44582853E-05 -8.48106850E-03 -2.17088971E-03  5.50561454E-03
 -2.02837552E-06 -7.28856601E-06  2.18203323E-05  1.30803559E-05 -9.61638153E-04
 -5.34900832E-06  1.98759160E-05  6.67130291E-03  1.67081606E-06 -2.97532866E-06
  6.91747954E-07 -6.20639767E-05 -5.62623012E-06  1.37875952E-04  6.37118002E-05
  3.03239084E-04 -1.61638930E-03 -2.68794081E-03  1.56166175E-04  1.93669155E-04
 -5.61636141E-03  4.13851935E-03 -4.34575480E-06  1.58545095E-04  2.96872628E-05
  1.53142566E-05 -1.36513482E-04  6.12877132E-04 -1.57721039E-04 -5.14118363E-04
  1.42824514E-03  3.62241136E-03  1.72451824E-03  1.48729227E-04 -2.13446191E-03
 -5.51236007E-03 -6.74319758E-05 -5.13385546E-05  2.94642620E-05 -1.03873933E-04
  1.99847068E-04  6.19882901E-04  1.60146324E-06  4.19085187E-06 -8.21292191E-06
 -5.72881553E-06 -1.52223453E-03  6.29307084E-06  5.45624941E-05 -4.23987874E-03
  1.55276323E-06 -8.92601996E-06 -1.15345488E-06 -5.74262221E-04  7.35469140E-06
  6.21140456E-03  1.54885881E-04  5.03633294E-04 -1.39338384E-03 -3.63862959E-03
  1.73329836E-03 -1.29269317E-04  2.13848235E-03 -5.55246386E-03  6.74747014E-05
  4.61161006E-05 -2.76321652E-05 -1.06347034E-04 -1.94959197E-04  6.23668840E-04
 -6.86039842E-05 -3.21034875E-04  1.67448967E-03  2.69568714E-03  1.42524996E-04
 -1.89644400E-04  5.65461413E-03  4.15123389E-03  6.72345559E-06 -1.74078786E-04
 -2.58370401E-05  1.69276395E-05  1.41686857E-04  6.22744328E-04 -6.24009709E-07
 -2.10332262E-06  1.43931809E-06 -3.34115331E-06  1.99697146E-04 -1.17370311E-06
  1.17537620E-05 -1.27083079E-03 -1.45255754E-06 -7.02165445E-06 -1.65107621E-06
  4.37656947E-06 -3.27318472E-06  3.89360207E-04 -3.45576935E-06 -1.23649218E-05
  2.67651542E-05  3.01494644E-05  3.26278696E-02  2.03269470E-06  3.70198573E-05
  1.20845928E-02  6.59731863E-07 -3.14277345E-06  4.02751041E-06  1.75455573E-03
  8.79716233E-04  3.66746233E-03 -1.57252912E-02 -1.22579877E-02  1.33072149E-05
  1.52839562E-03 -1.23348234E-02 -4.27436395E-05  1.90982717E-05 -4.78500480E-05
  3.65543450E-05 -3.65469278E-06  1.10056714E-03  6.92718668E-06  8.69020861E-04
  3.38807117E-03 -1.39212577E-02  2.99656189E-03 -5.27909402E-03  5.35520721E-04
 -2.02967590E-02  3.57043535E-03  2.40826873E-05 -6.15158175E-04 -3.07224237E-04
  1.53622867E-04  3.67458106E-03  9.69183377E-03 -2.13345554E-03 -6.79624702E-03
  1.43728056E-02  1.20405443E-02  2.50867186E-02 -9.74793261E-04 -1.44261204E-02
 -1.14010410E-02 -2.91032962E-04 -4.99668028E-03 -3.19317016E-04 -4.14769715E-04
 -4.39629614E-03  1.79823563E-02 -1.07390260E-02 -3.53044974E-02  9.63912762E-02
  1.29747671E-02 -5.95604796E-05 -2.94327486E-03 -2.40815270E-02  5.59309526E-05
 -2.25910639E-05 -1.42258076E-02 -8.16952116E-04  1.08055512E-06  8.51775406E-03
  1.80776770E-05 -2.12763169E-03 -6.77600558E-03  1.43062535E-02  1.19920128E-02
 -2.50352076E-02 -9.87438860E-04 -1.44927828E-02  1.14144405E-02 -2.90877958E-04
 -4.99684117E-03 -3.23843256E-04  4.18992312E-04 -4.42237011E-03 -1.79568978E-02
  8.67855833E-04  3.38406646E-03 -1.39021488E-02  2.99963947E-03  5.26508753E-03
  5.33343080E-04 -2.03493942E-02 -3.55160528E-03  3.78814260E-05 -6.07434102E-04
 -3.12504459E-04 -1.44901403E-04  3.66503771E-03 -9.67384976E-03 -2.40841353E-04
 -9.22457803E-04  3.93593421E-03  9.30938173E-03  3.09224772E-06  1.30091354E-04
 -7.24525898E-03  1.50291105E-05  2.32113480E-04  4.37107036E-03  2.74664468E-04
  3.57109265E-06  6.18184382E-03  1.27449895E-05 -3.08108964E-03 -1.05007555E-02
  1.79898531E-02 -4.87223602E-02  7.31013152E-05 -3.16906042E-03 -2.69442677E-02
  2.17789961E-05 -1.75215291E-03 -4.59710390E-03 -9.92406839E-04  1.75255527E-06
  1.32870164E-02 -2.77233157E-07 -1.33065010E-06  7.59981331E-06  3.68743249E-06
  6.76558516E-03  1.08193438E-05 -4.58928872E-06  2.09514552E-02  1.63623310E-06
 -1.16330628E-06  3.94812866E-07 -1.82152390E-04  1.21649093E-06  5.43454103E-04
 -1.94144439E-04 -4.18785805E-04 -3.02304475E-03 -4.89362135E-03 -5.81272267E-03
  5.89482367E-04 -1.18632308E-02  2.16305396E-02  1.50153373E-05 -3.46910876E-03
  7.71415388E-05  5.32614540E-05  4.38922906E-03  7.22533558E-03 -4.60750284E-03
 -1.59718894E-02  5.10863386E-02  3.07340915E-02  3.76757325E-02  3.31149336E-04
 -1.11519299E-03 -5.24419419E-03 -2.20848449E-04 -2.88594673E-03  1.07730193E-04
 -2.78398664E-04  5.25903311E-03  1.03113144E-02  6.72289102E-06  2.23313273E-05
 -6.06267126E-05 -2.59809178E-05 -8.04360925E-02 -1.07079440E-05  1.76492606E-06
  1.52302344E-02  4.64978038E-06  1.17641021E-05  3.29490185E-06 -1.66570512E-03
  1.49043388E-05  3.27451385E-02  4.61154929E-03  1.59854376E-02 -5.11224788E-02
 -3.07344823E-02  3.77203815E-02 -3.29012106E-04  1.12513901E-03 -5.23316805E-03
  2.07011293E-04  2.89406917E-03 -1.05968571E-04 -2.78603416E-04 -5.24875829E-03
  1.03381975E-02  1.94069245E-04  4.18332662E-04  3.02702679E-03  4.88302102E-03
 -5.81767880E-03 -5.94415322E-04  1.18953949E-02  2.16167795E-02 -1.14731339E-06
  3.47376420E-03 -7.22068374E-05  4.73160918E-05 -4.39011704E-03  7.23492678E-03
  4.11297776E-07  1.37217822E-06 -1.78810275E-06 -2.97947488E-06 -1.81189900E-03
  5.28933264E-06 -8.86903890E-07 -8.64261726E-04  2.28918860E-06  2.11381125E-06
  1.15742191E-06  2.35661445E-05 -2.26772946E-06  2.90165530E-03  2.09213485E-06
  7.28773242E-06 -1.30317945E-05  4.65484456E-05  7.47866955E-02  2.70821410E-05
  1.20061240E-05  2.11183000E-02  9.30883496E-06  8.84535123E-06  9.46757852E-06
  4.26176298E-03  6.84190044E-06  2.08228630E-02 -1.65459200E-04 -5.96828122E-04
  1.67690743E-03  4.92983064E-04 -1.89456671E-03  6.24455453E-03  1.19799541E-02
 -2.21620671E-03 -8.20166020E-04  3.37411432E-03 -1.83687807E-04 -3.11174865E-05
  4.35751019E-03 -3.88739006E-03 -1.11006690E-03 -4.07517068E-03  1.64051774E-02
  1.10296736E-02  2.67343896E-03 -2.03142376E-03  5.68259829E-03 -2.55534643E-02
  1.15882322E-03 -5.79692851E-03 -1.24196630E-03  6.20100615E-04  6.96142078E-03
 -9.41131095E-03  1.53849130E-03  5.40191734E-03 -1.36334390E-02 -2.36454194E-02
 -1.44242420E-02 -7.11444729E-03 -6.21299835E-02  6.22511093E-02  1.45162801E-03
  1.30319024E-02  3.19058970E-04  3.13349412E-03 -1.74332139E-02 -1.32955827E-02
  2.36734989E-03  8.32260065E-03 -3.93962097E-02 -4.75277901E-02  2.57163304E-02
  5.30381114E-03  1.17919742E-01 -1.68351687E-02 -2.72946915E-03 -1.54434210E-02
  9.45760663E-03  4.43352887E-03  7.76686287E-03 -5.81681800E-02 -3.66786564E-03
 -1.28786696E-02  4.59403474E-02  3.02063692E-02 -2.54523677E-02 -8.86951957E-03
 -2.17463016E-02 -3.16542981E-02 -5.34766781E-04  1.03680848E-02  1.31793695E-03
 -1.32663826E-03 -1.03096895E-02 -5.05053345E-04  4.98252798E-04  1.52019203E-03
 -3.92175452E-03 -1.13546850E-02  6.97262371E-04 -2.90811776E-03 -1.04760367E-02
  1.38341373E-02  5.51696466E-04 -8.83761464E-03 -1.33538556E-03 -9.37923375E-04
  5.77476527E-03 -2.78629506E-03 -2.02602689E-04 -6.68040618E-04  4.11346591E-04
 -5.42628403E-04 -5.13467418E-04  3.62810334E-03  4.28563524E-03 -3.06892803E-03
  2.53895028E-03 -2.09956536E-03  1.68754694E-03  1.67308170E-05 -1.08344226E-03
  1.30976132E-04 -2.01902459E-02 -7.21845108E-02  1.51776891E-01  1.57287746E-01
 -2.77984891E-01  4.64167006E-02  4.80259030E-02 -9.47647494E-02  1.16569368E-02
 -1.54176753E-02  7.86509168E-03 -1.47666495E-02 -5.65131928E-03 -3.80745373E-02
  2.18651415E-01  1.12579859E-02  4.08601067E-02 -1.23012920E-01 -6.95811430E-02
  1.26014163E-03  8.68022172E-04 -1.30115753E-01  1.42696385E-01 -1.48956543E-03
  1.93796095E-02 -2.74397253E-05  1.54958276E-04  3.71939707E-02 -6.40010875E-03
  1.43588776E-02  5.38321765E-02 -1.86155353E-01 -3.78787715E-02 -3.25545768E-02
 -1.80332871E-03 -1.99363998E-01  1.09606656E-01  1.81106970E-03  4.38625354E-02
  3.73476165E-05  2.68278348E-04 -6.72473327E-03  2.62689945E-02  8.22307945E-03
  2.92160076E-02 -7.93010474E-02  7.94570880E-02  2.63224110E-02 -9.46298146E-04
 -1.59859089E-01 -1.20785720E-01 -3.44745843E-03  3.41178364E-02 -5.52019749E-05
  7.65476344E-04 -2.96597910E-02 -1.48100263E-03  7.92280722E-04  5.61264172E-03
 -2.61211774E-02 -1.56188193E-02 -3.78368216E-02  1.00857181E-02 -1.80855107E-01
 -1.04034976E-01  9.41575284E-03  3.75667889E-02  5.78009698E-03  4.76877374E-04
 -6.26483562E-03  3.43860645E-03  1.24788647E-02  4.36476949E-02 -1.25439256E-01
  3.10029368E-02 -1.39030663E-02  4.36386830E-04  2.33366300E-02 -1.53528207E-04
 -3.59672952E-03  3.78776900E-02 -3.34804280E-04 -5.03745458E-04 -2.85235188E-02
  5.41526465E-03  1.39503983E-02  4.99795569E-02 -1.51909827E-01 -2.36513782E-02
  3.21790752E-02 -3.77077074E-04 -4.82011332E-03  5.19909707E-02  2.10626418E-03
  3.77216414E-02  2.40335952E-04 -2.58535301E-04 -2.05232955E-02 -2.45869936E-02
  4.78690562E-03  1.59452300E-02 -1.21905264E-02  1.20567911E-02 -1.12506342E-03
  6.38205087E-04 -7.35023429E-02 -3.05777247E-02  1.12835011E-03  4.70215195E-02
  4.56159239E-04  1.02700231E-04  2.24257384E-02  1.32458839E-02 -7.68020024E-03
 -2.68652042E-02  5.03895076E-02  8.64903044E-02 -2.57980799E-02  2.79792528E-02
 -1.41246980E-01  4.34550796E-03 -1.56419064E-02  7.81258274E-03 -3.22007084E-03
 -9.29502775E-04 -4.12710472E-04  2.89419129E-03  4.40923785E-02  2.03100101E-01
 -1.64263709E-03 -6.04189321E-03  1.88688378E-02  1.13223136E-02  1.66343093E-04
 -9.45077309E-04  2.03896203E-02  2.89451933E-03  2.08600206E-04 -2.05896717E-03
 -8.22370118E-05 -1.70969076E-04 -5.37286745E-03 -6.95134599E-04 -2.43562648E-03
 -8.71619945E-03  2.70076607E-02 -1.07280383E-03  2.93314850E-03 -4.01045830E-04
  1.44506113E-02  1.84216349E-04 -7.30546559E-04 -5.51247326E-03  3.00506426E-05
 -8.56539737E-05  1.20107714E-03 -4.24781420E-03 -1.51386213E-03 -5.28299746E-03
  1.42989410E-02 -7.19695894E-03  3.80255212E-03  5.57598020E-04  6.45560271E-03
  7.50215146E-03  1.63608338E-03 -6.26503355E-03  2.02084834E-04  4.60547457E-04
  2.11507389E-03 -6.12674917E-03  2.66261224E-03  8.96425468E-03 -2.50319250E-02
 -3.69081784E-02  6.48162422E-04  3.71165612E-03  2.31336743E-02  9.89396777E-04
 -2.89912145E-03  4.93778508E-03  7.01477957E-04 -4.78298582E-04 -2.15771054E-02
  4.41259223E-03 -1.28681877E-03 -4.81654883E-03  1.55644099E-02  1.40862299E-04
  4.41067312E-03 -6.09706302E-04  5.86450530E-03 -1.41099863E-02  1.55455961E-03
 -6.34500773E-03  3.15722488E-04 -6.01753679E-04 -6.75243456E-04  8.86955098E-03
 -1.51503298E-03 -5.61297135E-03  1.75931891E-02 -3.60412502E-03 -5.23695413E-03
 -1.65414398E-03  2.01307320E-02  9.78197203E-03 -8.62483324E-04 -4.74691408E-03
 -1.35614392E-04  9.36405631E-05  1.12188063E-03  6.34136174E-03 -3.37802571E-04
 -1.06957046E-03 -9.32464792E-04 -4.67780201E-03 -1.28692836E-03  3.67927976E-04
  1.07821986E-02  1.56804905E-04 -2.26569167E-05 -6.88773388E-03 -1.01270739E-04
  1.63074566E-05 -4.51315567E-03  9.28980158E-04  7.65192507E-03  2.68681484E-02
 -5.28085288E-02  1.55546027E-02  1.96091456E-02  3.73129968E-03  2.69087000E-02
  6.21182270E-03  8.22225928E-03  3.78169549E-03 -2.51071256E-05  1.03003945E-03
 -5.45743886E-03  2.34265902E-03 -2.07929136E-02 -2.89811940E-02  1.13921914E-02
  2.47283408E-03  8.96445829E-03 -2.68794041E-02 -1.18888574E-02  3.41358105E-04
 -2.93376447E-03 -2.69123122E-02  4.14826531E-02 -2.12419335E-04  5.33306619E-03
  7.32479078E-05 -1.78230365E-05  6.25552222E-03 -4.42122494E-04  2.82223012E-03
  1.11595082E-02 -4.19671796E-02 -1.61792558E-02 -8.94295718E-03  1.58031100E-05
 -5.24855099E-02  3.01781462E-02  6.00317719E-04  8.19204471E-03  7.76755938E-04
 -3.88705080E-04 -1.59641887E-03  8.14154290E-03  2.44403189E-03  7.96915771E-03
 -1.71986072E-02  2.66828760E-02  1.25736496E-02  3.15438104E-03 -5.00569783E-02
 -2.86581558E-02 -6.93430398E-04  9.91499163E-03  4.08589664E-04  5.44217151E-04
 -8.98822403E-03  3.27979624E-03 -2.06246361E-04 -6.93378852E-04  1.39784664E-03
 -2.06992636E-03 -1.58173999E-02  4.48938969E-03 -1.64588611E-02 -3.31771812E-02
  3.76813381E-03  2.09315816E-03  8.96392630E-04 -9.16586653E-05  6.68480429E-03
  2.42790139E-03  2.67359838E-03  9.14132606E-03 -2.43474575E-02  2.54549892E-03
 -1.74272909E-03  3.19012174E-03  6.35616870E-03 -1.66773927E-02 -7.52898041E-04
  1.02259438E-02  3.40263116E-04 -5.39534869E-04 -8.21152655E-03  4.32919211E-04
  2.77018666E-03  9.91270851E-03 -2.94856041E-02 -3.41744571E-04  3.15892604E-03
 -1.44396861E-05  7.89846746E-03  2.23819817E-02  6.55169341E-04  6.18197458E-03
  7.77884535E-04  3.98161147E-04 -3.17680052E-03 -4.80657830E-03  1.37034830E-03
  4.59572997E-03 -5.13566521E-03 -3.02146269E-04 -9.85119053E-04 -1.09797194E-03
 -1.49368336E-02 -8.22099511E-03 -6.07013912E-04  9.46964368E-03 -5.91479611E-04
  3.89420055E-05  4.10556774E-03  4.89038015E-03 -7.74437000E-03 -2.70840751E-02
  5.32455218E-02  3.93025949E-02  2.64597974E-03  4.94855595E-03 -2.44476797E-02
  5.31421200E-03 -6.99873208E-03 -3.12041036E-03  4.94959586E-04  3.34904775E-04
  9.95450959E-04  2.69719711E-03  2.41566033E-02  5.13599633E-02 -1.03392163E-02
  1.78537019E-02 -3.92009190E-04 -1.43843429E-03  4.68197250E-03  2.54404852E-03
 -1.34125153E-03  8.72566311E-03  2.67152357E-03 -1.26362834E-02 -1.20935044E-04
 -7.84669290E-04 -6.56059192E-05  5.08250961E-04 -1.80895834E-03  6.88599577E-04
 -3.80898645E-04 -1.46919370E-03  5.65407257E-03 -1.33079093E-03  1.61579754E-03
 -1.73529361E-03  1.17202811E-02 -6.46086910E-03 -6.80036062E-04 -7.21723522E-04
 -1.81089064E-03  1.13650575E-03 -1.47789618E-03 -5.97305725E-04  1.65248653E-04
  5.73004605E-04 -2.58970110E-03 -2.00132924E-03 -1.92511028E-03 -6.79721018E-03
  1.52018604E-02  1.26014575E-03  1.98403951E-03 -1.27855074E-03  4.30846625E-05
  1.03868561E-03  2.17505780E-03  4.99244283E-04 -2.28787519E-04 -6.76023693E-04
  1.75910856E-03  6.47878553E-03  3.05409771E-03  6.51858711E-03 -6.24048880E-03
  9.29837821E-03 -6.29743689E-03 -2.15534704E-04  4.16375881E-03  2.49425544E-04
  7.24003597E-04  1.78365921E-03 -2.31544339E-04 -8.45290382E-04  2.44776286E-03
 -3.87639348E-04  2.75752028E-03 -3.06686715E-03 -2.46599870E-03  7.20069282E-03
  2.68178912E-03 -1.73634317E-03 -4.68342138E-04 -1.11304022E-03  1.98673960E-03
 -4.53153050E-04 -3.03854102E-04 -1.10219735E-03  3.20825727E-03  5.65354964E-04
 -5.94527802E-04  1.99951426E-03 -4.80233248E-03 -7.91985649E-03 -1.17874331E-04
 -2.91306297E-04 -1.31240687E-03 -1.07045098E-03  2.61088232E-04  8.71657296E-04
 -1.01888971E-04 -3.31713299E-04  9.94352497E-05 -7.87718150E-04  3.48114795E-04
  3.63293882E-03  1.92457358E-03  2.59587561E-03  2.58162756E-03 -1.31437574E-03
  1.96582866E-03 -9.36624543E-05 -6.13873020E-04 -1.49941277E-03  1.25797501E-03
  4.38748558E-03 -8.85081310E-03 -1.22618326E-02  1.45455142E-02  2.88536844E-02
 -8.97725659E-04  3.97246355E-03  1.67606296E-02  1.40449581E-03 -7.87300426E-04
  7.38245102E-04  7.16760299E-05  1.26841985E-03 -1.01886658E-02 -7.02717467E-03
  1.76207002E-03 -2.53179602E-03  1.95203951E-03 -1.65835138E-04 -5.98237354E-04
  1.68036203E-03  4.92823685E-04  1.89003086E-03  6.27954494E-03  1.20040640E-02
  2.18158375E-03 -8.22394950E-04  3.37375525E-03 -1.83777337E-04  2.07295352E-05
  4.36239716E-03  3.87922421E-03  4.97876852E-04  1.51879637E-03 -3.91588428E-03
 -1.13520766E-02 -6.87148756E-04 -2.92347737E-03 -1.04353866E-02 -1.38661667E-02
  5.33665357E-04 -8.83932798E-03 -1.33131387E-03  9.46083850E-04  5.78299528E-03
  2.77636972E-03 -3.66739403E-03 -1.28772403E-02  4.59356480E-02  3.02161549E-02
  2.54341181E-02 -8.90047708E-03 -2.16927806E-02  3.16782969E-02 -5.27354039E-04
  1.03658855E-02  1.31583866E-03  1.32730740E-03 -1.03112317E-02  5.04479325E-04
  2.36700767E-03  8.32141674E-03 -3.93913171E-02 -4.75354857E-02 -2.56878866E-02
  5.29176626E-03  1.17919501E-01  1.67827259E-02 -2.75444218E-03 -1.54537985E-02
  9.49672860E-03 -4.44456574E-03  7.82996159E-03  5.81424050E-02  1.53762299E-03
  5.39862212E-03 -1.36203548E-02 -2.36376688E-02  1.44395058E-02 -7.14782349E-03
 -6.21612130E-02 -6.22059272E-02  1.44123574E-03  1.30323234E-02  3.20966521E-04
 -3.14527338E-03 -1.74182482E-02  1.33148324E-02 -1.11026910E-03 -4.07595437E-03
  1.64063064E-02  1.10248736E-02 -2.67311016E-03 -2.04225040E-03  5.64626965E-03
  2.55337484E-02  1.18264350E-03 -5.79793369E-03 -1.25168876E-03 -6.31684201E-04
  6.96676962E-03  9.41093507E-03 -2.03153747E-04 -6.69822664E-04  4.12757775E-04
 -5.42569327E-04  5.15207160E-04  3.64249535E-03  4.29129638E-03  3.06952173E-03
  2.54860805E-03 -2.10162784E-03  1.69681051E-03 -2.08542388E-05 -1.08389227E-03
 -1.36027837E-04 -2.01894245E-02 -7.21816190E-02  1.51772135E-01  1.57438263E-01
  2.77846969E-01  4.67016230E-02  4.80858996E-02  9.47515090E-02  1.17709170E-02
 -1.53863140E-02  7.91278535E-03  1.47937376E-02 -5.59258215E-03  3.80743710E-02
 -3.45631228E-02  2.43860012E-02 -3.13874251E-03  2.82556352E-02  2.69173131E-03
  2.18645401E-01  1.12498706E-02  4.08324838E-02 -1.22945554E-01 -6.95755362E-02
 -1.20168900E-03  8.95295456E-04 -1.29865596E-01 -1.40212305E-01 -1.53193294E-03
  1.93906579E-02 -4.18819105E-05 -2.70227632E-04  3.71801362E-02  6.36291647E-03
  1.39452663E-02  4.99598987E-02 -1.51828107E-01 -2.36589755E-02 -3.22001281E-02
 -3.86988944E-04 -7.00260167E-03 -5.10195404E-02  2.05615897E-03  3.76867186E-02
  2.17381837E-04  2.08758381E-04 -2.04890448E-02  2.45101208E-02  1.24712323E-02
  4.36197573E-02 -1.25339147E-01  3.10259794E-02  1.39335961E-02  4.58313655E-04
  2.11189162E-02 -9.28779431E-04 -3.55772896E-03  3.78551472E-02 -3.47141006E-04
  5.15121076E-04 -2.85834676E-02 -5.42234828E-03  7.82691045E-04  5.57911705E-03
 -2.60224388E-02 -1.56137329E-02  3.77930259E-02  1.01087570E-02 -1.80679154E-01
  1.01540219E-01  9.37566712E-03  3.75232990E-02  5.79266511E-03 -4.96418750E-04
 -6.28639316E-03 -3.41890218E-03  8.21120911E-03  2.91744507E-02 -7.91965722E-02
  7.94218235E-02 -2.63126661E-02 -9.96706509E-04 -1.57478422E-01  1.19644852E-01
 -3.35845175E-03  3.40801623E-02 -5.46253661E-05 -7.54293938E-04 -2.95870665E-02
  1.45567431E-03  1.43480283E-02  5.37939507E-02 -1.86067100E-01 -3.78562751E-02
  3.25269895E-02 -1.77079714E-03 -1.97233522E-01 -1.08388006E-01  1.78225228E-03
  4.38247719E-02  4.76360310E-05 -3.50896922E-04 -6.69573545E-03 -2.62945956E-02
  4.77945211E-03  1.59214520E-02 -1.21827892E-02  1.20755196E-02  1.13617019E-03
  5.91445164E-04 -7.34019304E-02  3.03286154E-02  1.11738551E-03  4.69466331E-02
  4.76813943E-04  4.55827508E-05  2.23976087E-02 -1.32309256E-02 -7.67026037E-03
 -2.68312718E-02  5.03263816E-02  8.64252960E-02  2.57234454E-02  2.80692688E-02
 -1.41145623E-01 -3.94414260E-03 -1.55733311E-02  7.80978412E-03 -3.22009858E-03
  8.84740156E-04 -4.09260015E-04 -2.87447594E-03  2.43596273E-02  1.79942299E-01
 -2.64502270E-02  4.46648806E-02 -3.97566871E-03  4.40591722E-02  2.02791727E-01
 -1.64495199E-03 -6.05047352E-03  1.88939585E-02  1.13392605E-02 -1.77449913E-04
 -9.50480603E-04  2.04207760E-02 -3.10014235E-03  2.07430572E-04 -2.06507210E-03
 -8.32525458E-05  1.87386712E-04 -5.37982878E-03  6.96349313E-04 -1.51951067E-03
 -5.62854222E-03  1.76386820E-02 -3.59397935E-03  5.25137513E-03 -1.66083838E-03
  2.03402694E-02 -9.88317429E-03 -8.62920262E-04 -4.75569591E-03 -1.36433068E-04
 -8.87635026E-05  1.12495998E-03 -6.34147851E-03 -1.28975824E-03 -4.82668135E-03
  1.55897811E-02  1.27449500E-04 -4.41304420E-03 -6.20332717E-04  6.09280268E-03
  1.42194115E-02  1.56117235E-03 -6.35478051E-03  3.14574201E-04  6.00479990E-04
 -6.65623149E-04 -8.86088411E-03  2.66047679E-03  8.95719976E-03 -2.50160090E-02
 -3.68892342E-02 -6.35292568E-04  3.70816591E-03  2.31743484E-02 -7.59036168E-04
 -2.90598051E-03  4.92492737E-03  7.01251836E-04  4.79535991E-04 -2.15736962E-02
 -4.38749489E-03 -1.51779567E-03 -5.29647117E-03  1.43374174E-02 -7.22928373E-03
 -3.78938535E-03  5.53114714E-04  6.26356911E-03 -7.42275973E-03  1.63707245E-03
 -6.27527258E-03  2.02177909E-04 -4.62024801E-04  2.12541724E-03  6.12707505E-03
 -2.43947797E-03 -8.73044995E-03  2.70560353E-02 -1.04279879E-03 -2.93681633E-03
 -4.06716391E-04  1.42832005E-02 -2.64254330E-04 -7.42306939E-04 -5.52579156E-03
  2.72203932E-05  9.28552980E-05  1.20639583E-03  4.25931770E-03 -3.39456394E-04
 -1.07515689E-03 -9.25501283E-04 -4.67976720E-03  1.28239006E-03  3.72733730E-04
  1.08003375E-02 -1.42197176E-04 -2.27920070E-05 -6.89784219E-03 -1.01399824E-04
 -3.65384296E-05 -4.51506338E-03 -9.30460632E-04  7.65289253E-03  2.68715825E-02
 -5.28151879E-02  1.55029389E-02 -1.96178311E-02  3.72430458E-03  2.69359929E-02
 -6.26917507E-03  8.22983562E-03  3.77737072E-03 -2.75183121E-05 -1.02651332E-03
 -5.45880907E-03 -2.33614278E-03 -3.15177909E-03 -2.65231625E-02  9.79891999E-03
 -1.03137155E-02  7.64915771E-04 -2.07994222E-02 -2.90118558E-02  1.14035420E-02
 -2.46750587E-03 -8.94573019E-03  2.68301471E-02  1.18651177E-02  3.28139356E-04
  2.92958544E-03  2.67962369E-02  4.09467826E-02  2.24445145E-04 -5.32973384E-03
 -6.72354884E-05  7.79408093E-06 -6.24159201E-03 -4.37449589E-04 -2.76434956E-03
 -9.89204536E-03  2.94226182E-02  3.37343234E-04  3.15831466E-03  1.78213548E-05
 -7.45339629E-03  2.21851068E-02 -6.33222930E-04 -6.16098403E-03 -7.72582904E-04
  4.07565017E-04  3.16276058E-03 -4.78328531E-03 -2.66831631E-03 -9.12267270E-03
  2.42920849E-02 -2.54134839E-03 -1.75065504E-03 -3.18815665E-03 -5.90644534E-03
 -1.64470762E-02  7.29038150E-04 -1.02072808E-02 -3.38216079E-04 -5.43492061E-04
  8.21417055E-03  4.28058973E-04  2.10051778E-04  7.06567683E-04 -1.43221097E-03
  2.05713830E-03 -1.57927076E-02 -4.51345916E-03  1.63581905E-02 -3.26069953E-02
 -3.74119123E-03 -2.06658222E-03 -9.05964904E-04 -8.61744136E-05 -6.67499431E-03
  2.44281463E-03 -2.43348541E-03 -7.93244137E-03  1.70960569E-02 -2.66309900E-02
  1.25492487E-02 -3.12872299E-03  4.95144232E-02 -2.83704142E-02  6.61952856E-04
 -9.88847520E-03 -4.09070759E-04  5.45296162E-04  8.95971829E-03  3.28036745E-03
 -2.81267067E-03 -1.11255495E-02  4.18693058E-02  1.61264831E-02 -8.92500880E-03
 -1.49822579E-05  5.20014387E-02  2.98793335E-02 -5.88641611E-04 -8.16390946E-03
 -7.73830497E-04 -3.73034166E-04  1.57897380E-03  8.13011733E-03 -1.36671173E-03
 -4.58388651E-03  5.12854714E-03  2.98283890E-04 -9.81662835E-04  1.10724698E-03
  1.48849198E-02 -8.16412277E-03  6.09684872E-04 -9.43521122E-03  5.84456338E-04
  1.01028560E-05 -4.09321755E-03  4.88299151E-03  7.73712828E-03  2.70590335E-02
 -5.31979473E-02 -3.92399476E-02  2.69810647E-03 -5.01814196E-03  2.43773553E-02
  5.22561111E-03  6.94330560E-03  3.12202994E-03 -4.92100463E-04  3.39151487E-04
 -9.93946653E-04  2.69720799E-03 -2.82460435E-02 -4.45983611E-02  1.02855252E-02
 -1.51666206E-02  2.10808668E-03 -2.41226978E-02 -5.12061693E-02  1.03351346E-02
  1.77923812E-02 -3.93925139E-04 -1.44563080E-03  4.70626094E-03  2.55940676E-03
  1.33965196E-03  8.72495049E-03  2.67042686E-03  1.26140374E-02 -1.16645204E-04
 -7.91179399E-04 -6.42157410E-05 -5.03102595E-04 -1.81930605E-03 -6.92592114E-04
 -3.05609943E-04 -1.10844066E-03  3.22561382E-03  5.63604517E-04  5.98298388E-04
  1.99464028E-03 -4.74271680E-03  7.92069611E-03 -1.15715351E-04 -2.92537092E-04
 -1.31224529E-03  1.07060776E-03  2.61717005E-04 -8.74829573E-04 -2.32706720E-04
 -8.49430211E-04  2.45909535E-03 -3.88132634E-04 -2.77208454E-03 -3.07012357E-03
 -2.41530409E-03 -7.18397512E-03  2.67783411E-03 -1.74408741E-03 -4.66605470E-04
  1.11242022E-03  1.99515303E-03  4.47504235E-04 -2.27457420E-04 -6.70810874E-04
  1.74130874E-03  6.47607024E-03 -3.06740538E-03  6.51592177E-03 -6.24375983E-03
 -9.24739966E-03 -6.29500312E-03 -2.09558617E-04  4.15854586E-03 -2.48537962E-04
  7.11738087E-04 -1.79124749E-03  1.64553414E-04  5.70729262E-04 -2.58627754E-03
 -2.01651342E-03  1.93256166E-03 -6.78562660E-03  1.51811615E-02 -1.24596359E-03
  1.97876716E-03 -1.28591449E-03  4.16800096E-05 -1.03813856E-03  2.18153982E-03
 -4.98059696E-04 -3.83651995E-04 -1.47957282E-03  5.69202075E-03 -1.33415642E-03
 -1.61776845E-03 -1.72651895E-03  1.17169087E-02  6.44239639E-03 -6.75369154E-04
 -7.27356013E-04 -1.80960664E-03 -1.13297853E-03 -1.48501633E-03  6.02001764E-04
 -1.01983131E-04 -3.32065960E-04  9.98102956E-05 -7.94798184E-04 -3.47614822E-04
  3.63488065E-03  1.92958439E-03 -2.60303695E-03  2.58195054E-03 -1.31673143E-03
  1.96384203E-03  9.11278930E-05 -6.15237132E-04  1.50866383E-03  1.26626275E-03
  4.41682874E-03 -8.91014103E-03 -1.22990484E-02 -1.45765283E-02  2.88233152E-02
 -8.85651892E-04 -3.99663587E-03  1.67542507E-02  1.40774556E-03 -7.90527784E-04
 -7.39771728E-04  6.65677996E-05 -1.26846439E-03  2.66691878E-03 -4.01056944E-03
  7.71780970E-04 -2.12572006E-03  1.05490203E-03 -1.02178651E-02 -7.05763570E-03
  1.77433349E-03  2.53977592E-03  1.95647760E-03 -4.36021519E-04 -1.40192735E-03
  2.83311962E-03 -3.58239921E-03  9.71683359E-05  6.30704015E-06 -2.84852247E-02
 -1.24969587E-01 -1.29296677E-04 -6.61976106E-03 -8.99928957E-07 -2.97165382E-05
 -4.43575612E-03  5.88467584E-03 -2.34132946E-04 -8.19859928E-04  3.75175218E-03
 -4.72899957E-04 -2.05905800E-03 -5.11034203E-06  8.25605600E-02 -7.29267200E-02
  1.94619928E-04 -3.22352981E-03  7.75104817E-06 -3.33883399E-05 -8.58581642E-03
  4.28096464E-03 -2.88129568E-06 -1.06366522E-06  4.55772711E-04  3.09415918E-04
  3.46659935E-04  1.17009467E-05  6.93292596E-02  5.55471318E-02 -4.54706444E-04
  1.32200771E-03 -1.14409644E-04 -1.12650487E-04 -1.78627058E-04  1.05799535E-03
 -9.31911973E-05 -3.46108890E-04  1.71912305E-03 -6.10938352E-04 -2.43653974E-04
  3.63526352E-05 -1.66992761E-02  9.82519679E-02  7.90098118E-04  1.59827657E-03
  1.08562495E-04 -2.06774795E-05 -1.23559006E-03 -2.20459330E-03 -9.40574701E-05
 -3.71623924E-04  2.87005726E-03 -5.31642138E-04 -3.18309856E-04  5.57774033E-06
 -9.50746288E-02  6.45643605E-02 -1.77435645E-04  2.84950939E-04 -3.18353231E-05
  3.09315604E-05  1.79180553E-03 -2.67683543E-03  1.79560185E-05  1.49204357E-04
 -2.91220985E-03  1.55552502E-03  1.99070770E-03  2.59783311E-06 -1.00005622E-01
 -8.04868908E-02  6.26469358E-05  2.65863572E-03  1.19323170E-05 -3.10309936E-05
  3.23430256E-04 -4.34987855E-03  6.73784817E-04  2.20402891E-03  1.98501776E-03
  9.23960982E-03  1.15971735E-02 -4.54149135E-06 -8.35016058E-03  2.76735968E-02
  3.23756769E-05  1.50395464E-02  1.44255311E-05  1.34537850E-05  2.11522211E-02
 -1.81044086E-02  8.31065263E-06  5.36550098E-05 -5.48875861E-04  1.97605328E-04
  2.01259826E-04  3.97332374E-05 -1.20202582E-02 -1.24014765E-02 -1.62315557E-03
  6.77520352E-04 -3.82376090E-04 -2.49132677E-04  1.06638548E-03 -5.77222823E-04
 -7.66342095E-04  5.81285830E-03 -1.82994747E-03  5.36571836E-04  2.34569008E-04
 -4.83810669E-05  1.78498517E-02 -1.74433760E-03 -4.23098167E-03 -8.79664185E-04
  1.92142825E-01 -1.44334154E-03 -4.88891839E-03  1.09324473E-02 -1.27762557E-02
  1.28625472E-04  2.31817574E-05 -1.13360234E-01 -4.36549454E-01 -4.61406400E-04
 -2.37168946E-02 -3.99495628E-06 -1.02638234E-04 -1.55002268E-02  2.12464823E-02
 -7.83239762E-04 -2.90903184E-03  1.39692816E-02 -1.99324570E-03 -7.38461780E-03
 -1.81098949E-05  2.87594978E-01 -2.51314206E-01  6.95775664E-04 -1.10394405E-02
  2.78071029E-05 -1.17031101E-04 -3.16622679E-02  1.53907143E-02  1.30880417E-05
 -6.74582516E-06  1.85409823E-03  1.06337309E-03  1.31967712E-03  4.21658142E-05
  2.37371033E-01  1.92570722E-01 -1.64889826E-03  4.37173384E-03 -4.14979892E-04
 -4.10697771E-04 -2.88045239E-04  3.64477680E-03 -3.31725679E-04 -1.28443332E-03
  6.42333603E-03 -2.32696310E-03 -8.58264884E-04  1.34803646E-04 -6.09101737E-02
  3.40417511E-01  2.91602460E-03  5.97523366E-03  3.97572304E-04 -7.61260285E-05
 -4.55418211E-03 -7.69267774E-03 -3.15088382E-04 -1.36159368E-03  1.05586347E-02
 -1.90854283E-03 -1.23464636E-03  2.15848731E-05 -3.32024345E-01  2.26833328E-01
 -6.80031577E-04  8.55894624E-04 -1.28531040E-04  1.25356526E-04  6.60250855E-03
 -9.70778537E-03  8.36425480E-05  5.45993445E-04 -1.01759980E-02  5.47654670E-03
  7.11587458E-03  7.78136111E-06 -3.46680339E-01 -2.86798944E-01  2.26373979E-04
  9.71649073E-03  4.15797543E-05 -1.10385026E-04  4.48800824E-04 -1.58939302E-02
  2.27849127E-03  7.31045530E-03  7.93862052E-03  3.20192824E-02  3.95964776E-02
 -1.52784710E-05 -3.69404104E-02  9.22146016E-02  1.19289124E-04  5.18584267E-02
  4.99690154E-05  4.75593484E-05  7.34931559E-02 -6.09997918E-02  1.92793436E-05
  1.75687394E-04 -1.99093069E-03  7.18429395E-04  6.95379416E-04  1.52262606E-04
 -4.42342412E-02 -4.28249425E-02 -5.95435805E-03  2.47771740E-03 -1.40505335E-03
 -8.44116117E-04  4.06568424E-03 -2.02670354E-03 -2.71172934E-03  2.25457888E-02
 -6.71457448E-03  2.31530423E-03  7.56180974E-04 -2.30611758E-04  6.41498722E-02
 -6.35391158E-03 -1.51458103E-02 -3.12261952E-03  4.60531377E-01  1.11737596E+00
  5.28382862E-03  1.98821579E-02 -5.02259829E-02  6.22434576E-02  6.34662431E-03
 -1.15740491E-04  5.97738568E-01  1.82278108E+00  2.05532406E-03  1.06461239E-01
  2.10202497E-05  4.24976876E-04  5.87611506E-02 -9.74691991E-02  3.00871137E-03
  1.25182197E-02 -6.55676407E-02  1.33584818E-02  3.52991986E-02  7.27666053E-05
 -1.18531248E+00  1.01679377E+00 -3.10324090E-03  4.32681339E-02 -1.28534117E-04
  4.90614205E-04  1.46412601E-01 -6.83983372E-02 -2.55165386E-04 -8.07844057E-05
 -9.10824069E-03 -5.67694217E-03 -6.87253605E-03 -1.85557207E-04 -9.42515217E-01
 -7.87930321E-01  7.55471990E-03 -1.66599942E-02  1.89265772E-03  1.89010274E-03
 -1.37813566E-03 -1.52757466E-02  1.54602502E-03  6.29790720E-03 -3.10747126E-02
  1.23497428E-02  3.87311434E-03 -6.40093961E-04  2.82349685E-01 -1.39498503E+00
 -1.38769887E-02 -2.91505965E-02 -1.88197550E-03  3.57300464E-04  2.23788232E-02
  3.19635868E-02  1.30060645E-03  6.39398443E-03 -4.85265303E-02  8.39451886E-03
  6.68576562E-03 -1.04590279E-04  1.38768289E+00 -9.56660449E-01  3.50811093E-03
 -2.91972183E-03  7.21252802E-04 -7.04188648E-04 -2.96193410E-02  4.36943680E-02
 -9.41653613E-04 -3.93743636E-03  4.60796951E-02 -2.51388165E-02 -3.63086505E-02
 -2.85851144E-05  1.42942177E+00  1.23899546E+00 -1.08282554E-03 -4.59043926E-02
 -1.79215465E-04  4.79128200E-04  3.95932004E-03  7.31044721E-02 -5.18774638E-03
 -1.44993732E-02 -6.83538226E-02 -1.22732226E-01 -1.33358319E-01  4.36977127E-05
  2.19846070E-01 -3.52635246E-01 -5.69323121E-04 -2.14466929E-01 -2.07594488E-04
 -2.12044906E-04 -3.07081735E-01  2.31572014E-01 -1.05848701E-04 -9.74066963E-04
  9.57188944E-03 -4.08975126E-03 -2.92940915E-03 -7.48662566E-04  2.08636678E-01
  1.74395944E-01  2.80115562E-02 -1.16468037E-02  6.59370156E-03  3.29226707E-03
 -2.02809967E-02  8.41591342E-03  1.17742713E-02 -1.18528255E-01  3.14735013E-02
 -1.44670939E-02 -2.47430512E-03  1.54308260E-03 -2.88321014E-01  2.95652325E-02
  6.72406268E-02  1.36034465E-02 -1.36837196E-01 -5.00832405E-01  2.30327206E+00
  9.73907135E-03  3.39656603E-02 -1.10056020E-01  1.38609614E-01  3.74962786E-02
 -1.69958905E-05  1.00627825E-01 -1.81489392E-01 -2.19944794E-04  1.67616570E-02
  2.36597668E-05 -2.58559678E-06 -7.87431441E-03  4.10852874E-02  3.80861110E-03
  1.30766789E-02 -3.24428087E-02  4.17081164E-02  1.12469182E-02 -7.54399075E-05
  1.74378483E-01 -2.09309227E-01  3.78398639E-04  2.80206211E-03  1.22263051E-05
 -6.11184984E-05 -4.44752518E-03  2.35700290E-02 -1.17730204E-03 -4.16268129E-03
  1.39232330E-02 -1.24031930E-02  9.82832522E-04  7.05087978E-05  1.35915539E-01
  9.53054335E-02 -6.11741260E-04 -2.02729882E-03 -1.35463691E-04 -1.36578666E-04
 -3.04485309E-03 -4.58011369E-03  7.29314810E-04  2.58588540E-03 -1.02759094E-02
  6.70592707E-03  1.81769863E-03  5.40022370E-05 -2.15280236E-02  1.58555418E-01
  8.60844067E-04  3.00883308E-03  8.50324066E-05 -1.24405653E-05  1.81677467E-03
  9.63255358E-04  1.62164303E-03  5.60523852E-03 -1.66602589E-02  2.37749986E-02
  3.04592105E-03 -1.14830376E-05 -1.24512152E-01  1.30697015E-01 -1.63191511E-04
 -1.30130436E-03  3.21852418E-05  2.31611604E-06  3.62299316E-03  3.73401268E-03
 -4.01805247E-03 -1.43851723E-02  5.29488559E-02 -3.88752324E-02 -4.33852895E-02
 -7.89839200E-05 -1.90796892E-01 -1.65082727E-01  1.41631854E-05  1.87205804E-03
  3.02600804E-05 -4.37647912E-05 -8.51215185E-03 -3.71165468E-03 -1.22820135E-02
 -4.29830375E-02  8.87396735E-02 -6.94750929E-02 -2.29215187E-01  1.25683662E-05
  5.37831329E-02  5.11586421E-02  5.47292864E-05  8.66068089E-03  3.46132228E-05
 -7.66032505E-05 -1.77865754E-01 -9.76060668E-02 -7.88385366E-05 -2.45097202E-04
  6.75003705E-05 -2.84598051E-03 -1.24845372E-03  4.35292166E-05 -1.37793682E-02
 -1.88323323E-02 -1.82740952E-03  1.29922833E-03 -5.07115007E-04 -3.20937059E-04
  4.57042250E-04 -1.70130328E-03  2.37376373E-04  6.60233505E-03 -3.11145419E-03
 -1.90329404E-04  4.42675140E-04 -1.08069893E-03  1.87939091E-02 -7.43873146E-04
 -5.85818411E-03 -1.04248256E-03  1.17172674E-02  4.18531506E-02 -2.02166213E-01
  1.01082004E+00  6.85331448E-04  2.15948413E-03 -2.20700476E-02  2.65316702E-02
  8.82331262E-03 -6.39800924E-05 -9.53942753E-02 -4.85745925E-01 -2.59214594E-04
 -2.17837271E-02 -4.51423067E-06 -1.07021501E-04  4.62328617E-03  8.98272672E-02
 -2.27864283E-03 -8.18541211E-03  3.09855442E-02 -1.93431850E-02 -2.83380888E-02
  1.39593475E-05  2.15128841E-01 -1.07853417E-01  4.76600852E-04 -1.45677160E-02
  3.75847356E-05 -1.07040524E-04 -4.04414733E-02  1.39971585E-02  1.07565878E-03
  3.69934069E-03 -1.00942635E-02  1.33250699E-02  2.72781815E-03 -1.35813517E-05
  1.85813426E-01  1.16518552E-01 -1.14613012E-03  7.34359203E-03 -2.04313900E-04
 -2.19997140E-04  1.92885516E-03  1.44092551E-02 -3.73003228E-04 -1.34592898E-03
  5.25561460E-03 -2.09628798E-03 -8.96959726E-03  1.36592578E-04 -3.47119412E-02
  2.64351609E-01  1.84502969E-03  4.56705845E-03  3.10293528E-04 -1.16680722E-04
 -4.15237663E-03 -3.35822948E-03  7.24277974E-06 -1.67645929E-04  2.47274958E-03
  2.57886661E-03  1.54308443E-03  8.59986889E-05 -2.48574832E-01  1.26603169E-01
 -2.95352875E-04 -7.46474481E-03 -1.00333480E-04  7.64015905E-05  1.84713315E-03
  4.20176808E-03 -3.19740036E-04 -1.12200101E-03  1.00963045E-02 -6.44535251E-03
 -9.39611674E-03 -7.91068621E-05 -2.43167194E-01 -1.03698927E-01  1.47013515E-04
  2.56759769E-02  7.48816236E-05 -5.73730010E-05  1.08465065E-02 -1.34427829E-02
 -2.62389162E-02 -9.31370359E-02  2.09506907E-01 -2.37920270E-01 -3.22208268E-01
  2.52838933E-04  4.47221470E-03  2.27744060E-01  6.34694211E-05  3.37115263E-02
 -4.89535718E-05 -4.95687273E-06  7.95146637E-02  1.29730954E-01  1.93105892E-04
  7.74464158E-04 -2.88286621E-03  2.50437227E-03  6.72548601E-04 -1.27530256E-04
 -2.40929733E-02 -4.06267053E-02 -3.73454990E-03  1.24094529E-03 -7.16921434E-04
 -1.13009633E-03  1.65879760E-03  1.47929206E-03 -2.46324886E-03  4.01083208E-03
 -1.67704320E-03 -2.45288389E-04  8.97554176E-04  1.07062007E-03  4.67338057E-02
 -5.96933761E-03 -9.93395830E-03 -2.09339804E-03  1.87729730E-02  6.67151817E-02
 -3.22194213E-01 -1.96162900E-01  7.61030610E-01 -6.94372040E-06 -2.61126512E-05
  1.31828205E-04  1.08528639E-05 -1.07849962E-05 -1.47341527E-01 -4.95482961E-04
 -2.27420837E-03  1.23396726E-02  9.38294688E-05 -3.88409994E-02  3.65961903E-02
 -4.85583665E-05 -4.53797348E-05 -1.39724637E-06 -1.22523074E-05  9.75994411E-05
  1.07491210E-05 -2.57993345E-06 -7.18475558E-02  3.38519284E-03 -1.12706874E-03
 -1.73450964E-02 -2.73098947E-04  2.43125604E-02 -7.77078501E-03  2.14789213E-04
 -3.33814640E-05  9.51975747E-06  1.43583337E-05  5.87414216E-04  4.54125504E-05
  7.46203655E-05  4.42414757E-02 -5.08351717E-04  5.09860953E-03  1.30500211E-02
  7.05731990E-04  1.75562955E-02  7.00544951E-03 -6.14106514E-04 -3.06948713E-04
  1.01030322E-04  3.37037117E-04 -1.33211412E-03 -1.15508872E-03  3.53981265E-05
  7.69857744E-02  1.20904403E-02  2.42150509E-03  1.83403820E-02  8.46652920E-04
 -2.35156617E-02  4.94334751E-03  9.46889323E-04 -1.17064389E-04  1.20671843E-05
  2.24865564E-05  5.93623583E-04  9.25578555E-05 -1.64502937E-04  7.31247138E-02
 -4.64461692E-03 -2.28167670E-03  9.35454848E-03  7.30674056E-04  1.56188965E-02
 -9.60102796E-03 -5.31390329E-04  2.92833707E-04 -1.83807370E-06 -1.19602039E-05
  3.21660265E-05 -6.70560798E-06  2.44254821E-04 -7.20730168E-02 -9.00204445E-04
 -1.13615153E-03 -2.54384912E-02 -2.49456239E-04  2.51108280E-02  2.66353149E-02
  1.31564014E-04 -4.84245486E-05  1.06613727E-05  3.88637896E-05 -1.07019859E-04
 -1.22634303E-06  2.59103510E-04  3.04516718E-01  2.06347346E-04  1.24150827E-04
 -9.90365876E-03  9.64545602E-05 -4.50954955E-02 -1.41828022E-01 -1.87319686E-05
 -1.45702214E-05 -7.27413785E-04 -2.62816935E-03  6.00527152E-03  5.27676451E-03
 -6.38188033E-05 -8.20530452E-02  3.14474199E-03 -1.34713983E-04 -4.36172560E-02
 -1.60605235E-03 -9.37329118E-03 -9.98025778E-06 -6.99839929E-04 -9.00550277E-05
 -4.12006567E-03 -1.30638666E-03  9.09693036E-05  1.35165244E-03 -4.28077942E-03
 -4.02960267E-03 -1.19587985E-03  2.93898904E-04 -1.51327002E-03 -4.97426759E-03
 -5.70098244E-06 -2.09420185E-05  1.14862373E-04  1.33100789E-04 -5.71228695E-06
  8.64332928E-01  2.95441469E-03  1.02269119E-02 -3.13402939E-02  3.09604966E-02
  3.43178858E-02  5.16839340E-06  6.01375504E-02  1.33344770E-01  1.56812465E-05
  7.92417125E-03  1.37126788E-05  3.34584754E-05  9.04539990E-03  1.71558429E-02
  3.82553893E-03  1.29503318E-02 -3.77055602E-02  1.79385721E-02 -1.35784655E-02
 -2.64418826E-05 -8.79890774E-02  5.31167487E-02 -4.37520019E-05  7.60018934E-03
 -9.82053960E-06  3.10715042E-05  9.13360441E-03  6.67476954E-03  4.41804087E-04
  1.39108393E-03 -1.89685445E-03 -2.84064248E-03  1.63220490E-03 -2.85164467E-06
 -8.02707571E-02 -7.23647436E-02  1.88332869E-04  5.55147482E-04  6.38964364E-05
  7.54134371E-05 -2.02655481E-03  1.20596992E-03  4.76052967E-04  1.69324881E-03
 -5.41639527E-03  4.27081602E-03 -7.37954928E-04  1.47896953E-04  1.91843778E-03
 -1.10059122E-01 -1.52894351E-04  1.15864667E-03 -1.06312558E-05  4.70995739E-05
  5.51441676E-04  3.67328587E-03  8.66088673E-04  3.10393548E-03 -1.10445516E-02
  1.22983850E-02  4.50231458E-03 -2.65192465E-05  1.01893481E-01 -6.60347403E-02
 -1.39989827E-04 -4.49708656E-04 -2.12080504E-05  3.26995465E-05 -6.77095809E-04
  7.69548288E-03 -2.54470265E-03 -8.95889525E-03  3.46977305E-02 -2.58249234E-02
 -2.48260165E-02 -8.98288858E-05  8.15842782E-02  8.07096090E-02  4.90492757E-05
 -3.69308036E-03  9.75568101E-06  3.67274642E-05 -5.66317995E-03  8.92017750E-03
 -7.36670039E-03 -2.50330225E-02  4.46779703E-02 -8.38684659E-03 -1.57835335E-01
  5.52175593E-05  2.88644672E-02 -4.33895095E-03  1.33106009E-05 -6.52978342E-03
  1.31259735E-06 -2.66811730E-05 -7.39878676E-02  7.74447177E-04  6.42332332E-05
  2.25416911E-04 -4.15559852E-04 -1.66072250E-03 -1.29544178E-03  3.04931594E-04
  1.12462256E-03  1.36615912E-02  2.83370967E-04  2.54974615E-04 -5.95084478E-05
  2.38449011E-04 -6.51100113E-04  6.07122138E-04  5.01152111E-04  6.92187860E-03
 -5.30303402E-05  1.86583514E-03 -5.97163294E-04 -1.27906295E-03 -8.76988955E-03
  3.96041665E-04  2.47441740E-03  8.28720396E-04 -7.42477964E-03 -2.72500022E-02
  1.15169678E-01  3.87671758E-01 -7.20069228E-02  3.06137003E-05  1.77150591E-01
  3.37262228E-04  8.04423121E-04 -6.21022258E-03  2.62600344E-02  5.01364438E-03
 -3.88193538E-05  6.64223169E-02 -5.19244869E-02  2.33762047E-04  2.97193447E-03
  7.31062619E-06 -1.87739587E-07  1.96873976E-02  3.42625010E-02 -1.08834100E-03
 -4.05673382E-03  1.53883590E-02 -1.05010730E-02 -2.78283122E-03  2.89126606E-05
 -1.21021099E-02  3.96655559E-02 -2.71489198E-04 -5.26185337E-03 -5.89546421E-06
 -9.17777696E-06 -1.25765605E-04 -8.42490209E-03 -4.25712442E-04 -9.29478542E-04
 -1.46205255E-03  8.06555871E-03  1.48014713E-03 -5.56925968E-05  5.79023509E-03
 -1.41465515E-02  7.33068641E-04 -1.62877228E-04  2.07333934E-04  2.09366578E-04
 -2.67074863E-04  2.26212969E-03 -2.19992908E-04 -6.37967606E-04  8.39821288E-05
 -2.41432762E-03 -6.09379062E-03 -1.25799024E-04  4.15352337E-02 -1.45753994E-02
 -1.69682959E-03 -4.58304209E-03 -1.55342878E-04 -3.01168240E-05 -1.44818790E-04
  1.79705100E-03 -2.80084724E-04 -7.51069543E-04 -1.42236240E-03 -1.26215099E-03
 -7.86572066E-04  3.26681147E-05  3.38088811E-02 -4.84554727E-02  7.35872701E-04
 -5.83657550E-03  1.28754381E-04 -1.62095609E-04 -2.98732162E-03  1.02390242E-02
 -6.14610209E-04 -2.33364259E-03  1.54882307E-02 -3.45540338E-03 -1.87186965E-02
 -2.35446264E-05  3.47163394E-02  9.43357144E-02 -2.14009521E-04  5.96326359E-03
  1.04665996E-05  3.36426957E-05  1.11728381E-02  9.16235913E-03 -1.93142044E-02
 -6.69523241E-02  1.27106109E-01 -1.26852181E-01 -1.68615109E-01  1.08756642E-04
  5.00463347E-02  7.64775148E-02 -7.36045136E-05 -1.89011728E-02 -5.65566832E-05
 -4.64287110E-05 -2.67559492E-02  9.07322367E-02  2.63472842E-05  7.18411151E-06
  8.50135450E-04  1.71337961E-03  3.82450962E-04 -3.65440221E-04  2.81099596E-02
 -1.75381937E-03  3.51607746E-03 -2.11475524E-03  1.03696076E-03 -1.87935871E-04
 -1.99461517E-03  2.00373467E-03  9.93019523E-04 -2.86099481E-02  5.00211510E-03
 -5.29396257E-03  5.86814044E-04  2.24758233E-03 -2.54885468E-02  2.67580647E-03
  5.98419278E-03  8.15118102E-04 -8.13826089E-03 -3.12559278E-02  1.39137693E-01
 -6.82732723E-02  3.32862558E-01 -1.53752723E-05 -3.12198781E-03  1.93788172E-01
 -4.34840842E-06 -1.64747954E-05  7.66131401E-05 -1.11043691E-05 -2.64080966E-05
 -7.56881035E-02 -2.78618023E-04 -7.58001626E-04  5.95748135E-03  5.44138463E-05
 -1.74377191E-02  1.49112251E-02 -2.71406033E-05 -3.64359916E-05 -5.39260822E-06
 -2.31702481E-05  1.01713751E-04  1.50053533E-05 -1.07828690E-05 -3.53530923E-02
  1.46527051E-03 -4.11436041E-04 -8.98545632E-03 -1.60196801E-04  1.23422557E-02
 -5.23029726E-03  1.28202554E-04 -2.37764129E-05  3.60208613E-06  1.42768099E-06
  3.49596722E-04 -1.17092045E-06  3.72526274E-05  2.60130196E-02 -7.41822767E-04
  2.65117093E-03  6.20867835E-03  3.92172041E-04  8.88495341E-03  3.75606061E-03
 -3.35078259E-04 -1.84029217E-04  5.70621402E-05  1.91628088E-04 -7.66441019E-04
 -6.72355729E-04  2.69525140E-05  4.08254798E-02  6.85888734E-03  8.69103680E-04
  1.06188702E-02  4.56884353E-04 -1.29198262E-02  2.49103427E-03  5.17844097E-04
 -5.35480563E-05  6.06636139E-06  1.11710976E-05  3.22455885E-04  5.76431686E-05
 -1.00612590E-04  4.16385044E-02 -2.21107160E-03 -1.58117646E-03  5.45197877E-03
  4.10081985E-04  7.56066007E-03 -4.73973823E-03 -3.07362336E-04  1.69891128E-04
  2.45732727E-08 -5.51629759E-06  3.46191928E-05 -1.82540668E-05  1.43108534E-04
 -3.10663804E-02 -6.14544052E-05 -3.77694097E-04 -1.15124693E-02 -1.53604174E-04
  1.32419275E-02  1.26730062E-02  7.51660442E-05 -2.42203264E-05  7.77991594E-06
  2.79865467E-05 -7.30866323E-05  7.77721296E-06  1.09252098E-04  1.33954703E-01
  1.12065396E-04  1.44288773E-05 -6.79593970E-03  2.85937356E-05 -2.22420856E-02
 -5.55629445E-02  1.30166038E-06 -1.59768869E-05 -4.07523289E-04 -1.47158983E-03
  3.36110424E-03  2.90105684E-03 -7.11607354E-05 -4.61273160E-02  1.86589492E-03
 -4.49531273E-05 -2.45634970E-02 -9.46785987E-04 -4.94860531E-03 -6.98673936E-06
 -3.44475028E-04 -4.64902825E-05 -2.26417124E-03 -7.31441465E-04  1.73373351E-05
  7.18223756E-04 -2.32560556E-03 -2.26101602E-03 -7.13832415E-04  1.10600885E-04
 -7.79919212E-04 -2.62722447E-03 -7.30767140E-06 -2.51473359E-05  1.11609166E-04
  2.90014828E-05 -4.34258295E-05  3.59579929E-01  4.89548913E-06 -2.37445855E-05
  1.50927057E-01 -9.29593490E-04 -2.86891368E-03  7.17767755E-03  6.73793142E-03
 -9.75361218E-04 -9.27487033E-06 -1.26258590E-02 -9.20420450E-02 -2.26592475E-05
 -5.65145241E-04 -4.97521999E-06 -1.38881508E-05 -9.57521096E-03 -3.21421708E-05
 -5.36404982E-04 -1.77447074E-03  5.11557319E-03 -2.18271374E-03  6.20937242E-03
 -1.05258131E-05  7.59969961E-02 -6.17271375E-02  4.76291206E-05 -3.16533465E-03
 -1.47516041E-06 -2.60382897E-05 -6.07405459E-03  1.02717573E-03 -3.17185064E-05
 -1.52911722E-04  2.05469516E-04  1.21016321E-03 -1.63596459E-04  6.49483159E-06
  6.30807585E-02  4.91969276E-02 -1.09343757E-04 -1.97455259E-04 -4.16275279E-05
 -4.60048226E-05 -4.77949914E-05 -1.04732852E-03 -1.02452521E-04 -3.56135421E-04
  1.01659206E-03  5.67173346E-04 -1.61313312E-04 -4.19239154E-07 -2.14968001E-03
  7.70292504E-02  2.81431236E-05  1.03595206E-04 -1.16137326E-05 -2.00805637E-05
  3.53257671E-04 -1.69683540E-03 -8.90276386E-06 -1.04157465E-04  9.15275500E-04
  1.07698512E-03  7.11681712E-04 -8.24401365E-06 -6.61189157E-02  5.21839885E-02
  1.08242752E-04 -3.47070367E-04  3.12404195E-05 -2.72822540E-05  1.72335036E-03
 -2.20455486E-03 -1.22108032E-04 -4.37199367E-04 -1.21893316E-03 -1.42733286E-03
 -9.76116186E-04 -3.95722304E-06 -6.75464238E-02 -7.24523501E-02 -7.46255822E-05
  4.21990843E-04 -5.29280892E-06 -2.50209324E-05  3.08515216E-04 -2.25264178E-03
  4.29515802E-03  1.46565049E-02 -2.73851830E-02  8.92838293E-03  3.66370325E-02
 -4.27749018E-05 -7.26108131E-03  9.11285228E-03 -6.08185768E-06  2.56887582E-03
  8.42912090E-06  1.69831709E-06  7.39752061E-03 -2.10381430E-02 -4.72052374E-05
 -1.50978172E-04  1.64585671E-04 -6.91617350E-04  2.39921196E-04 -2.99124598E-06
 -1.39506356E-03 -9.28961044E-03 -1.16168354E-04 -7.10851631E-05 -7.22988806E-05
 -1.55319763E-04  1.61926112E-04 -5.86186078E-04 -4.08668383E-04 -3.65839973E-03
 -2.80524200E-04 -1.19511247E-03  4.30877321E-04  1.73716632E-04  5.21748653E-03
  5.21374381E-05 -1.75518620E-03 -4.51169547E-04  5.39261584E-03  1.90529780E-02
 -7.81515992E-02 -1.06123346E-02 -2.99549410E-02 -1.68955256E-05 -1.62115757E-02
 -2.62393208E-02 -6.14858616E-06  7.95418842E-03  6.55675949E-07  1.86573140E-06
 -2.07109605E-06  4.66943305E-06  1.03563569E-06 -3.21044258E-03 -3.74443809E-05
  7.60903081E-05  8.52042633E-04  2.31676259E-08 -3.20081202E-03  2.23531593E-04
 -1.45653583E-05 -8.79243649E-06 -1.40799739E-06 -4.79972259E-06  1.49837446E-05
  6.64729198E-06 -8.32884873E-06 -3.17046407E-03 -2.91062259E-06  7.00923085E-05
 -7.79729262E-04 -6.55712324E-07  9.42275599E-04 -2.56320068E-04  2.32822820E-06
  5.51986456E-06  1.54873021E-06  4.34147683E-06  3.90931104E-06 -1.39843653E-05
 -8.40916185E-06  1.15282557E-03 -6.62573345E-05  1.13115900E-05  5.36366695E-04
  9.96167072E-06  6.49216513E-04  3.16451432E-04 -1.53379733E-06  1.91817252E-06
  2.05161978E-06  6.64359741E-06 -2.23999913E-05  9.83656071E-06  5.82842300E-06
  2.54270013E-03  1.92808554E-04 -5.38115082E-05  1.72524779E-04  2.68411813E-05
 -6.14746766E-04 -3.41244726E-05  3.21412220E-05 -3.67114906E-06  1.12538343E-06
  3.26976316E-06  4.94400994E-06 -5.34493232E-06  1.40655587E-07  8.00871969E-04
  2.53643741E-05 -6.85092446E-05  4.08686186E-04  1.08190187E-05  7.10742759E-04
 -3.42420059E-04 -2.34480000E-06 -4.33555566E-06 -3.85048894E-07 -1.49493760E-06
  6.86079109E-06  1.68071311E-06  1.08129129E-05 -3.77526966E-03  9.63228968E-05
  1.31082254E-05 -9.32172577E-04 -3.45662119E-06  8.68716520E-04  4.04974671E-04
 -4.55642849E-06 -8.21997410E-06  3.24496222E-06  1.09081220E-05 -2.01803280E-05
  1.15155150E-06  2.04758138E-05  2.86046701E-02 -2.06412574E-06 -1.68459122E-05
  1.17363411E-03  1.44108216E-06 -2.09231797E-03 -1.17908803E-03  1.65499465E-06
  4.93978940E-06 -1.19884792E-05 -4.30046850E-05  9.73774713E-05  9.16896272E-05
 -2.29975831E-05 -1.46882122E-03  2.50540582E-05 -1.08114102E-06 -7.04821633E-04
 -1.02189404E-05 -3.38520374E-04 -9.07818107E-07 -3.39199105E-05 -3.51882606E-06
 -8.66963346E-05 -3.05013515E-05  2.32723064E-05  4.23095402E-05 -1.22963376E-04
 -1.10503867E-04 -3.83589029E-05  2.52836387E-05 -4.16555095E-05 -1.22335981E-04
 -2.54953357E-06 -9.03826247E-06  4.03981804E-05 -1.96315254E-05 -1.29456869E-05
  2.53013602E-02 -4.22197498E-06 -5.30133993E-06  1.12447808E-02 -1.68577911E-06
  1.66654108E-03 -2.94876600E-06 -1.04379295E-05  3.16321092E-05  1.30169623E-05
 -1.50880573E-05  7.22939923E-03 -1.74971256E-06 -2.19213362E-04  1.12681711E-03
 -1.27879442E-05 -4.82792268E-03  1.36042045E-03 -2.32151282E-05 -9.85895561E-08
 -2.86827900E-06 -1.08284788E-05  4.12424588E-05 -2.38369818E-06  1.86228846E-05
 -1.13210870E-03  1.86193678E-04 -1.06674380E-04  2.53003385E-04  1.66501946E-07
  3.00235993E-06  1.31400068E-03 -1.16878231E-05  1.29928523E-06 -1.62780508E-06
 -5.36833027E-06 -4.70875601E-06 -7.74729980E-06 -8.31629218E-06 -3.14242481E-03
  2.97908220E-04 -1.40728116E-05  1.80872092E-04 -3.56688387E-05  9.51526809E-05
 -6.46770339E-05  2.95889316E-05  2.61809373E-05 -7.52991470E-06 -2.59594381E-05
  9.44590712E-05  8.94281420E-05 -4.80972871E-06 -1.19983919E-03 -3.79426264E-04
  1.97612217E-04 -1.09131268E-03 -2.64916775E-05  4.61013794E-04  1.36150192E-04
 -5.49798629E-06 -6.02888087E-06 -1.81911172E-06 -6.31748517E-06  2.55621722E-06
 -2.47868501E-05  1.13941186E-05 -2.45364592E-03 -3.67458841E-05  2.62169890E-04
 -3.43206981E-05 -3.55517342E-05  7.74315528E-05 -3.90042801E-05  3.62176852E-05
 -3.31070417E-05 -1.97114470E-06 -8.21794238E-06  2.99757778E-05  1.72017776E-05
  7.98584945E-06 -1.58062970E-03 -1.75459057E-04 -1.76329464E-04 -1.19197340E-04
  6.47198868E-06 -2.54278378E-05 -5.87979577E-04 -3.81267366E-06 -7.60392387E-06
  2.23394732E-06  7.62716480E-06 -1.65594244E-05  2.06969974E-05  5.40187485E-05
  4.81675549E-02 -9.35555807E-07  2.62975734E-05  4.37445073E-03 -1.90247421E-06
 -1.03454336E-03 -5.50501495E-03  6.33599138E-06 -2.95745064E-05  2.52595649E-05
  9.26365912E-05 -2.18237027E-04 -2.11778043E-04  6.49143855E-06  2.82874150E-03
 -1.16434022E-04 -1.56294744E-05  1.73001690E-03  8.02347620E-05  4.51690675E-05
  7.05236446E-09 -1.00626898E-05 -1.74805658E-06  9.15571937E-05 -4.19509170E-05
  3.07526736E-05 -4.06246464E-05  1.04741477E-04  1.05692095E-04 -2.53348848E-05
  3.78774758E-05  3.08677519E-05  7.93967685E-05  4.81092832E-06  1.69225229E-05
 -6.77326482E-05  4.78153703E-07 -2.28617486E-05  5.01067871E-02 -1.25816275E-05
 -2.01162843E-05  2.11739153E-02  6.70221613E-06  2.58874065E-03  4.70678524E-03
  2.57108415E-04  7.58561383E-04  1.04769768E-04 -1.26838197E-02 -2.19797176E-03
 -4.55466900E-06 -2.71955501E-02 -2.42459484E-02 -1.06868952E-04 -2.27975137E-03
 -1.66026694E-07 -1.04764364E-05 -4.32295510E-03  8.39392272E-04  1.04118054E-03
  3.37932139E-03 -9.05516707E-03 -4.96231815E-03 -5.74748340E-03  2.30667594E-06
  1.50841529E-02 -1.56509102E-02  1.50546641E-04  8.69881339E-04  1.04342420E-05
 -5.90409438E-06 -3.85282428E-03  4.20762170E-03  5.95995188E-04  1.97571512E-03
 -4.93129412E-03  5.17869461E-03  2.68002890E-04  1.89682573E-05  7.15263691E-03
  6.38352609E-03 -3.90049426E-04  1.45791037E-03 -8.71008056E-05 -9.61219034E-05
 -1.44993906E-03  1.01139168E-03 -1.90197555E-05 -1.44866885E-04  1.71752687E-03
 -1.17558313E-03 -1.29070032E-04  4.13132276E-05 -1.81661302E-02  1.89589443E-02
  8.63092791E-04  2.35880891E-03  9.88229053E-05  1.80326908E-06 -1.58779112E-03
 -2.00604284E-03 -1.80561717E-04 -7.43575739E-04  4.00263659E-03 -2.32427967E-03
 -4.88951430E-04  1.78974537E-05 -2.76560807E-02  2.06969170E-02 -3.36774445E-04
  1.02891121E-03 -7.07438573E-05  7.81859224E-05  1.00906337E-03 -2.49512826E-03
  1.93549692E-04  7.38064732E-04 -4.29400687E-03  4.60032533E-03  5.80519990E-03
  8.37002446E-06 -3.01621241E-02 -3.37524418E-02  1.13274062E-04  2.90349598E-04
  9.73874114E-06 -1.67646425E-05 -8.89546408E-04 -3.28262871E-03  4.97877641E-03
  1.70107996E-02 -2.97980552E-02  4.02834226E-02  7.08297423E-03 -3.29818149E-05
 -1.71592974E-02 -4.82420683E-05  2.22844668E-05  8.68750885E-03  8.46704349E-06
  1.08978982E-05  1.01676066E-02 -1.27799486E-02  1.08405495E-04  4.10656086E-04
 -1.23066431E-03  8.91325845E-04  2.26758110E-05  7.84191390E-06 -1.29254052E-02
 -1.57705509E-03 -1.76691196E-03  8.86122401E-04 -4.45553635E-04  1.42290778E-05
  9.74787499E-04 -2.94016960E-04 -6.30890180E-04  1.21327065E-02 -1.91728593E-03
  2.42419859E-03 -2.10746412E-04 -4.23364506E-04  1.37902920E-02 -1.54977674E-03
 -2.88228998E-03 -4.83664246E-04  4.03268416E-03  1.44874687E-02 -6.19758467E-02
  2.39092261E-02 -4.72773314E-02  1.18802648E-05  5.15563276E-03 -3.36801058E-02
  6.63216432E-06  4.77589531E-03 -1.23556630E-07  2.02737603E-06  8.58114444E-03
 -1.38027235E-03 -4.68457223E-03  1.24850425E-02 -1.76207254E-02  2.25355406E-03
  4.40914105E-05  1.87133286E-02 -2.59843748E-02  6.28108624E-05 -3.58057220E-03
 -3.03349128E-07 -1.21265851E-06  1.82686392E-02  9.31299850E-03  4.93200174E-04
  1.61321071E-03 -4.33288315E-03  9.09992847E-03  8.95303080E-04 -1.85736111E-05
  7.05345874E-03 -1.91820560E-02 -9.96257374E-05 -1.42440969E-03 -2.04892870E-05
 -3.51740664E-06  4.49636543E-03 -6.72159328E-03 -8.35323408E-04 -2.84525111E-03
  8.67188526E-03 -3.98222971E-03  8.22877037E-04 -4.28604731E-05  1.05325648E-02
  1.54597665E-02  2.71375877E-04 -3.89135312E-04  3.68756873E-05  7.15317365E-05
 -1.09097221E-03 -1.35997943E-03 -3.90515700E-04 -1.39359881E-03  3.98997538E-03
 -8.33012474E-04 -5.70501632E-04  5.84581489E-05  1.47326283E-02  1.23688391E-02
 -5.91869300E-04 -3.35418226E-03 -1.05810205E-05 -5.54436089E-06 -1.28244018E-03
  2.67801325E-04 -5.27830314E-04 -1.83541599E-03  5.39910617E-03 -3.45177815E-03
 -9.38042370E-04 -4.12581272E-05 -1.00756505E-02 -2.74405176E-03  3.14340282E-04
 -1.42759837E-03  3.90048261E-05 -7.79083026E-05 -3.39286519E-04  2.07648956E-03
 -4.85599119E-04 -1.78642916E-03  7.18295262E-03  2.46481926E-03 -8.13491357E-04
 -1.77811636E-05 -1.94494298E-02  3.95530640E-03 -1.26699547E-04 -1.17767139E-04
 -1.66082618E-05 -1.99148674E-06  5.70703469E-03  7.18400086E-03 -7.36947023E-03
 -2.50520382E-02  4.67232886E-02  8.32063948E-03 -4.83994663E-02  5.49911243E-05
  1.19330368E-02  1.72634171E-02 -1.16477369E-06 -4.08665373E-03  8.15846592E-06
 -4.74032811E-06 -4.25958568E-03  6.23961960E-03 -1.59171697E-04 -5.77301706E-04
  1.42656984E-03 -2.18247362E-03  8.24356812E-05  2.46538324E-04  7.18710517E-03
 -1.95632105E-03  1.33044723E-03 -7.98062001E-04  3.06114601E-04 -5.67486634E-05
  7.03955466E-04  1.04064397E-04  1.79411502E-04 -9.30729015E-03  7.59795966E-04
 -2.22724343E-03  2.36566779E-04  3.14646777E-04 -7.66644574E-03  6.60167798E-04
  1.72274291E-03  1.32156435E-04 -9.21406411E-04 -2.89996476E-03  4.98527827E-03
  4.49997817E-02  4.07946819E-02 -5.16215113E-05  2.33253520E-02  2.56784375E-02
 -2.79750322E-05 -5.29074925E-03 -4.10785469E-06 -1.17734303E-06 -3.45007165E-03
  9.97881723E-03 -4.35865115E-04 -1.40164819E-03  2.84467776E-03 -3.58172204E-03
 -1.02155209E-04  3.81408391E-06 -2.85170762E-02  1.25384462E-01 -8.39920192E-05
 -6.62396681E-03  1.49665468E-05  5.88472714E-06 -4.42337244E-03 -5.87592843E-03
  1.79298859E-05  1.49117127E-04 -2.91180507E-03  1.55135641E-03 -1.99283488E-03
 -2.37771057E-06 -1.00325048E-01  8.07679452E-02  8.57044850E-05  2.66095439E-03
  9.47789441E-06  1.90001647E-05  3.24738163E-04  4.34462511E-03 -9.39847275E-05
 -3.71294787E-04  2.86840640E-03 -5.30090396E-04  3.17923411E-04  8.94433292E-06
 -9.54878741E-02 -6.47551804E-02 -2.25241314E-04  2.83422211E-04 -2.39772429E-05
 -2.44742881E-05  1.79011310E-03  2.67240734E-03 -9.30764604E-05 -3.45558342E-04
  1.71605979E-03 -6.09826970E-04  2.42054786E-04  3.71418216E-05 -1.67241346E-02
 -9.86939892E-02  8.00526414E-04  1.59846490E-03  1.06869248E-04  2.21439043E-05
 -1.23461821E-03  2.21224425E-03 -3.11876088E-06 -1.76236513E-06  4.55276467E-04
  3.06124412E-04 -3.46040178E-04  1.00448534E-05  6.97158454E-02 -5.57913732E-02
 -5.06000644E-04  1.31617514E-03 -1.09942098E-04  1.14170200E-04 -1.84196721E-04
 -1.05665936E-03 -2.33319470E-04 -8.16995560E-04  3.75062681E-03 -4.65504413E-04
  2.04943497E-03 -2.42342292E-06  8.30258950E-02  7.30733731E-02  2.46377085E-04
 -3.21289207E-03  1.25202057E-05  4.48922369E-05 -8.58595006E-03 -4.27579314E-03
  6.73945706E-04  2.20438018E-03  1.98917443E-03  9.25546482E-03 -1.15884824E-02
  7.56543064E-06 -8.36261092E-03 -2.76826108E-02  4.59483384E-05  1.50411060E-02
 -3.40832462E-06  3.36702931E-05  2.11039232E-02  1.81524926E-02  8.26399294E-06
  5.34186773E-05 -5.47697153E-04  1.96708716E-04 -2.01722490E-04  3.92200372E-05
 -1.20014800E-02  1.24623678E-02 -1.62180874E-03  6.76331607E-04 -3.80260576E-04
  2.45918884E-04  1.06714750E-03  5.78470635E-04 -4.62881029E-05  1.78577357E-02
 -1.73807643E-03  4.23957246E-03 -8.75594728E-04 -7.66334444E-04  5.77408643E-03
 -1.82859441E-03 -5.25152052E-04  2.38433899E-04 -2.08924921E-04 -5.92131203E-04
 -1.46139149E-04 -5.95927551E-03  6.26601918E-03 -4.24354623E-06  4.60093411E-03
 -4.32699418E-04 -2.45317547E-07 -4.09094361E-03  2.95451874E-06 -8.36937043E-06
  1.09748284E-03 -7.91513797E-04  1.92142411E-01 -1.44281797E-03 -4.88822409E-03
  1.09744715E-02 -1.27737914E-02 -1.45663324E-04  1.41761962E-05 -1.13477014E-01
  4.38011886E-01 -3.06172178E-04 -2.37317695E-02  5.33523643E-05  2.12988634E-05
 -1.54560113E-02 -2.12146102E-02  8.35019434E-05  5.45514352E-04 -1.01744850E-02
  5.46212992E-03 -7.12338401E-03 -9.76731235E-06 -3.47806541E-01  2.87788185E-01
  3.12112835E-04  9.72382306E-03  3.28436868E-05  6.82439525E-05  4.54197223E-04
  1.58759468E-02 -3.14878975E-04 -1.36057632E-03  1.05529684E-02 -1.90297141E-03
  1.23330981E-03  3.35209488E-05 -3.33483173E-01 -2.27508131E-01 -8.48277077E-04
  8.50577101E-04 -1.00692225E-04 -1.02719046E-04  6.59618081E-03  9.69246695E-03
 -3.31337902E-04 -1.28258601E-03  6.41277506E-03 -2.32285528E-03  8.52610358E-04
  1.37686023E-04 -6.09941944E-02 -3.41977442E-01  2.95336579E-03  5.97578836E-03
  3.91379988E-04  8.13483354E-05 -4.55003889E-03  7.71975494E-03  1.21786767E-05
 -9.53953124E-06  1.85300747E-03  1.05135859E-03 -1.31752739E-03  3.61640127E-05
  2.38740986E-01 -1.93426941E-01 -1.82737446E-03  4.35061655E-03 -4.00410633E-04
  4.16345591E-04 -3.06957324E-04 -3.64069394E-03 -7.80387400E-04 -2.89898907E-03
  1.39649171E-02 -1.96610733E-03  7.34946190E-03 -8.62875062E-06  2.89237485E-01
  2.51826680E-01  8.74522542E-04 -1.10016793E-02  4.52935434E-05  1.59220891E-04
 -3.16609984E-02 -1.53720345E-02  2.27901110E-03  7.31134167E-03  7.95436830E-03
  3.20742569E-02 -3.95658427E-02  2.57901498E-05 -3.69915151E-02 -9.22549499E-02
  1.63660251E-04  5.18637461E-02 -9.22856037E-06  1.16003727E-04  7.33289073E-02
  6.11667707E-02  1.90840943E-05  1.74775736E-04 -1.98670537E-03  7.15061109E-04
 -6.97011613E-04  1.50475839E-04 -4.41674678E-02  4.30405264E-02 -5.94959681E-03
  2.47326324E-03 -1.39778531E-03  8.32113163E-04  4.06796530E-03  2.03077472E-03
 -2.23387250E-04  6.41763090E-02 -6.33141207E-03  1.51761604E-02 -3.10806454E-03
 -2.71181791E-03  2.24086221E-02 -6.71018805E-03 -2.27457431E-03  7.69409168E-04
 -5.92207598E-04 -1.75261840E-03 -9.68816967E-04 -2.08487109E-02  2.21998223E-02
 -1.52435848E-05  1.60234546E-02 -1.86800641E-03 -1.75922153E-06 -1.41181583E-02
  1.00975452E-05 -2.97983088E-05  4.05409434E-03 -2.72616628E-03  4.60529800E-01
  1.11737014E+00  5.28309855E-03  1.98856765E-02 -5.04232154E-02  6.22353050E-02
 -6.27635038E-03 -6.73131876E-05  5.98275156E-01 -1.82918240E+00  1.43750985E-03
  1.06528603E-01 -2.36252545E-04 -9.37011858E-05  5.85597343E-02  9.73171744E-02
 -9.39590876E-04 -3.93025754E-03  4.60605456E-02 -2.50785307E-02  3.63466905E-02
  5.04604540E-05  1.43437432E+00 -1.24329112E+00 -1.47788893E-03 -4.59270096E-02
 -1.39564197E-04 -3.00260742E-04  3.93208158E-03 -7.30298024E-02  1.30080969E-03
  6.39333312E-03 -4.85122886E-02  8.37180545E-03 -6.68080974E-03 -1.60177947E-04
  1.39407395E+00  9.59636549E-01  4.21800928E-03 -2.89707401E-03  6.01352480E-04
  6.07265062E-04 -2.95909339E-02 -4.36332088E-02  1.54514657E-03  6.29300103E-03
 -3.10369761E-02  1.23290323E-02 -3.84528058E-03 -6.55622469E-04  2.82663975E-01
  1.40181712E+00 -1.40392389E-02 -2.91474425E-02 -1.85406696E-03 -3.79320257E-04
  2.23552638E-02 -3.20821536E-02 -2.48856120E-04 -5.98256616E-05 -9.12725023E-03
 -5.60680309E-03  6.86411046E-03 -1.56054423E-04 -9.48562535E-01  7.91639264E-01
  8.29268826E-03 -1.65636622E-02  1.84002827E-03 -1.91708411E-03 -1.30461137E-03
  1.52593962E-02  2.99675172E-03  1.24760149E-02 -6.55443686E-02  1.32073927E-02
 -3.51225344E-02  3.47139111E-05 -1.19246500E+00 -1.01905585E+00 -3.83361441E-03
  4.31073510E-02 -2.10792459E-04 -6.83964639E-04  1.46385597E-01  6.83093864E-02
 -5.18820774E-03 -1.44957297E-02 -6.84380508E-02 -1.22944737E-01  1.33236720E-01
 -8.75451988E-05  2.20115607E-01  3.52889453E-01 -7.32301824E-04 -2.14488189E-01
  1.03610766E-05 -4.73563022E-04 -3.06449806E-01 -2.32272138E-01 -1.04465585E-04
 -9.68442315E-04  9.55079515E-03 -4.06799356E-03  2.93675571E-03 -7.41644104E-04
  2.08343745E-01 -1.75346339E-01  2.79901152E-02 -1.16249550E-02  6.56444559E-03
 -3.23414047E-03 -2.02885161E-02 -8.43155561E-03  1.51405870E-03 -2.88424595E-01
  2.94646152E-02 -6.73733480E-02  1.35396720E-02  1.17759810E-02 -1.17923522E-01
  3.14590382E-02  1.42833235E-02 -2.52717244E-03 -1.44231064E-04 -9.63301997E-04
  3.70944851E-02  8.83107996E-02 -1.03174731E-01  6.54705923E-05 -6.26736907E-02
  9.10691395E-03  1.70914979E-05  5.76493083E-02 -3.92116030E-05  1.30795095E-04
 -1.73078822E-02  1.07235849E-02 -1.36831832E-01 -5.00813276E-01  2.30321922E+00
  9.73765507E-03  3.39580706E-02 -1.09993597E-01  1.38690841E-01 -3.74913011E-02
  6.34955888E-05  1.00411525E-01  1.82556894E-01 -6.81871992E-05  1.67177937E-02
  7.45049220E-05 -5.36683312E-06 -7.91094471E-03 -4.11825663E-02 -4.01729501E-03
 -1.43824327E-02  5.29649422E-02 -3.88735731E-02  4.34006493E-02  9.78984796E-06
 -1.91150452E-01  1.65598498E-01  6.77883748E-05  1.93481185E-03  2.19217926E-05
  4.86069482E-05 -8.51186304E-03  3.75040066E-03  1.62229712E-03  5.60741006E-03
 -1.66685701E-02  2.37786581E-02 -3.04577445E-03 -4.08880992E-05 -1.25088335E-01
 -1.31042857E-01 -2.64277953E-04 -1.33352407E-03  2.43525261E-05 -7.36247121E-06
  3.62057431E-03 -3.73234183E-03  7.27531639E-04  2.57995350E-03 -1.02563194E-02
  6.69526828E-03 -1.78598683E-03  3.57992909E-06 -2.16087082E-02 -1.59189403E-01
  9.06500308E-04  3.02088413E-03  8.38631346E-05  2.84600908E-05  1.81246719E-03
 -9.49529323E-04 -1.16951388E-03 -4.13503556E-03  1.38297493E-02 -1.23149251E-02
 -9.81629094E-04  1.00048818E-04  1.36441345E-01 -9.56567760E-02 -7.69282667E-04
 -2.02692588E-03 -1.36141913E-04  1.54323029E-04 -3.04075788E-03  4.52500373E-03
  3.79320333E-03  1.30202791E-02 -3.22039395E-02  4.15474967E-02 -1.11517978E-02
 -1.27403310E-05  1.74989110E-01  2.09440347E-01  5.94889814E-04  2.78701185E-03
  2.44422171E-05  9.31168959E-05 -4.58558256E-03 -2.35838345E-02 -1.23114062E-02
 -4.30881005E-02  8.89887002E-02 -7.00000482E-02  2.29529418E-01 -1.61124453E-04
  5.37296890E-02 -5.14003979E-02  1.30501837E-04  8.70899573E-03 -4.16688174E-05
 -1.04856635E-04 -1.77998236E-01  9.70700791E-02 -7.74858925E-05 -2.40247156E-04
  5.62857275E-05 -2.83509934E-03  1.24901688E-03  6.72607882E-05 -1.37511947E-02
  1.89300780E-02 -1.81801897E-03  1.29627632E-03 -4.96594543E-04  3.18528570E-04
  4.59094838E-04  1.69559514E-03 -1.07010882E-03  1.88214204E-02 -7.36663826E-04
  5.86733457E-03 -1.03312511E-03  2.35227915E-04  6.53687504E-03 -3.09940398E-03
  2.04244703E-04  4.51453273E-04 -5.95259981E-03 -2.08246446E-02  8.81873001E-02
  3.42245665E-02  7.64559896E-02 -1.29771360E-05 -1.78336156E-02  1.20626486E-01
 -9.34091155E-05 -1.67663024E-02 -5.97282168E-06 -3.72468405E-05 -2.43144538E-02
 -9.25079778E-03  1.17379378E-02  4.19263896E-02 -2.02520715E-01  1.01036685E+00
 -6.73286805E-04 -2.11900540E-03  2.19730748E-02 -2.63740462E-02  8.80083305E-03
 -6.86577622E-05  9.57744908E-02 -4.86887353E-01  2.95018482E-04  2.18256904E-02
 -1.00222910E-04 -9.79016653E-05 -4.74391675E-03  8.97146563E-02  3.12999822E-04
  1.09805854E-03 -1.00186239E-02  6.39096106E-03 -9.38245354E-03 -9.09259232E-06
  2.43967814E-01 -1.04369789E-01 -2.30156540E-04 -2.56999874E-02 -7.23175314E-06
 -5.39790865E-05 -1.08202833E-02 -1.33945170E-02 -5.37617393E-06  1.74520768E-04
 -2.50580319E-03 -2.54689880E-03  1.54436917E-03 -2.17176495E-05  2.49793923E-01
  1.26994760E-01  3.89624656E-04  7.45830222E-03  9.81088332E-05  5.59030181E-05
 -1.84367541E-03  4.24476568E-03  3.71549051E-04  1.34093553E-03 -5.24421202E-03
  2.08248117E-03 -8.95658562E-03 -4.06914819E-05  3.46940407E-02  2.65588073E-01
 -1.80931195E-03 -4.55981023E-03 -3.53807063E-04 -1.16436297E-04  4.16746088E-03
 -3.38015570E-03 -1.07383602E-03 -3.69292944E-03  1.00812565E-02 -1.33055659E-02
  2.72303990E-03  1.20226066E-04 -1.86835104E-01  1.17290603E-01  1.25808009E-03
 -7.33151443E-03  2.09466148E-04 -2.19727847E-04 -1.91602970E-03  1.43478833E-02
  2.27369091E-03  8.16723315E-03 -3.09287154E-02  1.93104163E-02 -2.82298138E-02
 -1.14218656E-04 -2.16434496E-01 -1.08335052E-01 -5.70449665E-04  1.45331007E-02
  2.50083303E-06 -1.38064810E-04  4.04236257E-02  1.39090168E-02  2.62291579E-02
  9.31025093E-02 -2.09435543E-01  2.38150682E-01 -3.21670820E-01  4.61461071E-04
 -4.56230379E-03  2.27709242E-01 -1.89162139E-04 -3.36970123E-02 -1.12841868E-04
  9.47539096E-06 -8.00121358E-02  1.29657161E-01 -1.93600533E-04 -7.76171487E-04
  2.88585387E-03 -2.48947747E-03  6.76034261E-04  1.70452900E-05  2.40314007E-02
 -4.07920197E-02  3.66711903E-03 -1.23698513E-03  6.96243981E-04 -1.12389433E-03
 -1.65497685E-03  1.47474856E-03 -1.07824505E-03 -4.67459971E-02  5.95668335E-03
 -9.95169026E-03  2.07981844E-03  2.46010052E-03 -3.88757999E-03  1.67127058E-03
 -2.81384933E-04 -9.16315975E-04 -6.27365475E-03 -2.22268256E-02  1.03297713E-01
 -7.65784021E-02  1.84311398E-01 -3.19341013E-04 -9.32862042E-03  1.22239024E-01
 -1.39209791E-04 -4.43367139E-03  1.04068845E-05  1.24762294E-05  5.99922733E-03
  1.15704573E-02 -1.87646929E-02 -6.66859672E-02  3.22057013E-01  1.96437080E-01
  7.61521164E-01 -5.59561122E-06 -2.07829266E-05  9.26239954E-05  5.34827876E-05
 -1.63401147E-05 -1.47298035E-01 -8.27977937E-04  3.81442353E-03  1.23564320E-02
  1.27929592E-04 -3.88390317E-02 -3.66209708E-02 -4.14013922E-05 -1.24818810E-04
 -3.73548057E-06 -1.95326190E-05  9.14809228E-05 -2.40843729E-05 -6.90978187E-05
 -7.20476452E-02 -1.67677650E-03  1.77068662E-03 -2.53818890E-02 -2.23557000E-04
  2.50791222E-02 -2.66445430E-02  1.42054577E-04  1.76187687E-05  8.96449176E-06
  1.14810763E-05  6.24114753E-04  8.19592461E-05  1.32440870E-04  7.31103299E-02
 -5.60609009E-03  1.77463110E-03  9.31675474E-03  7.05050567E-04  1.56249561E-02
  9.58913249E-03 -5.21909996E-04 -3.50879661E-04  1.02351254E-04  3.41919133E-04
 -1.35172741E-03 -1.14445072E-03  6.68733598E-07  7.69757212E-02  1.21736653E-02
 -3.58051745E-03  1.83842258E-02  8.46834736E-04 -2.35210522E-02 -4.92037146E-03
  9.49416607E-04  1.47612444E-04  1.05248086E-05  1.82792815E-05  5.63520393E-04
  2.62505166E-05 -9.05297572E-05  4.42839836E-02  4.64489815E-04 -5.61382790E-03
  1.29873400E-02  6.88145055E-04  1.75455075E-02 -7.00268940E-03 -6.03612475E-04
  2.90064048E-04  2.61708057E-06  8.98001541E-07  8.45217229E-05  2.81725591E-05
  8.99534598E-05 -7.18378658E-02  4.64019833E-03  1.59553957E-03 -1.72400871E-02
 -2.94939312E-04  2.43094500E-02  7.75921946E-03  1.53755624E-04  6.20325842E-06
 -1.90277313E-05 -6.63925785E-05  1.26588516E-04 -2.43580599E-04  4.26251900E-04
  3.04537695E-01  2.21983303E-04 -4.79980339E-04 -9.93987752E-03 -1.50290955E-04
 -4.52713326E-02  1.41788237E-01 -7.71126805E-05 -1.69400312E-04 -7.27897361E-04
 -2.63002108E-03  6.01063714E-03  5.26930823E-03  1.34696881E-04 -8.20540338E-02
  3.18061660E-03  3.28769678E-04 -4.36211260E-02 -1.61001900E-03 -9.36723812E-03
  2.11058570E-05 -7.02084862E-04  8.05608010E-05 -4.00839634E-03 -1.16080703E-03
  2.91126433E-04  1.52549096E-03 -4.97853042E-03 -4.14141299E-03 -1.42174761E-03
  1.02065740E-04 -1.32300457E-03 -4.27486003E-03  1.27810027E-06  4.54657382E-06
 -3.29930164E-05  1.23956357E-04 -2.31995164E-04 -2.97763320E-01 -6.02700628E-06
 -8.05961418E-05 -9.56105539E-02  3.06052371E-06  1.56403368E-02  4.99734557E-03
 -2.37420750E-05 -3.16712044E-05  1.77076541E-05  6.25306170E-05 -2.87997899E-04
 -1.49681192E-04  9.82627540E-05  8.64348583E-01  2.94629696E-03  1.02000463E-02
 -3.12806709E-02  3.09865336E-02 -3.43073573E-02  9.89155413E-05  6.01637284E-02
 -1.33169168E-01 -1.20405382E-06  7.90630029E-03  3.58467446E-06 -2.26932128E-05
  9.03353270E-03 -1.71954413E-02 -2.54566233E-03 -8.96245544E-03  3.47200789E-02
 -2.58309432E-02  2.48484854E-02 -2.51607028E-05  8.15783742E-02 -8.08067164E-02
  2.10691218E-05 -3.67778745E-03 -7.22962863E-06 -8.92760099E-06 -5.67818370E-03
 -8.91858944E-03  8.66582535E-04  3.10589447E-03 -1.10524231E-02  1.23010326E-02
 -4.50715619E-03 -6.91682161E-05  1.01937737E-01  6.60188937E-02 -9.48105351E-05
 -4.60393914E-04 -4.21366656E-05 -4.52324111E-05 -6.74737792E-04 -7.69895104E-03
  4.75048893E-04  1.68958807E-03 -5.40482189E-03  4.26808828E-03  7.56358832E-04
  9.46055946E-05  2.00124383E-03  1.10058533E-01 -1.66267520E-04  1.15071250E-03
  1.93729561E-06 -4.24641678E-05  5.47544706E-04 -3.68184398E-03  4.39430608E-04
  1.38356284E-03 -1.87867508E-03 -2.83071826E-03 -1.63230141E-03 -1.46420255E-05
 -8.02622289E-02  7.23494001E-02  2.16742003E-04  5.56066362E-04  4.89794835E-05
 -6.48253933E-05 -2.00918123E-03 -1.21862527E-03  3.81470787E-03  1.29117472E-02
 -3.75758499E-02  1.79137172E-02  1.35878236E-02  4.01696830E-05 -8.81084147E-02
 -5.30437061E-02 -2.62323243E-05  7.56889899E-03 -1.85400027E-05 -4.89043200E-05
  9.08956873E-03 -6.66198211E-03 -7.39140187E-03 -2.51188642E-02  4.48472050E-02
 -8.66294036E-03  1.58020203E-01 -5.85251802E-05  2.89318879E-02  4.22825511E-03
  4.51125337E-05 -6.53224540E-03  1.63297374E-05 -6.26416841E-05 -7.39503965E-02
 -1.02072762E-03  6.43818159E-05  2.26105307E-04 -4.18031287E-04 -1.66049365E-03
  1.29306282E-03  3.48160004E-04  1.14584117E-03 -1.36554813E-02  3.08846372E-04
  2.52924013E-04 -5.31457820E-05 -2.37918474E-04 -6.52390323E-04 -6.11392122E-04
 -1.27193425E-03 -8.78987086E-03  3.95836145E-04 -2.48348793E-03  8.28001546E-04
  5.02252929E-04  6.89109978E-03 -4.84073083E-05 -1.85638538E-03 -5.98202994E-04
  4.60016463E-03  1.60201076E-02 -6.26594993E-02 -1.77441133E-02  9.18298056E-03
 -6.13208997E-05 -3.95030429E-02  2.87489001E-02 -6.67414552E-05  4.09600656E-03
 -7.93503780E-06  1.69085916E-06 -7.98533086E-03 -6.56817193E-03 -7.41786371E-03
 -2.72282296E-02  1.15081696E-01  3.87477223E-01  7.20061653E-02 -9.38538090E-05
  1.77078182E-01 -3.40792516E-04 -8.16905484E-04  6.26846814E-03 -2.62259317E-02
  4.99087309E-03 -5.20525836E-07 -6.64870811E-02 -5.09833559E-02 -1.50926405E-04
 -3.00328680E-03 -2.98835607E-05 -4.49670122E-05 -1.97373125E-02  3.41842602E-02
  6.08063916E-04  2.30996030E-03 -1.54199098E-02  3.40207118E-03 -1.87339152E-02
 -3.01324010E-05 -3.55770480E-02  9.49239982E-02  2.24549855E-04 -5.97490549E-03
  1.61366608E-05  1.62876148E-05 -1.11583543E-02  9.18561506E-03  2.80144738E-04
  7.51002548E-04  1.42211044E-03  1.28779018E-03 -7.87646057E-04 -5.41220757E-06
 -3.46193739E-02 -4.89824250E-02 -7.74176183E-04  5.83008103E-03 -1.15953254E-04
 -1.59573762E-04  2.99137505E-03  1.02608666E-02  2.16862763E-04  6.26793656E-04
 -4.95434396E-05  2.39722125E-03 -6.08601411E-03  1.61755982E-04 -4.16330272E-02
 -1.54347686E-02  1.73206323E-03  4.58733815E-03  1.34875149E-04 -2.62328718E-05
  1.40746759E-04  1.80632824E-03  4.23071275E-04  9.20098913E-04  1.49286588E-03
 -8.05697093E-03  1.47102402E-03  9.63653208E-05 -5.07156178E-03 -1.45463919E-02
 -7.52301049E-04  1.57284423E-04 -2.06846836E-04  2.18249396E-04  2.67751553E-04
  2.22399932E-03  1.08763023E-03  4.05333666E-03 -1.53629472E-02  1.05125191E-02
 -2.76604699E-03 -5.11172305E-05  1.28725798E-02  4.00789494E-02  3.02635508E-04
  5.25048807E-03  3.05631824E-05 -1.25404885E-05  7.54955601E-05 -8.47349854E-03
  1.93071273E-02  6.69271835E-02 -1.27022250E-01  1.27055129E-01 -1.68322981E-01
  2.50341187E-04 -5.01877117E-02  7.63004963E-02  3.51566341E-05  1.89751346E-02
 -4.20810121E-05  8.00608566E-05  2.65706513E-02  9.08800146E-02 -2.68936980E-05
 -8.85679692E-06 -8.48908683E-04 -1.71089412E-03  3.80505974E-04  3.23806426E-04
 -2.81601795E-02 -1.63094749E-03 -3.54566972E-03  2.11547043E-03 -1.04383678E-03
 -1.96134215E-04  2.00666034E-03  2.00574844E-03 -2.24563387E-03  2.55792187E-02
 -2.67406311E-03  6.01616961E-03 -8.16328196E-04 -9.98630939E-04  2.86092579E-02
 -5.01560189E-03 -5.28269141E-03 -5.90234706E-04  4.39487448E-04  1.89099858E-03
 -9.20143657E-03 -1.20805924E-01  1.22160547E-01 -1.87330836E-04 -2.88374169E-02
  5.08022450E-02 -7.90418364E-05 -4.97682694E-03  1.11572189E-05 -8.16900832E-06
  7.44303132E-03 -1.50250811E-03  8.18013283E-03  3.14044391E-02 -1.39794443E-01
  6.84439190E-02  3.32914501E-01  3.53215817E-05  3.07968955E-03  1.93889407E-01
 -2.17628427E-06 -9.88526156E-06  5.37163910E-05  2.47218928E-05 -1.06215080E-05
 -7.56285842E-02 -2.79823897E-04  1.23527782E-03  5.96375169E-03  7.97441276E-05
 -1.74362160E-02 -1.49210104E-02 -7.09060576E-06 -3.54482667E-05 -3.49283527E-06
 -1.71964381E-05  8.34214773E-05 -1.38807174E-05 -2.40887420E-05 -3.10358047E-02
 -2.29223691E-04  4.58438115E-04 -1.14843110E-02 -1.50550879E-04  1.32240618E-02
 -1.26719985E-02  9.35409683E-05 -1.02840787E-05  2.16520216E-06 -2.64765019E-06
  3.62217689E-04  4.25167606E-05  8.97783863E-05  4.16218530E-02 -2.45033074E-03
  1.50531215E-03  5.43694220E-03  3.92912295E-04  7.56049195E-03  4.73289850E-03
 -3.05138613E-04 -2.04709415E-04  5.68416338E-05  1.90955410E-04 -7.69320352E-04
 -6.65955130E-04 -1.67128179E-05  4.08051441E-02  6.96366456E-03 -1.21083413E-03
  1.06284494E-02  4.43751650E-04 -1.29186199E-02 -2.48027908E-03  5.27563496E-04
  6.77763707E-05  3.67715610E-06  1.85514725E-06  3.39595855E-04 -3.14946379E-05
 -4.80998919E-05  2.60171174E-02 -4.14976305E-04 -2.77564431E-03  6.18369081E-03
  3.79101778E-04  8.87698885E-03 -3.75460984E-03 -3.26212712E-04  1.68980933E-04
 -6.62881435E-06 -2.75221811E-05  1.23338275E-04  3.57695683E-05  8.10906178E-05
 -3.53378416E-02  1.86704444E-03  4.87041754E-04 -8.94147515E-03 -1.71651240E-04
  1.23372874E-02  5.22033844E-03  1.24908790E-04  1.82947242E-05 -1.33275680E-05
 -4.53525263E-05  6.44704092E-05 -1.24973450E-04  2.40584410E-04  1.33971498E-01
  1.75694648E-04 -1.47507982E-04 -6.80224212E-03 -1.07342056E-04 -2.23031968E-02
  5.55376917E-02 -9.00895233E-05 -1.24108251E-04 -4.08438731E-04 -1.47493749E-03
  3.37003652E-03  2.88903462E-03  1.12024272E-04 -4.61134817E-02  1.93318883E-03
  1.14189803E-04 -2.45490897E-02 -9.52383343E-04 -4.94252103E-03  1.23608033E-05
 -3.46974753E-04  4.10494010E-05 -2.24820754E-03 -7.62643593E-04  1.15597085E-04
  7.70854528E-04 -2.62608233E-03 -2.27156730E-03 -8.28734390E-04  2.98142636E-05
 -6.96971453E-04 -2.32170311E-03  3.15528211E-08 -6.75704675E-07  1.01382593E-05
  7.92605385E-05 -1.35151619E-04 -9.56030905E-02 -1.51723936E-05 -3.43202653E-05
 -2.74075377E-02  1.17990857E-05  7.46545445E-03  3.50952076E-03 -1.44435709E-05
 -1.37356922E-05 -1.91510200E-05 -7.07807261E-05  3.20561623E-04 -9.85529875E-05
  5.05116738E-05  3.59545493E-01 -2.01523172E-05 -4.53257041E-05  1.50894119E-01
 -9.29157847E-04 -2.86768133E-03  7.18511878E-03  6.74708488E-03  9.71433060E-04
 -2.49403399E-07 -1.26378437E-02  9.20391524E-02  1.91245513E-05 -5.66760384E-04
 -1.83132298E-06  9.54060494E-06 -9.57705879E-03  2.74279116E-05 -1.23273232E-04
 -4.41203962E-04 -1.20632350E-03 -1.42583043E-03  9.79640787E-04 -1.32433507E-05
 -6.74980303E-02  7.24948527E-02 -4.27816410E-05  4.20673550E-04 -1.73438508E-06
  1.74488279E-05  3.16215217E-04  2.25292573E-03 -9.51079103E-06 -1.06381535E-04
  9.19684486E-04  1.07398606E-03 -7.09719775E-04 -1.09127752E-05 -6.61346933E-02
 -5.21670171E-02  6.64685107E-05 -3.52693893E-04  3.77030807E-05  2.99341343E-05
  1.72189941E-03  2.20507835E-03 -1.03348464E-04 -3.59177646E-04  1.02444244E-03
  5.65833357E-04  1.62769007E-04  1.09174518E-06 -2.16400040E-03 -7.70400810E-02
  3.63894465E-05  1.01318862E-04 -1.39032918E-05  2.06389509E-05  3.56958820E-04
  1.69753996E-03 -3.19029556E-05 -1.53546200E-04  2.05175885E-04  1.21312428E-03
  1.60546308E-04  3.32745881E-06  6.30907562E-02 -4.92049676E-02 -1.49242141E-04
 -2.03780698E-04 -3.70396538E-05  4.51526666E-05 -5.01298946E-05  1.03985776E-03
 -5.37125978E-04 -1.77705206E-03  5.12818736E-03 -2.19258297E-03 -6.19905024E-03
 -1.84483518E-05  7.60815589E-02  6.16414828E-02  7.89914740E-05 -3.16040457E-03
  1.30027100E-06  3.47660510E-05 -6.07440809E-03 -1.02908961E-03  4.29637742E-03
  1.46604997E-02 -2.73901198E-02  8.96047844E-03 -3.66229627E-02  8.79583277E-05
 -7.28395848E-03 -9.10996188E-03  4.35374323E-06  2.56740883E-03 -1.34872990E-05
  2.05458814E-05  7.33555224E-03  2.10482515E-02 -4.74409098E-05 -1.51859414E-04
  1.66977301E-04 -6.94749135E-04 -2.39658506E-04 -1.31398783E-07 -1.37274827E-03
  9.29123596E-03 -1.11643008E-04 -7.32909878E-05 -7.08828257E-05  1.55021846E-04
  1.63073727E-04  5.85797698E-04  1.75394705E-04  5.19528102E-03  5.67361969E-05
  1.75231413E-03 -4.47653116E-04 -4.07614568E-04 -3.68079099E-03 -2.76405765E-04
  1.19784578E-03  4.34316934E-04 -4.09034290E-03 -1.41159425E-02  5.76388626E-02
 -1.67619571E-02  4.41421665E-03  8.96185109E-06  4.09537020E-03  4.96132395E-03
  9.46705965E-06 -3.51754888E-03  6.55985234E-06 -9.85003824E-07  7.00805351E-04
 -7.65549174E-04  5.38894272E-03  1.90398793E-02 -7.80951923E-02 -1.06427476E-02
  2.99525695E-02  5.11199734E-05 -1.62270636E-02  2.62452850E-02  3.48999574E-06
  7.95037128E-03  5.76766520E-07  1.39359903E-06 -7.32974187E-07 -1.50765368E-05
 -2.23515408E-05 -3.20239923E-03 -5.39734944E-06 -4.36831246E-05  8.53438186E-04
 -2.00897485E-07 -3.20661313E-03 -2.28935910E-04  3.87460139E-06 -9.11079169E-06
 -1.84511102E-06 -6.56145950E-06  2.55617641E-05  3.31679798E-07  4.85143332E-06
 -3.77371822E-03  8.07763617E-05 -3.79156152E-05 -9.35150878E-04 -4.40640061E-06
  8.68260793E-04 -4.05111460E-04  3.99875866E-06 -3.52525028E-06  1.66437993E-07
 -9.80502162E-08  1.46355295E-05 -6.82487710E-06  1.41270297E-06  7.98153903E-04
  2.02656502E-05  8.64870480E-05  4.10795848E-04  7.99472789E-06  7.10485369E-04
  3.42290426E-04 -2.58757726E-06 -1.05292843E-06  1.47471723E-06  4.53053242E-06
 -1.55791213E-05  9.84055858E-06 -7.21594339E-06  2.53943103E-03  2.12465362E-04
  4.15989623E-05  1.69863745E-04  2.26396701E-05 -6.13576903E-04  3.39105054E-05
  3.34509130E-05  4.33067592E-06  1.70784925E-06  4.68482850E-06  3.89914709E-06
 -2.27448584E-05  4.74288675E-06  1.14343375E-03 -4.65035774E-05 -7.34370378E-06
  5.34053089E-04  9.13455752E-06  6.49856149E-04 -3.16401135E-04 -2.01628158E-06
 -7.96355243E-06 -5.24607503E-07 -1.90728796E-06  7.36685448E-06  1.67346907E-05
  3.68295421E-05 -3.17883956E-03  1.03816505E-05 -7.32521752E-05 -7.76458948E-04
 -7.70056266E-07  9.41680722E-04  2.53991863E-04  8.67230284E-06 -5.46981112E-06
 -4.58713353E-06 -1.56929503E-05  2.71105650E-05  5.37677212E-06  7.73711806E-05
  2.86618021E-02  1.55678254E-05 -1.74627546E-06  1.17860364E-03 -1.06800080E-05
 -2.09499082E-03  1.18215151E-03 -1.43900150E-05 -2.87120366E-05 -1.22991243E-05
 -4.41061372E-05  9.99003800E-05  8.75974687E-05  2.42589266E-05 -1.46260400E-03
  3.74991064E-05  4.35951711E-06 -6.99334468E-04 -1.14359628E-05 -3.37725269E-04
  1.25057471E-06 -3.33888131E-05  3.14936004E-06 -1.09271219E-04 -5.11748031E-05
  2.61003248E-05  3.85245164E-05 -1.21842209E-04 -8.65075956E-05 -4.68335025E-05
  2.54173366E-05 -3.90584726E-05 -1.22388766E-04  2.66355747E-06  9.36817173E-06
 -3.79268834E-05 -9.88458810E-06 -1.79397583E-05  1.56500250E-02 -1.81704196E-05
 -7.17400100E-06  7.47136218E-03  4.35109286E-06  1.58812516E-03  2.21685950E-03
 -2.31962434E-06 -1.51463916E-06 -8.10213149E-06 -2.88189924E-05  1.21644556E-04
  2.47952002E-05 -1.70133966E-06  2.53559228E-02  2.75980041E-05 -1.91042003E-05
  1.12671295E-02 -6.01614958E-06  1.67256163E-03  2.92718788E-06  1.07180293E-05
 -3.09910254E-05 -1.94770618E-05 -3.31352771E-06 -7.23430667E-03 -2.00245738E-05
 -2.09907773E-04 -1.12666303E-03  1.19777849E-05  4.82499644E-03  1.36560034E-03
  4.67694847E-06  1.78099364E-05  3.38694430E-06  1.30430180E-05 -4.99711609E-05
 -1.29624753E-05 -7.61022034E-06  1.57683168E-03  1.46914375E-04 -1.06917106E-04
  1.23060140E-04 -5.88445094E-06  2.71897615E-05 -5.87288108E-04  1.56320886E-06
  1.32904959E-06  2.00368984E-06  7.10970368E-06 -4.00217984E-06  2.31891445E-05
  7.15149073E-06  2.45772793E-03  1.54824894E-05  2.17661579E-04  3.36385099E-05
  3.86330209E-05 -7.62132337E-05 -3.86387448E-05 -3.47759552E-05 -2.48209473E-05
  7.76520146E-06  2.68594624E-05 -9.69407944E-05 -8.73700780E-05 -2.66155746E-06
  1.20512376E-03  3.55895413E-04  1.75123769E-04  1.09090134E-03  2.99128549E-05
 -4.61807330E-04  1.35400057E-04  7.58038432E-06 -3.89782385E-06  2.44398452E-06
  8.05003440E-06 -3.19361505E-06  9.23301413E-06 -1.06924261E-05  3.14406872E-03
 -2.87048795E-04 -3.55148179E-05 -1.75157629E-04  3.73377855E-05 -9.49483624E-05
 -6.57720206E-05 -2.84116419E-05  2.67296809E-05  2.06457869E-06  7.83835827E-06
 -3.06274826E-05 -4.97893499E-06  1.86819369E-05  1.13039197E-03 -1.72739471E-04
 -6.67415309E-05 -2.64293708E-04 -1.08962458E-06 -1.06846906E-06  1.31551685E-03
  6.85486872E-06 -3.35257513E-06  1.13120338E-05  3.86464854E-05 -7.10157515E-05
  3.67776627E-05 -6.87326970E-05 -4.81428496E-02 -2.52786007E-05  3.84388703E-05
 -4.37225150E-03  1.89544611E-05  1.03932880E-03 -5.50166775E-03  1.09403972E-05
  1.41421780E-05 -2.52913206E-05 -9.27250965E-05  2.18070816E-04  2.12517638E-04
  8.16167207E-06 -2.83066560E-03  1.03399199E-04 -1.40843857E-05 -1.73253857E-03
 -7.90849109E-05 -4.64558165E-05 -8.47014934E-08  1.01891289E-05 -1.40609693E-06
 -1.05464287E-04  3.87973926E-05 -3.86500205E-05  3.45506285E-05 -8.01344092E-05
 -9.30422570E-05  5.59716066E-05 -3.32832045E-05 -4.31297258E-05 -1.04939985E-04
  3.40586067E-06  1.30873000E-05 -6.27718782E-05 -1.20118164E-05  5.10009965E-06
 -4.98256297E-03 -4.66401763E-06 -1.34850759E-05 -3.50141500E-03  4.47698721E-06
 -2.21174170E-03 -2.95335694E-03  1.13833106E-05 -6.14256545E-06  1.67024484E-06
  6.18184304E-06 -2.39457375E-05 -1.35241361E-05  4.62511469E-05 -5.00840315E-02
 -9.86295543E-06  3.52427226E-05 -2.11628204E-02 -3.40760449E-07 -2.59261026E-03
  4.70215126E-03  2.53075055E-04  7.45153717E-04  1.43024201E-04 -1.27347704E-02
  2.18872351E-03  1.76649238E-06 -2.71773281E-02  2.45269296E-02 -8.75604186E-05
 -2.29504480E-03 -2.55124924E-06 -6.47781158E-06 -4.27592439E-03 -8.60065977E-04
  1.93518528E-04  7.37750654E-04 -4.29013816E-03  4.59909226E-03 -5.80688065E-03
  1.00665354E-06 -3.04129618E-02  3.38498756E-02  1.20642724E-04  2.90304529E-04
  1.09856129E-05  1.13959920E-05 -8.75250118E-04  3.26296881E-03 -1.81277016E-04
 -7.45605312E-04  4.00573764E-03 -2.32530806E-03  4.84925852E-04  1.20948399E-05
 -2.79163008E-02 -2.08060070E-02 -3.53439518E-04  1.02780433E-03 -6.74832664E-05
 -7.63992867E-05  1.00444418E-03  2.48593568E-03 -1.89842276E-05 -1.44833796E-04
  1.71524841E-03 -1.17425369E-03  1.29339650E-04  3.58005352E-05 -1.81450783E-02
 -1.92432005E-02  8.65291849E-04  2.35071545E-03  9.92992019E-05 -1.47893430E-06
 -1.58732492E-03  2.00349813E-03  5.91301578E-04  1.95964458E-03 -4.88304404E-03
  5.13489990E-03 -2.68669635E-04  6.63088258E-06  7.39903254E-03 -6.54095566E-03
 -4.02589378E-04  1.45346185E-03 -8.69119522E-05  9.94461332E-05 -1.44386215E-03
 -1.01350260E-03  1.04017928E-03  3.37546594E-03 -9.03912711E-03 -4.90045036E-03
  5.75037796E-03  2.20541831E-07  1.53210554E-02  1.57547868E-02  1.67942008E-04
  8.67997682E-04  1.19756231E-05  6.12477170E-06 -3.84153224E-03 -4.19375129E-03
  4.96184698E-03  1.69526575E-02 -2.96816813E-02  4.03251461E-02 -6.90963599E-03
  3.56352811E-05 -1.71545308E-02 -1.46330791E-05  2.81630826E-05  8.68833459E-03
 -4.23301093E-06  2.35787229E-05  1.01454664E-02  1.27785547E-02  1.07970070E-04
  4.09085790E-04 -1.22656651E-03  8.86425885E-04 -2.32832714E-05  1.57742801E-05
 -1.29068972E-02  1.62284894E-03 -1.76046920E-03  8.85082764E-04 -4.43993115E-04
 -1.80751037E-05  9.76826912E-04  2.93807462E-04 -4.21430275E-04  1.37864409E-02
 -1.54539050E-03  2.88584668E-03 -4.81032939E-04 -6.30073531E-04  1.20979606E-02
 -1.91831205E-03 -2.41055430E-03 -2.10646398E-04  1.10048430E-03  4.06472589E-03
 -1.73547021E-02 -2.43267868E-02 -6.06225777E-03 -1.61677926E-05 -7.99848833E-03
 -7.46074713E-03 -5.63244310E-06  7.02127502E-04  3.67151320E-06 -1.57120222E-06
  4.26452868E-03 -3.32498957E-03  4.03246968E-03  1.44869060E-02 -6.19867328E-02
  2.39335950E-02  4.71787456E-02  2.19127878E-05  5.16653910E-03  3.36386350E-02
 -7.68206069E-06  4.76091175E-03 -2.70543545E-06  7.48449742E-06  8.56392229E-03
  1.38060878E-03  4.68556103E-03 -1.24827989E-02  1.75816701E-02  2.26529843E-03
 -4.17591161E-05 -1.88328456E-02 -2.56358145E-02 -6.25927745E-05  3.56677169E-03
 -8.57697069E-06 -4.55571142E-06 -1.82783883E-02  9.28959595E-03  4.88181275E-04
  1.79542487E-03 -7.22085443E-03 -2.45664087E-03 -8.37602367E-04  9.73115123E-06
  1.90931591E-02  4.17703943E-03  1.25916349E-04  1.22010898E-04  2.17672006E-05
 -1.87166377E-06 -5.69885766E-03  7.20062124E-03  5.28473947E-04  1.83761935E-03
 -5.40109127E-03  3.45469727E-03 -9.40672009E-04  4.23610468E-05  9.75835701E-03
 -2.95437189E-03 -3.13219161E-04  1.43611245E-03 -3.79740648E-05 -7.67776008E-05
  3.38642336E-04  2.07995887E-03  3.91614722E-04  1.39739625E-03 -3.99884226E-03
  8.33318563E-04 -5.76072052E-04 -5.69288651E-05 -1.48306921E-02  1.20653413E-02
  5.94793233E-04  3.36764129E-03  1.08411946E-05 -6.12473228E-06  1.27590725E-03
  2.72632742E-04  8.36997489E-04  2.85046364E-03 -8.67913326E-03  3.98145316E-03
  8.24557346E-04  3.51929181E-05 -1.03122869E-02  1.53221812E-02 -2.62529613E-04
  3.99232857E-04 -3.94269336E-05  7.43975041E-05  1.09068426E-03 -1.36331570E-03
 -4.89248625E-04 -1.59926159E-03  4.28808713E-03 -9.08584468E-03  8.86084513E-04
  1.29626605E-05 -6.81160013E-03 -1.90101726E-02  8.46252859E-05  1.42732556E-03
  1.78706069E-05 -6.28867471E-06 -4.52693525E-03 -6.73646748E-03  7.38120882E-03
  2.50919916E-02 -4.67808713E-02 -8.16572102E-03 -4.84336740E-02  3.10161436E-05
 -1.20156372E-02  1.72145533E-02 -8.62461615E-06  4.13734545E-03 -1.49490915E-05
  1.11188626E-05  4.30655943E-03  6.29979125E-03  1.59767713E-04  5.79549012E-04
 -1.43308022E-03  2.18747628E-03  8.11552229E-05 -2.44579219E-04 -7.26038428E-03
 -1.91393646E-03 -1.33936377E-03  8.04356831E-04 -3.09401650E-04 -5.89597684E-05
 -7.00110065E-04  1.08110043E-04 -3.17009137E-04  7.75987797E-03 -6.67477851E-04
  1.74633960E-03 -1.34967097E-04 -1.83018202E-04  9.36482708E-03 -7.73575987E-04
 -2.23343384E-03 -2.38449927E-04  7.99593025E-04  2.75504185E-03 -1.08508431E-02
  9.17856626E-03  1.15993837E-02  3.38317484E-05  6.55451607E-03 -1.50997449E-03
  2.23473280E-05  7.63073053E-04  3.93955229E-06  9.46645835E-07  3.33997657E-03
 -1.09806491E-03  9.45433654E-04  2.98623464E-03 -5.36226103E-03 -4.49626222E-02
  4.08246778E-02  3.99037083E-05 -2.33517149E-02  2.57462351E-02  1.31174768E-05
  5.30827752E-03 -5.36705563E-06  9.77632626E-06  3.45294867E-03  9.99694914E-03
  2.08247091E-03  7.92702398E-03 -4.26804585E-02 -1.97991298E-02  4.65555812E-02
  1.78988760E-04 -5.00121722E-02 -4.02414102E-02  3.00113230E-04 -1.50133237E-02
  3.31003518E-05 -8.21952105E-05 -7.37997800E-02  1.12505292E-02 -1.90534171E-02
 -6.64530494E-02  2.18003403E-01 -1.55450952E-01 -2.71638779E-01  4.91887057E-04
  6.75050429E-02  1.06999050E-01 -4.77134745E-04 -2.47555327E-02 -1.92634111E-04
 -1.24935363E-04 -3.19078697E-02  7.27629467E-02  2.44038033E-03  9.26577819E-03
 -4.74695963E-02  3.61794791E-02  1.88401098E-02 -2.86959352E-04  6.28400574E-03
 -8.91361380E-02  1.09487251E-03 -1.77390565E-02  1.57688035E-04  2.14935387E-04
  2.17765309E-02  6.82629116E-02 -3.00735921E-03 -1.05617390E-02  3.73498174E-02
 -2.12256417E-02 -3.06953247E-02  4.33311634E-05  1.52774729E-02  1.53805489E-02
 -2.33283321E-03  2.53483717E-03 -1.11615061E-04 -2.23987355E-04  9.22784922E-03
 -3.14144604E-03 -1.33434794E-03 -4.84486770E-03  1.67203861E-02 -7.33018798E-03
 -5.55573486E-03 -1.66109088E-04  1.23542063E-02  3.19663343E-03  1.15616582E-03
 -1.13109280E-02  1.15528723E-04 -2.57040251E-04  4.42155977E-03 -1.24060462E-02
 -2.25505622E-03 -7.82299143E-03  2.45018950E-02 -6.94795361E-03 -2.87214545E-02
 -1.47314492E-04  3.29782814E-02 -5.52872972E-03 -3.80411713E-04  2.21295594E-03
 -1.51515287E-04  3.22247200E-05  4.60284737E-03 -9.44799277E-03  7.83929463E-04
  2.91912498E-03 -7.97159639E-03 -2.25029310E-02  9.09215208E-03  5.26676988E-06
 -3.29765115E-03  1.84056709E-02 -5.61077069E-05  4.62121751E-04  2.65275688E-05
 -2.22086606E-06  2.54147387E-03  6.11715335E-03  4.89566971E-04  1.64946892E-03
 -3.10048637E-03  7.73851661E-03  3.93860676E-04 -1.19502846E-04  3.21757284E-02
 -8.99932152E-04  4.89765994E-03 -5.46872754E-03  1.07553900E-03  4.40203701E-04
  3.85124234E-04  6.41350572E-03 -1.01525497E-03 -3.40214140E-02  7.72453544E-03
 -3.88934879E-03  1.07997151E-03  5.65240570E-03 -3.31220007E-02  4.86553397E-03
  9.11469625E-03  7.05435678E-04  8.63993858E-05  2.52132836E-04 -1.38125227E-03
 -7.51466776E-03  1.27256029E-02 -8.25733213E-05  4.69721915E-04  8.27584109E-03
 -3.10874677E-05 -1.27047539E-03  1.02337736E-07  3.98479946E-06  5.62605921E-04
 -3.07765160E-03 -1.15075062E-03 -4.28335306E-03  1.97127707E-02  8.13859058E-03
  1.68688297E-03 -6.81886337E-05  3.67455896E-03 -8.31292224E-04 -1.86273056E-05
 -6.15891560E-05 -2.16342960E-06 -8.38809200E-06 -1.08525929E-03 -1.27719993E-03
  2.14880601E-01  2.29141157E-03  6.91458534E-03 -1.53054158E-02 -3.07030210E-02
 -3.42432519E-02 -1.47416939E-03 -3.65507343E-02  6.03705544E-01 -2.75108128E-05
 -5.19105520E-03 -3.88740169E-06 -2.55046919E-05 -2.97146314E-02 -5.64971041E-02
 -1.83051072E-02 -6.47640236E-02  2.19738609E-01 -1.04539731E-01 -1.64423695E-01
  6.82785121E-04 -3.65972677E-01  5.02612216E-01  7.28597894E-05  8.87345290E-03
  4.09551489E-04 -1.87187084E-05 -3.08469920E-03  3.53332303E-02  1.05776134E-02
  3.61208352E-02 -1.12386814E-01 -5.49276274E-02  3.94042438E-03  1.54897594E-03
 -3.02810801E-01 -3.49894775E-01 -8.94623935E-04  1.34321331E-03  3.39202211E-05
 -3.60937463E-04  5.36792793E-02  3.30320267E-02  1.02541516E-02  3.97472713E-02
 -1.37615759E-01  3.01735848E-02 -2.60387030E-02 -3.04151587E-04 -5.81022294E-02
 -3.88175584E-01  2.88880972E-03  4.53011765E-02 -1.00915521E-03 -2.19810423E-04
  3.18885732E-02  2.65655412E-02  1.19981093E-02  4.55883861E-02 -1.57205246E-01
  1.89261585E-02  4.12509869E-02  1.39064204E-03  4.39309204E-01 -2.20154588E-01
 -2.03960738E-03  2.76692426E-02 -2.31884837E-04  6.52750040E-04 -9.91439456E-03
  2.38416977E-02  8.96214536E-03  3.48741340E-02 -1.20623695E-01 -4.10496289E-02
 -1.06147012E-02 -1.86891594E-05  4.65481007E-01  3.82429203E-01  9.29105913E-04
  2.24979135E-02  4.17806603E-04  2.42140870E-04 -4.87354158E-02  1.80287154E-03
 -8.50302315E-04 -2.08428359E-03 -3.40810746E-03 -1.25816337E-02 -3.18086923E-02
 -5.16912519E-04  1.36878529E-03 -1.17311864E-01 -4.11210218E-04 -7.37458497E-03
 -4.00915533E-04  4.69233857E-05 -1.27602421E-02  7.16287392E-02  4.09743486E-03
  1.40662292E-02 -2.56838709E-02  3.03697504E-02 -5.27424932E-03 -4.86234070E-03
  1.29146727E-03  4.08317734E-02 -6.53461443E-03  9.37862219E-03 -1.00263022E-03
  8.40515070E-04 -2.05042878E-02  8.86917067E-03 -4.17248030E-03  5.28587555E-02
  5.65961719E-03  1.16699115E-02 -2.20201589E-03 -6.77636629E-03  6.42398445E-03
  3.74498503E-04  5.54782500E-03  2.32157346E-03 -2.78565299E-02 -9.67877319E-02
  3.97154547E-01 -9.73370979E-02 -1.47972235E-02  1.03357442E-03  1.14267037E-02
  3.35530193E-02  5.60760420E-04 -2.34624451E-02  5.24868125E-05 -4.38872987E-05
 -9.08140163E-03 -6.94096361E-03  1.69186327E-02  6.30485530E-02 -2.94927764E-01
  5.86585937E-02 -1.37592346E-02  9.66524451E-04 -1.31938913E-02  2.78362276E-02
  4.47764831E-04  2.01924931E-02  1.15183728E-05  8.15791768E-06  8.32301149E-03
 -7.07828277E-04  1.42255635E-01  3.16324323E-01  8.05929374E-03  2.72078241E-02
 -7.98959220E-02 -2.80222576E-02  1.00721719E-02 -1.10017267E-04  4.18772510E-02
  4.93942027E-01  1.26909206E-04  1.13927054E-02  1.03877456E-05  3.22884244E-05
  1.33470532E-02 -3.88802883E-02 -5.29720582E-03 -1.80916860E-02  5.31023801E-02
  6.77260086E-02 -5.59761462E-02  1.90208203E-04 -3.52792211E-01  3.30839858E-01
 -3.02552016E-04  9.18256433E-03  2.02906118E-05  1.24883535E-04  4.21167149E-02
  1.25346143E-02 -3.54578594E-03 -1.21272246E-02  3.56054144E-02 -7.96061059E-02
  1.94595922E-02  2.00314239E-04 -2.83277195E-01 -2.28589506E-01  5.63677802E-04
 -5.05020619E-03  1.72051963E-04  1.93324164E-04  2.10056067E-02  1.90698233E-02
  1.09551017E-03  4.15814569E-03 -1.64640835E-02  2.18026785E-03 -4.29112911E-03
 -6.23660366E-05 -2.15859123E-03 -3.32451064E-01 -2.86372006E-04 -7.95833309E-04
 -9.35553767E-05 -7.90598552E-05  1.42639057E-02  2.32129810E-02  2.20176846E-03
  8.62656812E-03 -3.27898333E-02  6.42729960E-03  9.21219616E-03  7.62257357E-05
  3.15785291E-01 -2.10973193E-01 -4.03976279E-04  7.14584318E-03 -6.25843072E-05
  6.58553413E-05 -1.31229379E-02  4.67715352E-03  4.13246535E-03  1.48215583E-02
 -3.99463647E-02 -7.92459651E-04  1.82947199E-02 -5.08498428E-05  3.41393074E-01
  3.25589741E-01  3.25666045E-04  1.12211540E-03  6.40052015E-06  1.23524941E-04
 -8.73959052E-03 -3.17102721E-03  9.42472420E-04  3.14891453E-03 -1.07830831E-02
 -2.98645638E-03 -3.03545367E-02  3.94561809E-05  3.36079103E-03 -9.30404658E-02
 -3.33869406E-05 -1.23947187E-02 -5.50993483E-05  6.07679444E-05 -2.64304039E-02
  6.55056921E-02 -8.19379254E-04 -2.86843752E-03  6.65685574E-03  2.22490298E-03
  5.77362540E-04  3.15027050E-04  1.08075488E-02  3.67359527E-02  1.01219451E-03
  7.14568879E-04  5.84003749E-04  6.57753897E-04 -1.87074090E-03  4.20789160E-03
  2.54662459E-03  1.22376967E-02  2.24427034E-03  4.39645082E-03 -2.02662963E-03
  1.51394863E-03 -2.63203687E-02 -7.04954640E-04  7.03076973E-03  1.91842559E-03
 -2.55985612E-02 -9.09466927E-02  3.93666546E-01 -8.19684687E-02 -3.25234091E-02
 -9.05788155E-05  9.55220758E-03  2.64880815E-02 -9.51015058E-06 -1.89054215E-02
  1.61943517E-05 -3.05824966E-05 -9.97419351E-03 -2.47201067E-03  1.30566541E-02
  4.62417599E-02 -1.95134500E-01  3.63139970E-02  8.41454161E-03  2.76730938E-04
 -1.82397198E-02  2.44523319E-02  8.02840573E-05  1.70862635E-02 -1.00552427E-05
 -1.52609066E-05  6.11124811E-03 -8.00116959E-04  2.13234123E-02  1.33383086E-01
  1.12466792E-01 -6.04034610E-03 -2.07717854E-02  5.88352350E-02  3.71368054E-02
 -6.08042468E-02 -1.70692385E-04 -6.96607569E-03 -5.53158751E-02  2.30525742E-04
 -1.14191066E-02 -4.19562942E-06  2.53131611E-07 -2.98055414E-02 -1.23072582E-02
 -1.07883156E-02 -3.83667345E-02  1.26918504E-01 -3.98760332E-02  2.26602598E-02
 -1.96415551E-05  9.67330746E-02 -1.63152082E-02 -3.22206567E-04 -1.61352155E-02
  7.86400308E-06 -7.32598847E-05 -1.34330133E-02 -7.19533329E-03  8.94261146E-04
  2.72256603E-03 -1.15099886E-02 -2.15697957E-02 -1.54590542E-02  1.36376860E-04
  7.33653225E-02  4.82493718E-02  6.64552384E-04 -7.57492957E-03  1.21633060E-04
  9.64269356E-05  2.04506608E-02 -2.56743324E-03  2.16715159E-03  8.36893488E-03
 -3.16402548E-02  1.28491270E-02  1.00671018E-02 -6.47448190E-05  3.33403061E-02
  7.32396419E-02 -1.84293994E-03  2.38843687E-03 -4.57864191E-04 -1.04858744E-05
  1.17726872E-02  6.42741353E-04  1.23418897E-03  4.98957981E-03 -1.88823721E-02
  1.53286247E-03  3.73119744E-03  1.76394152E-04 -2.23225893E-02  4.44824201E-02
  8.88787579E-04  1.36306274E-03  2.01007505E-04 -1.60225542E-04  5.17110377E-03
 -1.25529679E-03  2.17382955E-04  1.60267220E-03 -1.52198195E-02 -2.28639058E-03
 -1.86767813E-04  7.71417814E-05 -8.62334446E-03 -3.93292931E-02 -3.24893533E-04
 -8.83961596E-04 -1.18042387E-06  4.58991181E-05 -1.42441367E-02 -2.72054595E-03
  2.61686461E-04  1.13204892E-03 -4.68405367E-03 -1.81074970E-02  3.28799538E-03
 -7.00013165E-05  1.32526411E-02  4.70102403E-03 -1.20892297E-04 -4.05553203E-03
 -4.82561068E-05 -2.81992065E-05  7.23571952E-03 -1.57170355E-02  2.97880423E-04
  9.43752882E-04 -6.67576709E-04 -5.10757849E-04 -2.52753706E-03 -4.77977761E-04
  3.10456561E-02 -1.11097111E-02  3.62783189E-03 -1.12403416E-03  8.04698102E-04
 -3.25009750E-04 -5.22286300E-03 -1.27398644E-03  1.35016224E-03 -3.35777746E-02
  5.20189124E-03 -8.04861363E-03  1.45112649E-03 -1.79289695E-03 -2.29069131E-02
  4.48997207E-03  4.66520843E-03  4.86181495E-04  3.53959848E-03  1.23180415E-02
 -5.10134328E-02 -7.42130396E-03  2.07720577E-02  2.02869336E-04 -1.23445813E-02
  6.52010137E-03  9.93182659E-05  3.40259352E-03  3.41258610E-06  1.28037116E-05
 -1.64263000E-03 -4.29489977E-04 -3.76299420E-03 -1.30538134E-02  5.45857409E-02
  5.11837471E-03  6.40547633E-03 -1.42948545E-05  1.02512646E-02 -3.54275166E-03
  2.13753959E-05 -2.15078585E-03  7.73572915E-06 -6.61730239E-07 -2.33751239E-03
 -4.69195919E-04  2.77117244E-02  2.08943248E-02 -1.20505519E-02  2.67653345E-02
 -2.79744108E-05 -9.81134851E-05  2.79644403E-04  1.79096034E-04  4.63430116E-05
  2.48363102E-02  3.92150853E-04  1.22449952E-04  1.14425450E-03 -1.53502142E-05
  1.50102783E-03 -6.34399485E-03 -4.95034309E-05  2.43956348E-05 -2.20324532E-05
 -7.95858188E-05  2.26016780E-04  8.62908959E-05  1.94305452E-04  4.82615856E-02
  1.73840636E-04  4.27814933E-05  8.96312113E-03 -1.17216069E-04  4.09669163E-03
  2.31413719E-03  6.97331492E-05 -3.88858776E-05 -3.71458411E-05 -1.29539698E-04
  4.07198221E-04  1.20164508E-05  1.50585687E-04  4.29577261E-02 -4.64748404E-05
  1.16108102E-04  6.64185616E-03 -3.98378630E-05 -5.01170839E-03  4.75196685E-04
  2.59541527E-05 -6.27610761E-06 -1.13309966E-05 -3.94583515E-05  4.30279189E-05
  3.63680299E-05 -1.72158489E-04  1.14243104E-02  1.18313095E-03 -5.70426811E-05
  2.41277622E-03  5.76224415E-07 -2.77878688E-03 -6.69968396E-03  3.84917126E-05
  2.22129920E-04 -1.04822754E-05 -4.36398558E-05  1.66501259E-04 -2.49240980E-04
  1.62365186E-04 -9.40277970E-03 -3.56360043E-05 -6.27971512E-04 -1.91589878E-03
 -6.23918160E-05  1.88084939E-03 -9.41964926E-04 -1.12835903E-05  3.79386967E-05
 -3.61978206E-05 -1.37057973E-04  4.82620178E-04  1.20610571E-04 -9.31883762E-05
 -5.50109252E-03  3.99523398E-04  2.50370315E-04  8.91016344E-04 -1.27411623E-04
 -3.08492856E-03 -2.59594467E-03  7.12243576E-05  1.11598584E-04 -8.85927369E-06
 -2.92558437E-05  1.85005447E-06 -2.69424402E-05  4.42113038E-06  3.77264170E-03
  2.05515577E-04 -6.02756601E-06  3.07107133E-03 -1.36653562E-04  3.34586664E-03
 -2.78815340E-03 -9.04202664E-05  1.88195655E-05 -3.10300302E-05 -1.07580086E-04
  2.49109412E-04  2.39443700E-05  6.99112088E-04 -5.34163533E-03  5.04605821E-04
  8.44763406E-05 -2.30040426E-03 -1.72022378E-04 -1.35991260E-03  5.02652064E-05
  1.74602155E-05  1.48345334E-04 -6.05968925E-04 -5.53477761E-04  9.50566236E-05
 -1.93836773E-05 -1.07716680E-04 -1.98678977E-04 -3.84686046E-04 -6.92787613E-05
  3.50011952E-05  2.58688460E-04 -4.09734489E-05 -1.49013881E-04  6.90011971E-04
 -5.26549411E-05 -1.16761036E-04  8.11504871E-03  6.65446727E-06  6.26540032E-05
  2.81607268E-03 -4.19207242E-06 -4.94380506E-06  5.79427378E-04 -3.36378730E-05
  1.86654238E-05 -3.19017421E-05 -1.18832263E-04  5.76044086E-04 -4.26808224E-05
  7.52016880E-05 -1.54813278E-02 -6.74464737E-06 -7.24024595E-05 -5.95087683E-03
 -3.68108004E-07 -2.66314124E-04  3.83961819E-04 -3.42637196E-05 -1.94661293E-05
  3.82624187E-05 -6.02749204E-05  4.24098414E-05  4.11755695E-05  5.79691348E-03
 -2.78912370E-03 -9.79456389E-03  3.43265854E-02  2.08810300E-02 -2.98389360E-02
  1.73153010E-04  4.71189239E-02 -3.88967819E-03  1.82968734E-04  9.71970751E-03
  2.85957166E-05  4.79082433E-05  8.68063598E-04  2.50145247E-03  2.38532184E-03
  9.10552640E-03 -4.76806830E-02 -3.60643031E-02  2.06678688E-02 -1.15958097E-04
  2.29568621E-02 -1.25422950E-01  1.51114180E-05 -1.95648099E-02  5.43160866E-05
  1.47874177E-05  2.33281808E-02 -6.59115083E-02 -1.90399050E-02 -6.63439774E-02
  2.15402396E-01  1.51946239E-01 -2.66776193E-01 -3.46972110E-05 -3.44230381E-02
  1.37772248E-01  7.12943367E-04 -2.36900087E-02  4.12758998E-04  2.97572469E-04
 -3.18579695E-02 -6.93462362E-02  1.90275180E-03  7.31035669E-03 -4.08141100E-02
  1.73684761E-02  4.93029747E-02 -1.89854879E-04  1.08278234E-01 -1.12275032E-02
 -2.37208836E-03 -2.06063502E-02  2.05696417E-04  9.09160377E-06 -6.57298977E-02
 -5.83608597E-03 -2.40643450E-03 -8.43588388E-03  2.83274348E-02  8.92770972E-03
 -2.92710715E-02 -3.70935656E-04 -3.87138997E-02 -2.04393474E-02  1.09373233E-03
  3.49815149E-03  1.55082588E-04 -2.38380975E-04  1.56566456E-03  5.65491234E-03
 -1.34433705E-03 -4.89800492E-03  1.72185886E-02  7.44793818E-03 -5.92865911E-03
  6.45473113E-05 -1.79045600E-02  1.41513126E-02 -3.23776452E-04 -1.35178066E-02
 -9.61045816E-05  4.39314366E-05  5.91757751E-03  9.68188871E-03  6.76313451E-04
  2.44041727E-03 -7.38665935E-03 -1.17934621E-02 -1.28192519E-03  3.22033591E-05
  6.83610695E-03 -3.92152439E-03 -1.15211199E-05 -6.10161264E-03  3.15463336E-05
 -1.13505929E-05 -2.09685924E-04 -6.22955875E-03  1.11938690E-03  4.23067785E-03
 -9.32843515E-03  9.53472096E-03  1.67846917E-02 -8.73075511E-04  4.44560227E-02
  1.93578171E-02  4.55955402E-03 -1.45487393E-03  1.47798194E-03  4.16181562E-04
 -3.69066376E-03 -1.11733318E-03 -3.55565262E-04 -2.86473719E-02  2.28229212E-03
 -6.97243128E-03  2.56631439E-04  6.42925212E-03 -4.30555237E-02  8.39970919E-03
  8.40235033E-03  1.92057957E-03 -7.43919051E-04 -2.81591959E-03  1.41903286E-02
  1.47023171E-03 -3.66065449E-03 -6.93545637E-05 -2.55752412E-03  3.09856498E-03
 -3.36927194E-05  8.66951470E-04 -5.02207784E-06  7.06886191E-06 -1.16025176E-03
  1.16435922E-03 -7.11023540E-04 -2.58019829E-03  1.25668703E-02  8.66689220E-03
 -3.58613423E-04 -8.33876390E-05  5.59183944E-03 -2.57396771E-03 -3.96565999E-05
  7.72995915E-04 -3.68917722E-06 -4.91227901E-06 -1.28855584E-03 -6.96194379E-04
 -1.77404334E-02 -5.61822193E-02 -2.51179269E-02  3.33568565E-03  6.87871772E-05
  2.16291904E-01  8.87151592E-04  6.84254161E-03 -4.15562806E-02 -2.99066739E-02
 -3.23673052E-02 -3.15058592E-03 -4.55243247E-02 -5.74204505E-02 -5.87939421E-04
  6.97282965E-03  3.48817514E-04  2.95313912E-04  2.95975572E-02 -1.43977137E-02
  5.35495522E-03  1.63785232E-02 -4.61010461E-02  5.47881687E-02  1.85724193E-02
  2.34857950E-03  2.42040465E-02 -1.32710060E-01  3.13508450E-03 -1.34088890E-02
  1.42311061E-03 -4.31684240E-04  3.67439447E-02 -4.41736779E-02 -2.15628029E-02
 -7.64473927E-02  2.62666784E-01  8.34567098E-02 -1.82451568E-01  3.33368225E-03
 -1.56148427E-02  1.94206810E-01 -6.51022933E-03 -1.00174734E-02 -2.23487551E-04
 -1.99036659E-03 -2.02941114E-02 -5.52063592E-02  7.16388835E-03  2.28744677E-02
 -7.06443983E-02 -4.86821238E-03 -2.30246957E-02 -1.44010609E-02  3.90976932E-02
  1.22290167E-01  1.28659864E-02 -7.56344591E-03 -3.37125890E-03  2.77275748E-04
 -5.13987286E-02  2.28722272E-02  4.72010717E-03  2.04193531E-02 -8.12790057E-02
  1.90289441E-02 -3.07424238E-03  5.18686234E-03 -1.62941386E-01  7.70988529E-02
 -5.51128117E-03  2.93450142E-02 -6.08679576E-04  2.04384273E-03 -2.33150595E-02
  1.20055586E-02  7.07168319E-03  2.70631353E-02 -9.48387387E-02 -9.81192269E-03
  3.00432103E-02  4.68507185E-03 -1.42451940E-01 -3.23092552E-02  3.05339575E-03
  1.40421604E-02  1.58444561E-03  4.80357930E-04 -8.82935104E-03 -7.44847769E-03
  1.40465385E-03  4.53190081E-03  4.79073423E-03  1.67667206E-02  8.23617317E-03
 -3.27552438E-03 -4.25896355E-02  4.03882901E-03 -1.75391804E-03  3.20455883E-02
 -1.11926904E-03  1.42129804E-05  3.55456777E-02 -2.33685838E-02 -7.74009254E-03
 -2.65559757E-02  5.09894144E-02  8.07088111E-02 -1.03271188E-02 -3.70058265E-02
 -1.16730481E-02 -1.69662570E-02 -3.17229197E-02 -1.40113584E-03  3.29840925E-03
 -1.33886095E-03 -3.27766795E-03  5.81481408E-03  3.93722306E-02  6.52248333E-02
 -1.41790229E-02  1.82316680E-02 -5.89672499E-03  2.91936414E-02  5.55243441E-02
 -8.41847911E-03 -2.06068712E-02 -3.40264441E-03  1.36461765E-02  4.95025897E-02
 -2.25402974E-01  1.11399468E-02  2.93883402E-02  3.41317988E-03 -1.47237751E-02
 -1.85753930E-02  1.92285534E-03  5.72622383E-03  4.66502483E-05 -1.17969434E-04
  6.77107006E-03 -1.70099810E-03  5.74967525E-03  2.08550001E-02 -9.72990506E-02
 -3.14548482E-03 -2.50282901E-02  3.15664320E-03  4.12581343E-03  9.06683796E-03
  1.77006714E-03 -2.87163162E-03  4.67080609E-05  1.37566225E-04  6.63014302E-03
  2.39372928E-03 -4.64876300E-02 -5.55781628E-02 -2.94272536E-02 -3.31147394E-03
 -1.15194567E-04  1.59819694E-01  2.12524771E-01  7.66040866E-04  2.46670511E-03
 -4.18517307E-03 -3.74179636E-03  5.82888806E-04 -2.92223611E-04 -1.85371777E-02
  1.18896157E-01 -5.80591061E-05  4.11977082E-03  1.01080617E-05 -1.13061263E-04
 -1.03349274E-02  5.89642019E-03  4.98481164E-03  1.77270955E-02 -5.71765030E-02
 -8.41584617E-02 -2.06741672E-02 -2.36874642E-05 -1.10604051E-01  9.21242626E-02
 -3.91399532E-05  1.02721283E-02  6.78992077E-05 -5.16828709E-05 -1.24975948E-02
  1.89102368E-02  6.13818993E-03  2.13276746E-02 -6.73697943E-02  7.54749025E-02
  5.27884480E-02  5.61743495E-04 -1.18281979E-01 -1.11417398E-01  5.54071106E-04
  4.50762290E-03  1.65797049E-04  5.31574930E-04 -2.05607652E-02  1.60741084E-02
 -6.61145206E-03 -2.20918463E-02  6.67673002E-02 -3.85591727E-02 -1.25724405E-02
  3.68781022E-03 -1.75456084E-02 -1.35651110E-01  3.51556014E-04  7.64370980E-04
  1.40315859E-03 -9.60805897E-05 -1.18390708E-02 -9.76839340E-03 -2.52520358E-03
 -9.60428305E-03  3.31580328E-02  8.86794468E-03 -2.02267647E-02 -4.74137951E-05
  7.78068461E-02 -8.38858639E-02  1.81489869E-05 -6.20862997E-03  1.15600957E-04
 -4.45489167E-04 -7.64576906E-03 -6.11369727E-03 -1.90451772E-04 -1.39196068E-03
  9.13896588E-03  1.02086736E-03 -2.07544747E-03 -8.10828905E-04  9.07672862E-02
  7.13636619E-02  6.33924414E-05 -5.94240721E-03 -9.35681377E-06  7.62923541E-05
  1.00997035E-03 -4.25191870E-03  1.26694985E-03  4.34020213E-03 -8.48697871E-03
 -7.85189109E-03 -6.55639992E-03  1.66934696E-04 -4.51618572E-03 -2.22232141E-02
  1.26771489E-04  1.09577476E-03  5.14043280E-07  7.21445982E-05  5.06610323E-04
  1.97786927E-02 -1.05920559E-03 -3.30315175E-03  3.51650776E-03  1.85706891E-02
  3.06661665E-03  6.77599319E-03 -2.09388453E-02  2.10303899E-02  5.05784149E-04
 -3.11168541E-03 -4.22825829E-04  8.72663570E-04  5.69625093E-03  1.57192286E-03
  4.60169099E-03  2.82444158E-02 -2.53881433E-03  1.03695196E-02 -1.10990108E-03
  9.51825142E-03  1.27242012E-02 -2.67203352E-03 -2.83119317E-03 -3.60688573E-04
 -5.88150203E-03 -2.04126997E-02  8.34691735E-02 -1.39034957E-02 -1.11201225E-02
 -2.79464058E-04  7.12584357E-03  2.36744286E-03 -1.39500942E-04 -5.05410310E-03
  5.63670204E-06 -8.82043997E-06  4.78979538E-04 -1.99752817E-03  6.63919443E-03
  2.30897206E-02 -9.53553135E-02  1.14443229E-02 -1.34729182E-02  2.35344235E-04
 -7.57030020E-03  4.57333675E-03  5.38099485E-05  5.56352615E-03 -4.66353267E-07
 -1.65847451E-05  1.52882573E-03  6.40458437E-04  2.09143209E-02  2.52985825E-02
  1.22674905E-02 -1.04980765E-02  1.14966343E-05 -2.02445053E-02 -3.27957085E-02
  3.29676996E-02  1.95485718E-03  7.77844749E-03 -3.12001267E-02 -1.59932075E-02
  7.55109967E-03 -1.00444318E-04 -8.63843076E-03  9.42711350E-02 -6.35749039E-05
  3.11584174E-03  4.86930469E-05 -1.28748112E-05  7.57601528E-03 -8.29515041E-03
  1.28271379E-03  4.15025237E-03 -1.73456238E-02  1.96211498E-02 -1.55012631E-02
  1.67810609E-04 -8.44420053E-02  4.36973444E-02  1.86215765E-04 -6.01137388E-03
  6.54045005E-05  6.34510630E-06  2.19825707E-02  4.61772962E-03 -1.01696203E-02
 -3.60140869E-02  1.18090007E-01  4.06288097E-02  1.85891148E-02  1.47637075E-04
 -9.04033155E-02 -4.53505592E-03 -1.44843976E-04 -1.14761616E-02  8.33579929E-05
  9.01956258E-05 -8.60915644E-03  5.87291233E-03 -4.49499311E-03 -1.54546015E-02
  4.41648740E-02 -4.43932061E-02 -6.03434474E-02  2.46490225E-04  6.63252367E-03
 -3.38501966E-02  7.85641109E-04 -8.63481660E-03  6.03985776E-04 -3.00809703E-04
 -3.03720596E-02  2.12082296E-02  6.86986291E-04  3.21924509E-03 -1.76671999E-02
  5.32000631E-03  2.35091956E-03  1.77697607E-04  3.26892970E-03 -3.28357177E-02
 -1.18809887E-04  4.42868409E-04 -8.05372060E-05 -9.83628609E-05 -1.95338024E-02
  3.55599980E-03  1.98356500E-03  7.51792851E-03 -2.55629516E-02 -3.70376489E-03
  6.06576201E-03  5.47082249E-05  2.75294984E-02  7.11010330E-02  2.48759603E-04
  2.98366120E-04  3.73731099E-05  7.77417575E-05 -1.19615655E-03 -2.41607912E-03
  3.46135495E-04  1.06496891E-03  1.76834207E-03  7.13329752E-03 -3.69526253E-03
 -8.42019239E-05 -1.32216672E-02 -1.75071615E-02 -1.43499365E-05  8.94115014E-03
 -2.83879140E-05  4.46249634E-05  8.79145302E-03  9.36652355E-03  1.44560070E-03
  5.06597620E-03 -1.05660115E-02  1.93472668E-02  2.52436766E-03 -1.07563069E-03
 -6.70299477E-03  2.57907440E-03 -7.83258414E-04 -1.36611205E-03  3.70703180E-04
  3.34843884E-04  5.58338822E-03  1.01944229E-02 -9.65537044E-04  1.40191322E-02
  6.52474759E-05  4.07829705E-03 -1.56925571E-03  6.93415790E-03 -3.28376325E-03
  5.11676642E-04  1.02262077E-03  1.37118765E-04 -1.24487265E-03 -3.78530007E-03
  1.00546041E-02 -4.69141087E-03 -6.89705566E-04  1.20178146E-05  1.91267569E-03
 -7.72714709E-04  2.40432920E-05 -2.54604961E-03  1.84710161E-06 -1.15995468E-05
  4.69241068E-04 -9.69807079E-05  5.88865345E-03  2.08339395E-02 -8.99482037E-02
  8.60289550E-03 -1.09718413E-02  2.39641525E-04 -4.61988808E-03  6.28241453E-03
  9.66692451E-05  3.15495748E-03 -1.32654733E-06 -1.42610380E-06  3.20871210E-03
 -3.10034321E-04  1.02413597E-03 -1.48850604E-03  1.32248722E-02 -8.40824536E-03
  2.10666171E-05  2.74765879E-02  4.00176034E-02  3.54089809E-03  2.57908255E-02
  3.94495560E-05  1.40647194E-04 -4.22167194E-04 -8.70345593E-05  5.64769264E-05
 -2.50458949E-03 -1.01816304E-04  1.47020731E-03  1.80038789E-03  2.04128544E-04
  1.74046590E-03 -7.42075908E-03  2.32367447E-04 -4.52832699E-05  2.51486949E-05
  1.17274005E-04 -5.76187396E-04 -9.14964994E-05 -5.33923038E-05  4.26921030E-02
 -1.07239699E-03  4.29690579E-04  6.44775353E-03 -8.69036867E-05  8.01424702E-03
 -1.34478803E-03  2.42554209E-04 -7.14729031E-05  9.17640549E-06  1.79787192E-06
  4.62057389E-04  4.26828614E-04  2.43512021E-05  5.85668693E-02 -3.15834195E-03
  1.21827122E-03  8.39662973E-03  4.70107745E-04 -2.92357407E-03  1.82867157E-03
 -6.65885248E-04 -4.68414924E-04  1.96800846E-04  5.92805223E-04 -1.57316311E-03
 -2.05027857E-03  3.39775241E-05  2.56980923E-02  5.31821986E-03 -1.35534169E-03
  7.30840489E-03  2.11924789E-04 -7.42107983E-03 -6.85917924E-03 -1.52339713E-04
 -2.94421636E-04 -7.29048885E-06 -3.66088847E-05  4.29386544E-04  2.43421936E-04
 -5.07673013E-04  4.88322796E-03 -8.94608007E-04 -2.72127627E-03 -1.60086525E-04
  4.74694608E-04  4.09546156E-03 -2.21145822E-03 -5.93193352E-04  3.37928234E-04
  2.97585472E-05  1.03799170E-04 -2.84482179E-04 -4.82766847E-05 -2.32793034E-05
 -1.15947401E-02  9.82695005E-04  1.34517427E-03 -1.48749385E-03 -1.69979451E-04
  7.42014076E-04  5.33539401E-04  1.42207921E-04  3.70479307E-06  2.44396655E-05
  8.27293723E-05 -1.29213271E-04 -1.19325564E-04 -9.67579172E-05 -8.27067306E-03
 -7.22174881E-05 -2.82031390E-04 -3.33324308E-03  8.89332142E-05 -1.74829102E-03
  1.11977717E-03 -1.46941102E-05  1.83748714E-04 -4.94723661E-04 -1.77183872E-03
  3.86410832E-03  5.06585286E-03 -1.84371338E-03 -2.32671961E-02  1.65544117E-03
 -6.21104214E-04 -1.23904109E-02 -7.76199287E-04 -2.85181923E-03 -8.14534586E-05
 -2.52003533E-04 -1.81270840E-04  1.43362933E-03  9.35070087E-04 -2.63011176E-04
  9.12064033E-04 -1.16188968E-03 -4.97323409E-04  7.48417955E-04 -2.61499583E-04
 -8.74473151E-04 -6.37563493E-04 -3.81589017E-05 -1.30431874E-04  5.06896363E-04
 -3.93196716E-05 -6.09185401E-05  9.76594656E-04  6.55523094E-05 -1.62598318E-07
  1.31220191E-03 -5.20653786E-05  1.90556093E-05 -5.23089627E-04  1.17778982E-05
 -3.96655908E-05  8.85206171E-05  3.11709581E-04 -1.32940045E-03  1.62487107E-04
 -1.67251059E-04  9.40713715E-03 -9.57217762E-05  7.92897394E-05  5.09096075E-03
  5.53474092E-05  2.28563688E-05  2.44017874E-04  4.10319956E-05  3.33238046E-05
 -7.86255704E-05  4.43702856E-04  2.38360153E-04 -1.14159607E-04  5.22895314E-03
  1.60057811E-04  1.78390252E-03  2.59616120E-04  2.23515656E-04  7.06325409E-03
 -2.78902167E-03 -9.79406725E-03  3.43206080E-02  2.08704885E-02  2.98289878E-02
  1.94540002E-04  4.71288134E-02  3.70990731E-03  1.85219776E-04  9.71715429E-03
  3.51381384E-05 -5.40298788E-05  8.79434093E-04 -2.50717551E-03 -1.34343700E-03
 -4.89472195E-03  1.72020243E-02  7.44738043E-03  5.92716247E-03  4.42671881E-05
 -1.78033437E-02 -1.41733316E-02 -3.50273736E-04 -1.35181933E-02 -8.74919174E-05
 -2.49653269E-05  5.91588236E-03 -9.66448773E-03 -2.40476685E-03 -8.43009427E-03
  2.83089710E-02  8.92845098E-03  2.92716453E-02 -3.76656533E-04 -3.85463577E-02
  2.04473730E-02  1.08255030E-03  3.50497586E-03  1.57374743E-04  2.35953995E-04
  1.56944724E-03 -5.64689408E-03  1.90468025E-03  7.31662420E-03 -4.08348766E-02
  1.73549279E-02 -4.93308119E-02 -1.73639054E-04  1.08233435E-01  1.13717397E-02
 -2.35027049E-03 -2.06082390E-02  1.96672832E-04  4.77927256E-06 -6.57117313E-02
  5.90857647E-03 -1.90419811E-02 -6.63512036E-02  2.15434723E-01  1.51957554E-01
  2.66762126E-01  4.74234176E-05 -3.45995847E-02 -1.37680250E-01  6.62417550E-04
 -2.36917257E-02  4.46397628E-04 -2.86602119E-04 -3.18710759E-02  6.93425486E-02
  2.38524532E-03  9.10552857E-03 -4.76830889E-02 -3.60571333E-02 -2.06520182E-02
 -1.18150691E-04  2.28239731E-02  1.25316218E-01  9.48146265E-05 -1.95599753E-02
  8.00839186E-05 -2.63022897E-05  2.33728232E-02  6.59061780E-02  6.76150355E-04
  2.43987307E-03 -7.38481766E-03 -1.17983136E-02  1.26485580E-03  4.58211808E-05
  6.82289478E-03  3.95156882E-03  1.36482471E-06 -6.10021793E-03  3.50833497E-05
 -5.42292864E-06 -2.17039649E-04  6.22081162E-03  1.11874119E-03  4.22799425E-03
 -9.31912815E-03  9.51365119E-03 -1.67763393E-02 -8.84800495E-04  4.44184156E-02
 -1.94209630E-02  4.54611059E-03 -1.44747602E-03  1.47534562E-03 -4.03360571E-04
 -3.68836605E-03  1.12186298E-03  6.41914988E-03 -4.30720162E-02  8.39098794E-03
 -8.41765245E-03  1.90930045E-03 -3.53422403E-04 -2.85989511E-02  2.29329704E-03
  6.93718763E-03  2.57984641E-04 -7.11671225E-04 -2.58258833E-03  1.25787475E-02
  8.65989340E-03  3.65709697E-04 -1.03051855E-04  5.58539158E-03  2.57993224E-03
 -5.58916867E-05  7.70859064E-04 -6.81235885E-06  3.63068994E-06 -1.29162925E-03
  6.89567761E-04 -7.42482056E-04 -2.81051328E-03  1.41626415E-02  1.45983631E-03
  3.64905580E-03 -8.12091161E-05 -2.55240735E-03 -3.09568014E-03 -4.19930443E-05
  8.67819289E-04 -9.10100153E-06 -1.03534279E-05 -1.15986109E-03 -1.17070746E-03
  6.53655604E-03 -1.75534324E-02 -1.83211539E-03 -1.49915158E-03  8.34793428E-05
 -7.18298138E-03 -2.36462541E-02  2.54747992E-03  2.07385138E-03 -1.34384829E-04
  2.16283531E-01  8.92632253E-04  6.86007062E-03 -4.15964809E-02 -2.98627082E-02
  3.23554739E-02 -3.09257847E-03 -4.54411000E-02  5.86730075E-02 -5.62442223E-04
  6.98532146E-03  3.84522867E-04 -3.80923877E-04  2.96216770E-02  1.43798540E-02
  7.06790267E-03  2.70501365E-02 -9.47902357E-02 -9.81224348E-03 -3.00540654E-02
  4.68143380E-03 -1.43578946E-01  3.29583285E-02  3.02363668E-03  1.40290864E-02
  1.58207268E-03 -4.98650947E-04 -8.81360293E-03  7.42696456E-03  4.71698686E-03
  2.04096343E-02 -8.12505441E-02  1.90069306E-02  3.01947708E-03  5.21607809E-03
 -1.64139460E-01 -7.76784123E-02 -5.57520285E-03  2.93456342E-02 -6.11328522E-04
 -2.03731093E-03 -2.33500314E-02 -1.20085314E-02  7.16179611E-03  2.28684625E-02
 -7.06509349E-02 -4.82687961E-03  2.30590042E-02 -1.44088420E-02  3.91182552E-02
 -1.23676768E-01  1.28986478E-02 -7.59249947E-03 -3.39572125E-03 -2.66296223E-04
 -5.14017917E-02 -2.28057121E-02 -2.15679704E-02 -7.64656227E-02  2.62733208E-01
  8.34489969E-02  1.82425462E-01  3.43978165E-03 -1.44417705E-02 -1.94855985E-01
 -6.58920180E-03 -1.00242796E-02 -2.00970046E-04  2.00527611E-03 -2.02858079E-02
  5.51827565E-02  5.35419576E-03  1.63769986E-02 -4.60957943E-02  5.48245968E-02
 -1.86222258E-02  2.37318313E-03  2.54149902E-02  1.33241038E-01  3.24702523E-03
 -1.34002986E-02  1.45147107E-03  3.89217271E-04  3.68031167E-02  4.41324342E-02
  1.40882192E-03  4.54577343E-03  4.75685681E-03  1.67291027E-02 -8.17797250E-03
 -3.27823209E-03 -4.26015829E-02 -4.13717866E-03 -1.72801115E-03  3.20210368E-02
 -1.12741809E-03  7.44491980E-05  3.54393245E-02  2.34027288E-02 -7.75095930E-03
 -2.65941723E-02  5.10690716E-02  8.07097565E-02  1.03207886E-02 -3.71192816E-02
 -1.16299287E-02  1.71630410E-02 -3.17878353E-02 -1.40808209E-03  3.30308938E-03
  1.33660706E-03 -3.28083600E-03 -5.81077557E-03  2.92165217E-02  5.55458145E-02
 -8.39998234E-03  2.06533091E-02 -3.39477951E-03  3.93804937E-02  6.51162116E-02
 -1.41894514E-02 -1.82045454E-02 -5.91514239E-03  5.74855250E-03  2.08512432E-02
 -9.72808460E-02 -3.11731411E-03  2.49572280E-02  3.16479706E-03  4.14170197E-03
 -9.05416966E-03  1.78992412E-03 -2.86016829E-03  4.67205140E-05 -1.39167370E-04
  6.62973017E-03 -2.36103902E-03  1.36309002E-02  4.94446075E-02 -2.25123701E-01
  1.11739857E-02 -2.93713526E-02  3.35228096E-03 -1.46901077E-02  1.86085643E-02
  1.84643134E-03  5.70600706E-03  2.86350264E-05  1.30725463E-04  6.76981886E-03
  1.74805816E-03 -9.73268608E-03 -9.53570159E-03 -7.67932402E-04 -2.25227752E-02
  1.53561697E-04 -2.36128978E-02 -1.29347432E-03  2.33786583E-02 -1.57587113E-03
  1.77421241E-03  1.59818743E-01  2.12486186E-01  7.55635534E-04  2.42917735E-03
 -4.08144775E-03 -3.69926533E-03 -5.75630340E-04 -2.55169414E-04 -1.82111574E-02
 -1.18732305E-01 -9.81256713E-05  4.12674975E-03 -1.15578831E-05  1.16593483E-04
 -1.03724145E-02 -5.89365290E-03 -2.06047260E-04 -1.44743361E-03  9.30722040E-03
  1.04289721E-03  2.09099441E-03 -7.98855286E-04  9.06774346E-02 -7.13969451E-02
  3.16650640E-05 -5.99415606E-03 -1.52466440E-05 -5.82725260E-05  1.05203320E-03
  4.22597670E-03 -2.53447807E-03 -9.63737863E-03  3.32496859E-02  8.83403387E-03
  2.02721987E-02 -6.21606786E-05  7.78069256E-02  8.38509719E-02  8.21314309E-05
 -6.23944597E-03  1.10262014E-04  4.45321427E-04 -7.60790347E-03  6.15889308E-03
 -6.62694931E-03 -2.21441878E-02  6.69029801E-02 -3.84819765E-02  1.25451762E-02
  3.67622676E-03 -1.72230009E-02  1.35506048E-01  3.13037770E-04  6.85704769E-04
  1.41349697E-03  9.39617396E-05 -1.17659325E-02  9.77931745E-03  6.12384162E-03
  2.12776345E-02 -6.72379579E-02  7.53761826E-02 -5.27775114E-02  5.02143135E-04
 -1.17992831E-01  1.11279034E-01  6.27995173E-04  4.46661422E-03  1.55944425E-04
 -5.23928605E-04 -2.05311163E-02 -1.60803281E-02  4.96645878E-03  1.76627699E-02
 -5.69947041E-02 -8.40831521E-02  2.06809631E-02  2.79950479E-05 -1.10432248E-01
 -9.18855966E-02 -7.24166087E-05  1.02141744E-02  5.47193229E-05  4.86762366E-05
 -1.24671138E-02 -1.88614917E-02  1.25648970E-03  4.30648844E-03 -8.47217413E-03
 -7.84702152E-03  6.54501446E-03  1.18856814E-04 -4.35384154E-03  2.22094604E-02
  1.13677153E-04  9.88424661E-04  2.84808362E-05 -6.86402720E-05  4.58706947E-04
 -1.97668634E-02 -1.07036300E-03 -3.34188545E-03  3.59453098E-03  1.84511368E-02
 -3.10314159E-03  6.83584423E-03 -2.07648056E-02 -2.10080331E-02  5.68169629E-04
 -3.13756580E-03 -4.18857522E-04 -8.77285034E-04  5.70628151E-03 -1.57558048E-03
  9.53185883E-03  1.25056922E-02 -2.65270629E-03  2.79214310E-03 -3.51878807E-04
  4.60284724E-03  2.80045426E-02 -2.53278977E-03 -1.03044831E-02 -1.11082266E-03
  6.60571578E-03  2.29708339E-02 -9.48296326E-02  1.13926869E-02  1.33973347E-02
  1.82021936E-04 -7.56806754E-03 -4.49766565E-03  4.69614948E-05  5.56118839E-03
  1.14778727E-06  2.01071176E-05  1.50824950E-03 -6.14493059E-04 -5.91303893E-03
 -2.05246431E-02  8.39692909E-02 -1.39173015E-02  1.12199494E-02 -3.53713413E-04
  7.12484308E-03 -2.42405111E-03 -1.62875360E-04 -5.05188670E-03  5.29078376E-06
  8.20068580E-06  4.46956032E-04  1.97498285E-03  7.93722955E-04 -2.33281551E-02
 -1.90908267E-02  3.77327560E-03 -8.86974368E-05  2.55655863E-03  2.32716296E-02
 -4.95542392E-03  5.22562832E-03  5.91217847E-05 -2.02056250E-02 -3.28791213E-02
  3.29193170E-02 -1.95156336E-03 -7.76606706E-03  3.11672669E-02  1.59716862E-02
  7.54172269E-03  6.07041610E-05  8.44577628E-03  9.42403007E-02  9.10768356E-05
 -3.12683352E-03 -4.41197562E-05  1.00252463E-05 -7.56265545E-03 -8.30522422E-03
 -1.97576744E-03 -7.48986937E-03  2.54733821E-02  3.69181651E-03  6.06375348E-03
 -6.34723430E-05 -2.74358369E-02  7.11357547E-02 -1.91269216E-04 -2.61208400E-04
 -3.09902236E-05  6.46742981E-05  1.17699360E-03 -2.40667692E-03 -6.81628975E-04
 -3.19996972E-03  1.76097171E-02 -5.29995431E-03  2.31892374E-03 -1.59569665E-04
 -3.23345156E-03 -3.28337100E-02  8.22108838E-05 -4.31856063E-04  8.74421424E-05
 -1.02810801E-04  1.95239788E-02  3.51833098E-03  4.50682158E-03  1.54940374E-02
 -4.42628383E-02  4.43462230E-02 -6.03570279E-02 -2.35859279E-04 -6.79899995E-03
 -3.37564195E-02 -7.54556915E-04  8.68607970E-03 -6.12722022E-04 -3.06860398E-04
  3.03716771E-02  2.11732946E-02  1.01777305E-02  3.60429709E-02 -1.18179186E-01
 -4.06057658E-02  1.85993345E-02 -1.21231762E-04  9.02604500E-02 -4.44835704E-03
  1.13082291E-04  1.15005903E-02 -7.52476967E-05  8.15084288E-05  8.61620793E-03
  5.88060916E-03 -1.27495077E-03 -4.12331565E-03  1.72667442E-02 -1.96373101E-02
 -1.54854533E-02 -1.87042981E-04  8.43605051E-02  4.35715646E-02 -1.83614444E-04
  6.03291224E-03 -4.93439622E-05  1.89606391E-05 -2.20083108E-02  4.60822039E-03
 -3.42238737E-04 -1.05282752E-03 -1.76118706E-03 -7.12831089E-03 -3.70912482E-03
  1.00974964E-04  1.31454972E-02 -1.75410115E-02  1.30634800E-05 -8.87921254E-03
  1.14084766E-05  2.84236420E-05 -8.75539345E-03  9.35709295E-03 -1.43563557E-03
 -5.03169234E-03  1.04996607E-02 -1.93090280E-02  2.54131927E-03  1.04137179E-03
  6.61165323E-03  2.57314114E-03  7.52699678E-04  1.38437672E-03 -3.72087487E-04
  3.36722145E-04 -5.57963551E-03  1.02027404E-02 -6.95738550E-03  3.40413776E-03
 -5.18344145E-04  1.04195055E-03 -1.39080457E-04  9.48362312E-04 -1.39110599E-02
 -6.97288759E-05  4.06273968E-03  1.57166605E-03 -5.87559143E-03 -2.07874459E-02
  8.97372573E-02 -8.58857123E-03 -1.09338687E-02 -2.12192192E-04  4.61975585E-03
  6.23463010E-03 -9.53618760E-05 -3.15946395E-03  1.21253596E-06 -3.88573149E-06
 -3.19869590E-03 -3.32876045E-04  1.26987241E-03  3.87423488E-03 -1.04461357E-02
  4.70895223E-03 -7.66363546E-04  4.08480980E-05 -1.92924301E-03 -7.53886201E-04
 -4.09669046E-08  2.55201455E-03  3.24823344E-07 -1.12813320E-05 -4.60451820E-04
 -9.24976483E-05  2.95756020E-03  4.43274390E-02  1.93825068E-02  4.98436817E-03
  2.21490117E-05 -2.08033421E-03  1.62365132E-03 -5.23092341E-03  9.54053233E-04
 -1.10413213E-04 -2.75018369E-02 -3.99737526E-02 -3.53027944E-03  2.57944714E-02
  3.87930960E-05  1.38043224E-04 -4.12240792E-04 -7.46196568E-05 -4.33532934E-05
 -2.51373738E-03 -7.73163812E-05 -1.26165270E-03  1.80140307E-03  2.10129514E-04
  1.74279880E-03  7.42021620E-03  2.42637979E-04  4.16081609E-05  2.93446863E-05
  1.02528021E-04 -2.84746481E-04 -3.99057156E-05  2.64985145E-05 -1.15969868E-02
  8.36234913E-04 -1.21142480E-03 -1.48546999E-03 -1.65299331E-04  7.43674587E-04
 -5.35062821E-04  1.48204623E-04 -2.41451766E-06 -7.88846097E-06 -3.92967118E-05
  4.42749207E-04  2.42402802E-04  5.18642839E-04  4.88632810E-03 -1.01526669E-03
  2.61369923E-03 -1.58173470E-04  4.73333467E-04  4.09864013E-03  2.21155990E-03
 -5.87380148E-04 -3.34074234E-04  1.97383764E-04  5.95204347E-04 -1.58261355E-03
 -2.04049435E-03 -5.94945062E-05  2.57142857E-02  5.32723810E-03  1.18223385E-03
  7.30266059E-03  2.13972523E-04 -7.41565127E-03  6.86184243E-03 -1.40464046E-04
  3.13582075E-04  1.36710196E-05  1.76080499E-05  4.07526293E-04  4.08574976E-04
 -3.77992456E-05  5.85648176E-02 -2.99629094E-03 -1.32813336E-03  8.40483730E-03
  4.76246253E-04 -2.92307306E-03 -1.83080154E-03 -6.65309593E-04  4.81118274E-04
  2.34995656E-05  1.12118656E-04 -5.60286471E-04 -6.92496086E-05  2.48200378E-06
  4.26828236E-02 -9.08544750E-04 -2.97154397E-04  6.44109707E-03 -9.32623570E-05
  8.01330062E-03  1.34497363E-03  2.35328205E-04  7.88783367E-05  2.35066769E-05
  7.96129658E-05 -1.26201090E-04 -1.17291580E-04  8.33068992E-05 -8.26275703E-03
 -6.13526992E-05  2.47241826E-04 -3.32998127E-03  8.27235293E-05 -1.74886934E-03
 -1.11791696E-03 -2.69901509E-05 -1.62938913E-04 -4.94429514E-04 -1.77108829E-03
  3.86386290E-03  5.05843539E-03  1.86812897E-03 -2.32426116E-02  1.66199889E-03
  6.53583834E-04 -1.23762784E-02 -7.75291057E-04 -2.85346205E-03  8.49676427E-05
 -2.53779394E-04  1.86406255E-04 -4.97286644E-04  7.50484225E-04 -2.58399668E-04
  8.77571397E-04 -6.36680871E-04  1.43279452E-03  9.14012445E-04 -2.63049853E-04
 -9.03554013E-04 -1.15926959E-03  7.95009630E-05  2.80068797E-04 -1.19533222E-03
  1.56431856E-04  1.57305136E-04  9.40226707E-03 -8.19816885E-05 -6.76787564E-05
  5.09053513E-03  4.97651217E-05  2.35094381E-05 -2.43530700E-04  3.84691738E-05
 -3.31039716E-05 -3.42959090E-05 -1.16866250E-04  4.50909601E-04 -1.34798166E-05
  6.49066561E-05  9.95304253E-04  6.28831396E-05  4.53794820E-06  1.31874881E-03
 -4.78603043E-05  1.81298852E-05  5.22377426E-04  1.06184242E-05  3.72329697E-05
 -9.01815608E-05 -6.24939650E-05 -1.55394419E-04 -2.28642881E-05 -4.67796532E-04
 -1.37293085E-04  1.75681852E-03  6.82226234E-05  1.16704746E-04  1.05802312E-03
  1.48576319E-04  1.77596698E-03  2.47071935E-04 -2.08097777E-04  7.06189504E-03
  2.08376774E-03  7.93149940E-03 -4.26979743E-02 -1.98134075E-02 -4.65710604E-02
  1.51342828E-04 -4.99988991E-02  3.97450452E-02  3.52502521E-04 -1.50163597E-02
  4.35377144E-05  1.53405311E-04 -7.37918966E-02 -1.12017155E-02 -2.25573095E-03
 -7.82540126E-03  2.45037952E-02 -6.93282382E-03  2.87424368E-02 -1.42035677E-04
  3.34098570E-02  5.29605406E-03 -3.88698171E-04  2.21005545E-03 -1.44999662E-04
 -2.71961349E-05  4.60773344E-03  9.45628848E-03 -1.33538388E-03 -4.84867026E-03
  1.67349876E-02 -7.32473952E-03  5.56512964E-03 -1.85964922E-04  1.28190380E-02
 -2.96784825E-03  1.16506682E-03 -1.13120751E-02  1.27042080E-04  2.59798309E-04
  4.44850846E-03  1.24183365E-02 -3.00857764E-03 -1.05659308E-02  3.73634435E-02
 -2.12053806E-02  3.07035396E-02  2.59259594E-05  1.52916153E-02 -1.48621154E-02
 -2.35315027E-03  2.52915359E-03 -9.83359853E-05  2.32911556E-04  9.22159410E-03
  3.12627404E-03  2.43729580E-03  9.25537336E-03 -4.74384003E-02  3.61525239E-02
 -1.88688038E-02 -2.93789950E-04  5.86373626E-03  8.93256501E-02  1.15912363E-03
 -1.77396035E-02  1.03333647E-04 -2.01672022E-04  2.17224121E-02 -6.82610391E-02
 -1.90534163E-02 -6.64525899E-02  2.18006450E-01 -1.55283177E-01  2.71730706E-01
  7.63312493E-04  6.70467158E-02 -1.07191273E-01 -5.75851451E-04 -2.47599895E-02
 -2.57199473E-04  2.25464705E-04 -3.19963064E-02 -7.27111560E-02  7.80203385E-04
  2.90583336E-03 -7.94014966E-03 -2.24630654E-02 -9.08912149E-03 -3.09633144E-05
 -3.28140200E-03 -1.83232775E-02 -9.46543683E-05  4.63675080E-04  2.66324921E-05
 -1.81970459E-05  2.53508431E-03 -6.09289327E-03  4.89607698E-04  1.64970783E-03
 -3.10145704E-03  7.73060451E-03 -3.98978756E-04 -1.03285079E-04  3.21910742E-02
  8.16912378E-04  4.90861296E-03 -5.47262474E-03  1.07227146E-03 -4.28696535E-04
  3.81076095E-04 -6.41652258E-03  5.65191841E-03 -3.31609472E-02  4.85566657E-03
 -9.13705229E-03  7.01623123E-04 -1.01262419E-03 -3.40061675E-02  7.72837851E-03
  3.88164784E-03  1.08814849E-03 -1.15215398E-03 -4.28842918E-03  1.97390976E-02
  8.12744508E-03 -1.68198856E-03 -4.34948675E-05  3.66779622E-03  8.43486494E-04
  3.40692488E-06 -6.57974579E-05 -1.22223179E-06  8.05167018E-06 -1.08347009E-03
  1.27014210E-03  8.73766318E-05  2.54496993E-04 -1.37051345E-03 -7.43104751E-03
 -1.27155677E-02 -7.02435995E-05  4.88985362E-04 -8.28645051E-03 -1.71729334E-06
 -1.25896809E-03  1.00989468E-05 -1.93082336E-06  5.49527446E-04  3.04654557E-03
 -7.63637271E-03 -3.33062919E-02 -3.68646023E-03  2.18990510E-03  5.82827927E-05
  6.54020644E-03 -9.74198426E-03  7.42553130E-04 -2.98468836E-03 -9.69852243E-05
 -1.77442836E-02 -4.64860775E-02  2.09448353E-02 -1.05441386E-03 -8.41368490E-05
  2.14892627E-01  2.28557248E-03  6.89518197E-03 -1.52930181E-02 -3.06873660E-02
  3.42417265E-02 -1.39742886E-03 -3.63305502E-02 -6.03068607E-01 -2.07489791E-04
 -5.16863158E-03 -5.97886244E-05  7.01243701E-05 -2.97666958E-02  5.64634290E-02
  8.95446685E-03  3.48479164E-02 -1.20548193E-01 -4.10214621E-02  1.06513697E-02
 -9.21109322E-06  4.64739725E-01 -3.82517493E-01  7.54283667E-04  2.24750312E-02
  3.83485581E-04 -2.17810219E-04 -4.87331163E-02 -1.81775596E-03  1.19974712E-02
  4.55856850E-02 -1.57177938E-01  1.88656861E-02 -4.12568689E-02  1.35478698E-03
  4.39007043E-01  2.19874129E-01 -1.80363481E-03  2.76802258E-02 -2.75364284E-04
 -6.65034990E-04 -9.92183269E-03 -2.38590281E-02  1.02597398E-02  3.97647706E-02
 -1.37652111E-01  3.02022484E-02  2.60267570E-02 -3.12787615E-04 -5.79922428E-02
  3.87782280E-01  2.78437574E-03  4.53046180E-02 -9.72444027E-04  2.04859661E-04
  3.18572881E-02 -2.65789925E-02  1.05851047E-02  3.61473526E-02 -1.12466130E-01
 -5.48873328E-02 -3.92007681E-03  1.52609473E-03 -3.02312178E-01  3.49793751E-01
 -5.87349539E-04  1.38536931E-03 -3.29877388E-05  3.61776204E-04  5.36992147E-02
 -3.30616271E-02 -1.83017210E-02 -6.47537062E-02  2.19694444E-01 -1.04507417E-01
  1.64473600E-01  8.68206164E-04 -3.65957330E-01 -5.02019341E-01 -2.78991186E-04
  8.81818730E-03  3.64850066E-04 -1.80037414E-05 -3.16450799E-03 -3.53375483E-02
 -8.30369194E-04 -2.01515437E-03 -3.57142549E-03 -1.25307507E-02  3.17925361E-02
 -5.66367526E-04  1.45250846E-03  1.17164037E-01 -4.71472409E-04 -7.40391552E-03
 -3.16268660E-04 -1.87485364E-05 -1.25708834E-02 -7.16249466E-02  4.09829987E-03
  1.40697730E-02 -2.56950166E-02  3.03787683E-02  5.26748553E-03 -4.75897783E-03
  1.22175539E-03 -4.07787697E-02 -6.48095242E-03  9.38651630E-03 -1.01510899E-03
 -8.49589865E-04 -2.05183913E-02 -8.83603259E-03 -6.77464465E-03  6.52778073E-03
  3.73429870E-04 -5.51424873E-03  2.30662112E-03 -4.16855247E-03  5.28860322E-02
  5.63024975E-03 -1.16496829E-02 -2.20759703E-03  1.69003571E-02  6.29851830E-02
 -2.94649507E-01  5.85253806E-02  1.36805623E-02  7.89091690E-04 -1.32052347E-02
 -2.78034283E-02  4.44093511E-04  2.02061877E-02  2.16030048E-05  1.38308043E-05
  8.34810207E-03  7.33570693E-04 -2.78576132E-02 -9.67856592E-02  3.97131471E-01
 -9.73702485E-02  1.48341699E-02  1.11188717E-03  1.13896000E-02 -3.36280458E-02
  6.56026156E-04 -2.34283783E-02  6.74458271E-05  1.78900662E-05 -9.07113247E-03
  6.89357071E-03 -3.33077318E-02 -1.07890636E-01 -1.03513147E-01  2.60519974E-03
 -6.93611039E-05 -1.75683123E-02 -9.50774512E-03 -2.32955076E-02 -4.42733901E-02
 -1.04780242E-04 -5.61773782E-02 -5.55756093E-02  2.52454856E-02  1.50905349E-03
  4.11853198E-04  1.42245553E-01  3.16225952E-01  8.04123209E-03  2.71447048E-02
 -7.97452665E-02 -2.80338992E-02 -1.00308323E-02  9.22163230E-06  4.21673536E-02
 -4.93677910E-01 -4.05247567E-05  1.13827793E-02 -4.25331161E-05 -9.42797082E-06
  1.33392104E-02  3.88200771E-02  4.11707522E-03  1.47666491E-02 -3.97911003E-02
 -7.46900384E-04 -1.82902183E-02 -1.76104466E-05  3.41032626E-01 -3.25636422E-01
  1.79819525E-04  1.07037789E-03 -5.34126205E-06 -7.64680272E-05 -8.68799173E-03
  3.14608612E-03  2.19208400E-03  8.59107786E-03 -3.26746507E-02  6.35514847E-03
 -9.17302882E-03  1.76002727E-05  3.15828954E-01  2.10843412E-01 -2.13076963E-04
  7.12689503E-03 -9.45738239E-05 -7.64870672E-05 -1.30885826E-02 -4.63810870E-03
  1.08212234E-03  4.11166889E-03 -1.63303736E-02  2.19397970E-03  4.28459661E-03
 -1.00480127E-04 -1.89563090E-03  3.32404766E-01 -3.74358295E-04 -8.56056673E-04
 -6.40410088E-05  8.01679286E-05  1.42595034E-02 -2.32169496E-02 -3.55267565E-03
 -1.21517526E-02  3.56860773E-02 -7.96171304E-02 -1.94653773E-02  1.73104980E-04
 -2.83181382E-01  2.28460847E-01  7.81056423E-04 -5.05045559E-03  1.25919251E-04
 -1.89943932E-04  2.10091064E-02 -1.90653353E-02 -5.30111348E-03 -1.81068333E-02
  5.31408827E-02  6.77803475E-02  5.58277264E-02  2.52510126E-04 -3.52951753E-01
 -3.30209947E-01 -4.97836892E-04  9.10627486E-03 -2.78279800E-05 -1.92277033E-04
  4.20868952E-02 -1.25072041E-02  9.27951326E-04  3.10225005E-03 -1.07372584E-02
 -2.88908082E-03  3.02914175E-02 -1.36970505E-05  3.50638728E-03  9.29203559E-02
 -5.93777384E-05 -1.24485641E-02  2.83454115E-05 -1.19872148E-04 -2.62734140E-02
 -6.54291908E-02 -8.26639460E-04 -2.89319467E-03  6.70231272E-03  2.15338523E-03
 -5.88566790E-04  4.12455647E-04  1.08353230E-02 -3.67369860E-02  1.08215213E-03
  7.01725363E-04  5.84308959E-04 -6.54975520E-04 -1.85921597E-03 -4.20316921E-03
  1.52590690E-03 -2.63970074E-02 -7.07798045E-04 -7.04810217E-03  1.91122613E-03
  2.55135111E-03  1.21420945E-02  2.24149264E-03 -4.37574041E-03 -2.03112254E-03
  1.30157762E-02  4.60966188E-02 -1.94501346E-01  3.62259362E-02 -8.41778904E-03
  2.57048520E-04 -1.81973412E-02 -2.43322153E-02  1.01036695E-04  1.70600088E-02
 -6.21166181E-06  3.85761201E-05  6.10179018E-03  8.34642295E-04 -2.55798350E-02
 -9.08777589E-02  3.93362638E-01 -8.18241973E-02  3.25621913E-02 -2.55322081E-04
  9.56051969E-03 -2.65579866E-02 -1.64408496E-05 -1.88661129E-02  2.56570859E-05
  1.62436152E-05 -9.96012335E-03  2.39663661E-03 -3.65184392E-03 -1.03449176E-01
 -6.90903146E-02  2.66203501E-03  2.21082133E-05 -1.83205907E-03 -8.34698354E-04
 -1.91044173E-02 -1.93597375E-02 -1.90060216E-04 -2.50857972E-02 -2.93966956E-02
  1.22572116E-02 -1.32455497E-02  2.11282276E-04  2.12766225E-02  1.33072855E-01
  1.12176707E-01  6.02960625E-03  2.07342825E-02 -5.87257268E-02 -3.71184232E-02
 -6.07812246E-02  1.68677575E-04  7.12143560E-03 -5.47473083E-02 -2.48637512E-04
  1.14206019E-02 -1.87638961E-05 -3.42511756E-05  2.97843537E-02 -1.23500817E-02
 -2.26624667E-04 -1.63575407E-03  1.53210380E-02  2.29404284E-03 -1.72479675E-04
 -5.51141985E-05  8.23382534E-03 -3.90666957E-02  3.10762821E-04  8.62942087E-04
 -1.41546507E-06  3.99370380E-05  1.42627577E-02 -2.75681785E-03 -1.23886295E-03
 -5.00667229E-03  1.89315271E-02 -1.55751972E-03  3.75603356E-03 -1.93781229E-04
  2.19676138E-02  4.42629329E-02 -8.60884783E-04 -1.38314655E-03 -2.07326168E-04
 -1.61424082E-04 -5.15699222E-03 -1.23912699E-03 -2.17497289E-03 -8.39552599E-03
  3.17124788E-02 -1.28369533E-02  1.00717153E-02  4.12175176E-05 -3.31730662E-02
  7.27788425E-02  1.82001937E-03 -2.42353120E-03  4.70089707E-04 -1.59492565E-05
 -1.17512796E-02  6.64459491E-04 -8.98351761E-04 -2.73702996E-03  1.15470124E-02
  2.15749962E-02 -1.54769718E-02 -2.08190541E-04 -7.28747614E-02  4.79551918E-02
 -6.36023969E-04  7.55874325E-03 -1.16818326E-04  1.03189920E-04 -2.04413544E-02
 -2.55675255E-03  1.07847327E-02  3.83540166E-02 -1.26892721E-01  3.98718433E-02
  2.25657317E-02 -1.55817942E-05 -9.62620075E-02 -1.58957369E-02  3.29921882E-04
  1.61062422E-02 -2.16245599E-05 -1.06451768E-04  1.34256949E-02 -7.18074634E-03
 -2.73753952E-04 -1.17148049E-03  4.73045517E-03  1.81089127E-02  3.30420714E-03
  7.52413248E-05 -1.31610370E-02  4.59319291E-03  1.16059236E-04  4.00062686E-03
  5.89638385E-05 -1.83784151E-05 -7.24052715E-03 -1.57021354E-02 -3.01365266E-04
 -9.55727335E-04  6.91140287E-04  4.72420966E-04 -2.53415326E-03  5.40110058E-04
 -3.09579445E-02 -1.10363824E-02 -3.58031278E-03  1.11206946E-03 -7.98670768E-04
 -3.34555957E-04  5.22394765E-03 -1.27783517E-03  1.80407864E-03  2.28168482E-02
 -4.47266768E-03  4.65547369E-03 -4.80029776E-04 -1.34661308E-03  3.34416575E-02
 -5.19932816E-03 -8.00841336E-03 -1.45444975E-03  3.73729452E-03  1.29625966E-02
 -5.41896588E-02 -5.14555980E-03  6.34448810E-03 -5.66739915E-06 -1.02295148E-02
 -3.50360007E-03 -2.20207910E-05  2.14084931E-03 -4.81117203E-06  4.86451524E-06
  2.31994169E-03 -4.47615380E-04 -3.54344254E-03 -1.23333495E-02  5.10966602E-02
  7.39985542E-03  2.07724332E-02 -2.35416341E-04  1.23190842E-02  6.47845036E-03
 -1.11353887E-04 -3.39823624E-03 -5.26036868E-07  1.06741521E-05  1.63131772E-03
 -4.39134179E-04 -2.16292136E-03 -2.55686941E-03 -2.60292454E-03  9.10757216E-04
 -8.53504443E-05  1.50337900E-03  2.24643762E-02 -3.74373634E-03  4.99878294E-03
  1.78492999E-05 -3.31605444E-03  3.27547989E-03  1.04562344E-02 -8.38756832E-03
  9.89003950E-05 -2.77236372E-02 -2.10006357E-02  1.19837737E-02  2.67319957E-02
 -2.42418195E-05 -8.42435618E-05  2.37653358E-04  1.75022481E-04 -9.58887980E-05
  2.48490589E-02  3.85911673E-04 -2.47017183E-04  1.14436016E-03  7.97353531E-06
  1.50618447E-03  6.34377673E-03 -2.24822600E-05 -3.24140597E-05 -3.49265237E-05
 -1.33508272E-04  4.82055247E-04  1.22726989E-04  1.04419533E-04 -5.48911034E-03
  4.79168148E-04 -3.27572067E-04  8.95737462E-04 -1.22848820E-04 -3.08435811E-03
  2.59826653E-03  7.51865195E-05 -1.10484325E-04 -9.42129626E-06 -4.09663110E-05
  1.63176541E-04 -2.45510523E-04 -1.46334722E-04 -9.40448419E-03  4.51888294E-05
  6.98585423E-04 -1.91842606E-03 -6.07383345E-05  1.87878035E-03  9.39798195E-04
 -1.70431123E-05 -4.46909592E-05 -1.08957874E-05 -3.93574510E-05  5.36968913E-05
  2.18217560E-05  1.72372068E-04  1.14166107E-02  1.14967759E-03  1.86229740E-04
  2.41235438E-03  6.51568208E-06 -2.77207993E-03  6.69903685E-03  2.29239802E-05
 -2.17324989E-04 -3.58843231E-05 -1.24323884E-04  3.90845313E-04  5.85014176E-05
 -1.61595943E-04  4.29377332E-02 -1.59937125E-04 -5.00963304E-05  6.63915679E-03
 -2.64587116E-05 -5.01153491E-03 -4.73172883E-04  1.21052690E-07  2.36361823E-05
 -1.01622657E-05 -3.70376788E-05  8.17403689E-05  1.24111814E-04 -2.44615844E-04
  4.82550113E-02  4.06384388E-05 -1.08263569E-04  8.96671348E-03 -1.02183767E-04
  4.08957774E-03 -2.31503885E-03  7.66862470E-05  4.27700550E-05 -4.11329346E-06
 -1.32567630E-05 -2.69661515E-05 -3.79994748E-05  6.88933796E-06  3.76360313E-03
  1.88681741E-04  2.08424769E-05  3.07618858E-03 -1.39949322E-04  3.34524588E-03
  2.77786252E-03 -9.09094568E-05 -5.01775922E-05 -2.95197268E-05 -1.02208567E-04
  2.37023958E-04  3.14909617E-05 -6.98153993E-04 -5.32933304E-03  4.70084944E-04
 -1.01695624E-04 -2.29866203E-03 -1.68681066E-04 -1.36058081E-03 -4.96598475E-05
  1.83208294E-05 -1.48799053E-04 -1.96968504E-04 -3.58655124E-04 -7.16987704E-05
 -3.03600306E-05  2.59370706E-04 -6.09286643E-04 -5.09435144E-04  9.01582406E-05
  1.05289594E-05 -1.07727424E-04 -2.52400799E-05 -9.64585517E-05  4.91185320E-04
 -6.20564448E-05 -1.00029043E-04 -1.54485952E-02 -2.75937772E-05  4.30745613E-05
 -5.94190899E-03  8.13643009E-06 -2.66830195E-04 -3.83410108E-04 -2.87633443E-05
  1.40062694E-05 -4.62218540E-05 -1.69021036E-04  7.89774013E-04 -1.23779242E-04
  1.19375316E-04  8.05140323E-03 -5.76355226E-06 -6.33478421E-05  2.79043948E-03
 -6.87322428E-06 -6.52326601E-06 -5.76147180E-04 -3.50902317E-05 -1.42610578E-05
  5.32152849E-05 -7.45387036E-05  5.30548442E-06  8.84622804E-05 -4.95442703E-04
  7.65950476E-05  1.67154097E-04 -9.52135081E-05 -2.26172946E-05 -4.67942140E-04
  7.60475494E-05 -1.02329343E-04  2.61209858E-05 -2.89585447E-05  5.22686382E-03
 -5.19996555E-06 -6.32698694E-05  6.51300591E-05 -2.04332219E-05  5.79251287E-03
QEq coupling tensors                       R   N=          96
 -2.83105229E-01 -6.69205052E-02  1.98803132E-01  6.63853868E-03 -2.89522571E-03
  8.43020977E-02  1.77554683E-01  5.15950527E-02  1.66351656E-01 -7.39358656E-03
 -1.64832123E-02 -3.43906339E-01  1.07441480E-01 -2.91818803E-02  4.03229595E-02
 -7.20029095E-04 -4.55291169E-03 -1.47764440E-01  4.24442711E-02 -3.69462146E-02
  3.03838954E-01 -1.86160144E-02 -2.26740569E-02 -3.46283225E-01  8.75228331E-02
  4.21848982E-02  6.00469597E-02 -2.43578867E-03 -8.10529232E-03 -1.47569793E-01
  2.03439686E-01 -4.17676304E-02  1.40339729E-01 -4.39854538E-03 -1.59826268E-02
 -3.43779416E-01  3.42306600E-01  9.54480909E-02 -3.41589359E-01 -7.90310647E-03
  9.54059793E-03 -7.17241418E-04 -6.70212540E-01 -2.49212501E-02 -4.52780883E-01
  1.55416707E-01  7.03947923E-02  1.12299342E+00 -5.14962762E-02  3.17092000E-01
 -2.00185763E-01  6.16136150E-02 -6.64989374E-02  2.51682039E-01  1.00609121E-01
 -2.31116930E-01 -3.41077063E-01  5.45547630E-02  1.14948496E-01  2.40467942E-01
  1.65733739E+00 -1.45280428E+00 -1.47909469E+00  2.27977920E-02  6.02077484E-02
 -1.78242699E-01  6.76505111E-01  2.05447239E+00 -5.01960758E-01 -7.55984475E-02
 -1.58524990E-02 -1.74544353E-01  9.83236111E-02 -1.76713627E-01 -2.67472082E-01
  6.34716711E-03  1.55339425E-02  1.69148471E-01 -2.91765626E-02  2.39338742E-01
 -1.49674284E-01 -4.55792339E-03  7.75596594E-03  1.78850847E-01  8.58552295E-02
 -1.73610403E-01 -2.64272183E-01  7.41291323E-03  1.66692708E-02  1.78416954E-01
 -1.90521082E-02  2.45886302E-01 -1.50464890E-01 -6.38808215E-03  8.38175568E-03
  1.69516998E-01
Mulliken Charges                           R   N=          16
  8.95824497E-01 -6.34424888E-02  8.09620731E-02  2.00681569E-01  7.99412257E-02
 -6.53661549E-02  7.69539303E-02 -1.82227676E-02  2.25377746E-01  2.25531361E-01
 -6.00947985E-01 -6.00929139E-01 -4.41505795E-02 -1.73992564E-01 -1.73962425E-01
 -4.42582969E-02
ONIOM Charges                              I   N=          16
           0           0           0           0           0           0
           0           0           0           0           0           0
           0           0           0           0
ONIOM Multiplicities                       I   N=          16
           1           0           0           0           0           0
           0           0           0           0           0           0
           0           0           0           0
Atom Layers                                I   N=          16
           1           1           1           1           1           1
           1           1           1           1           1           1
           1           1           1           1
Atom Modifiers                             I   N=          16
           0           0           0           0           0           0
           0           0           0           0           0           0
           0           0           0           0
Force Field                                I                0
Int Atom Modified Types                    I   N=          16
           0           0           0           0           0           0
           0           0           0           0           0           0
           0           0           0           0
Link Atoms                                 I   N=          16
           0           0           0           0           0           0
           0           0           0           0           0           0
           0           0           0           0
Atom Modified MM Charges                   R   N=          16
  0.00000000E+00  0.00000000E+00  0.00000000E+00  0.00000000E+00  0.00000000E+00
  0.00000000E+00  0.00000000E+00  0.00000000E+00  0.00000000E+00  0.00000000E+00
  0.00000000E+00  0.00000000E+00  0.00000000E+00  0.00000000E+00  0.00000000E+00
  0.00000000E+00
Link Distances                             R   N=          64
  0.00000000E+00  0.00000000E+00  0.00000000E+00  0.00000000E+00  0.00000000E+00
  0.00000000E+00  0.00000000E+00  0.00000000E+00  0.00000000E+00  0.00000000E+00
  0.00000000E+00  0.00000000E+00  0.00000000E+00  0.00000000E+00  0.00000000E+00
  0.00000000E+00  0.00000000E+00  0.00000000E+00  0.00000000E+00  0.00000000E+00
  0.00000000E+00  0.00000000E+00  0.00000000E+00  0.00000000E+00  0.00000000E+00
  0.00000000E+00  0.00000000E+00  0.00000000E+00  0.00000000E+00  0.00000000E+00
  0.00000000E+00  0.00000000E+00  0.00000000E+00  0.00000000E+00  0.00000000E+00
  0.00000000E+00  0.00000000E+00  0.00000000E+00  0.00000000E+00  0.00000000E+00
  0.00000000E+00  0.00000000E+00  0.00000000E+00  0.00000000E+00  0.00000000E+00
  0.00000000E+00  0.00000000E+00  0.00000000E+00  0.00000000E+00  0.00000000E+00
  0.00000000E+00  0.00000000E+00  0.00000000E+00  0.00000000E+00  0.00000000E+00
  0.00000000E+00  0.00000000E+00  0.00000000E+00  0.00000000E+00  0.00000000E+00
  0.00000000E+00  0.00000000E+00  0.00000000E+00  0.00000000E+00
Cartesian Gradient                         R   N=          48
  0.00000000E+00  0.00000000E+00  0.00000000E+00  0.00000000E+00  0.00000000E+00
  0.00000000E+00  0.00000000E+00  0.00000000E+00  0.00000000E+00  0.00000000E+00
  0.00000000E+00  0.00000000E+00  0.00000000E+00  0.00000000E+00  0.00000000E+00
  0.00000000E+00  0.00000000E+00  0.00000000E+00  0.00000000E+00  0.00000000E+00
  0.00000000E+00  0.00000000E+00  0.00000000E+00  0.00000000E+00  0.00000000E+00
  0.00000000E+00  0.00000000E+00  0.00000000E+00  0.00000000E+00  0.00000000E+00
  0.00000000E+00  0.00000000E+00  0.00000000E+00  0.00000000E+00  0.00000000E+00
  0.00000000E+00  0.00000000E+00  0.00000000E+00  0.00000000E+00  0.00000000E+00
  0.00000000E+00  0.00000000E+00  0.00000000E+00  0.00000000E+00  0.00000000E+00
  0.00000000E+00  0.00000000E+00  0.00000000E+00
Dipole Moment                              R   N=           3
  4.93693379E+00  3.70594383E-04  2.03336418E-01
Polarizability                             R   N=           6
  2.59552125E+02 -3.69346798E-03  1.29025280E+02 -1.04367144E+00 -1.44384909E-03
  6.57375319E+01
HyperPolarizability                        R   N=          10
 -5.86188691E+03 -1.76574640E-01  5.57500211E+02  1.71683279E-01  6.48882528E+01
 -2.14838014E-02  1.86002629E+00  9.94112575E+01  2.48510954E-02  5.46233217E+00
Quadrupole Moment                          R   N=           6
 -1.47894398E+00  3.23293825E+00 -1.75399427E+00 -1.32024078E-03  1.56423513E+00
  6.62072440E-03
NFreq for FD properties                    I                2
Frequencies for FD properties              R   N=           2
  0.00000000E+00  2.38926862E-02
Alpha(-w,w)                                R   N=          18
  2.59552125E+02 -3.69346798E-03 -1.04367144E+00 -3.69346798E-03  1.29025280E+02
 -1.44384909E-03 -1.04367144E+00 -1.44384909E-03  6.57375319E+01  2.09199036E+02
 -3.22084206E-03 -6.96245867E-01 -3.22084206E-03  1.06452194E+02 -5.42539232E-04
 -6.96245867E-01 -5.42539232E-04  5.46228926E+01
Beta(-w,w,0)                               R   N=          36
 -5.86188691E+03 -1.76574640E-01  5.57500211E+02  6.48882528E+01 -2.14838014E-02
  9.94112575E+01 -1.76574640E-01  5.57500211E+02  1.71683279E-01 -2.14838014E-02
  1.86002629E+00  2.48510954E-02  6.48882528E+01 -2.14838014E-02  1.86002629E+00
  9.94112575E+01  2.48510954E-02  5.46233217E+00 -3.83891246E+03 -1.17904335E-01
  3.84108282E+02  4.25565582E+01 -1.38498587E-02  7.64177265E+01 -1.22484525E-01
  3.87131934E+02  1.26277292E-01 -9.63636533E-03  1.86090879E+00  1.86739626E-02
  4.48113112E+01 -1.07539754E-02  1.71342858E+00  7.25274525E+01  1.87286949E-02
  4.03546509E+00
NFreq for DFD properties                   I                2
NDeriv for DFD properties                  I                3
Frequencies for DFD properties             R   N=           2
  0.00000000E+00  2.38926862E-02
Derivative Alpha(-w,w)                     R   N=          54
 -5.86153361E+03 -1.73473293E-01  6.49224405E+01 -1.73473293E-01  5.57493720E+02
 -2.17439425E-02  6.49224405E+01 -2.17439425E-02  9.97218282E+01 -1.97401727E-01
  5.57500195E+02 -2.13395293E-02  5.57500195E+02  1.72435532E-01  1.84531402E+00
 -2.13395293E-02  1.84531402E+00  2.58446312E-02  6.49625945E+01 -1.60342536E-02
  9.97198731E+01 -1.60342536E-02  1.85383944E+00  2.52545583E-02  9.97198731E+01
  2.52545583E-02  5.47053718E+00 -3.85173467E+03 -1.15885051E-01  4.33900640E+01
 -1.15885051E-01  3.83531046E+02 -1.43215041E-02  4.33900640E+01 -1.43215041E-02
  7.42268753E+01 -1.36728911E-01  3.86598364E+02 -9.93824409E-03  3.86598364E+02
  1.24462557E-01  1.75844701E+00 -9.93824409E-03  1.75844701E+00  1.84217846E-02
  4.56122727E+01 -7.41357615E-03  7.04306993E+01 -7.41357615E-03  1.61627009E+00
  1.81274948E-02  7.04306993E+01  1.81274948E-02  4.07883203E+00
Derivative Beta(-w,w,0)                    R   N=         108
  7.25610838E+04  1.57407048E+04 -1.14078499E+04 -1.43801244E+03  2.17870572E+02
 -7.16275521E+02  1.57407048E+04 -1.14078499E+04 -8.20050820E+03  2.17870572E+02
  1.18408148E+02 -5.62887489E+02 -1.43801244E+03  2.17870572E+02  1.18408148E+02
 -7.16275521E+02 -5.62887489E+02 -1.77050259E+02  1.57441248E+04 -1.14118281E+04
 -8.20169808E+03  2.17985491E+02  1.18456616E+02 -5.62897549E+02 -1.14118281E+04
 -8.20169808E+03  1.79798915E+04  1.18456616E+02 -2.88443096E+02  3.28184500E+03
  2.17985491E+02  1.18456616E+02 -2.88443096E+02 -5.62897549E+02  3.28184500E+03
 -2.56764764E+02 -1.43595909E+03  2.18525332E+02  1.18409616E+02 -7.16257444E+02
 -5.62831493E+02 -1.77095099E+02  2.18525332E+02  1.18409616E+02 -2.88539001E+02
 -5.62831493E+02  3.28144081E+03 -2.56752648E+02 -7.16257444E+02 -5.62831493E+02
  3.28144081E+03 -1.77095099E+02 -2.56752648E+02  2.52236169E+03  1.09024108E+04
  5.14062679E+03 -8.83180673E+03 -7.14080118E+02  1.95075369E+02 -5.60651039E+02
  5.09027546E+03 -7.23600848E+03 -5.41118680E+03  1.58568066E+02  6.54046353E+01
 -4.11843506E+02 -6.93401779E+02  1.61544175E+02  7.45350513E+01 -1.24880192E+02
 -3.53111078E+02 -1.52418083E+02  5.09508758E+03 -7.24242006E+03 -5.41309787E+03
  1.61496772E+02  6.55493910E+01 -4.11992743E+02 -8.47104724E+03 -5.36194556E+03
  1.26064460E+04  7.42786510E+01 -1.98765642E+02  2.36729082E+03  1.83395616E+02
  6.29159000E+01 -2.05795935E+02 -3.52803728E+02  2.37851183E+03 -1.89271776E+02
 -6.42712413E+02  1.71526928E+02  7.59793793E+01 -3.75516137E+01 -3.40439691E+02
 -1.57554711E+02  1.90455164E+02  6.42968121E+01 -2.06000736E+02 -3.39986784E+02
  2.37381385E+03 -1.89587671E+02 -6.79072513E+02 -3.97509485E+02  2.14879314E+03
 -1.44573026E+02 -1.81206583E+02  1.80956106E+03
Derivative Beta(w,w,-2w)                   R   N=         108
  7.25610838E+04  1.57407048E+04 -1.14078499E+04 -1.43801244E+03  2.17870572E+02
 -7.16275521E+02  1.57407048E+04 -1.14078499E+04 -8.20050820E+03  2.17870572E+02
  1.18408148E+02 -5.62887489E+02 -1.43801244E+03  2.17870572E+02  1.18408148E+02
 -7.16275521E+02 -5.62887489E+02 -1.77050259E+02  1.57441248E+04 -1.14118281E+04
 -8.20169808E+03  2.17985491E+02  1.18456616E+02 -5.62897549E+02 -1.14118281E+04
 -8.20169808E+03  1.79798915E+04  1.18456616E+02 -2.88443096E+02  3.28184500E+03
  2.17985491E+02  1.18456616E+02 -2.88443096E+02 -5.62897549E+02  3.28184500E+03
 -2.56764764E+02 -1.43595909E+03  2.18525332E+02  1.18409616E+02 -7.16257444E+02
 -5.62831493E+02 -1.77095099E+02  2.18525332E+02  1.18409616E+02 -2.88539001E+02
 -5.62831493E+02  3.28144081E+03 -2.56752648E+02 -7.16257444E+02 -5.62831493E+02
  3.28144081E+03 -1.77095099E+02 -2.56752648E+02  2.52236169E+03 -2.35847446E+03
  3.01819591E+03 -8.90707208E+03 -5.01287120E+02  2.18769499E+02 -4.41307007E+02
  2.98414817E+03 -6.62482064E+03 -4.88078554E+03  1.57651620E+02  6.71403354E+01
 -3.48883359E+02 -4.81709516E+02  1.60110928E+02  8.08198898E+01 -9.54892705E+01
 -2.98513048E+02 -1.39982442E+02  2.94893621E+03 -6.49219747E+03 -4.84410705E+03
  1.49036384E+02  6.26570249E+01 -3.48603645E+02 -8.51888905E+03 -4.80844841E+03
  1.06974432E+04  7.59993237E+01 -1.69775435E+02  2.03539710E+03  2.13845617E+02
  6.53424676E+01 -1.69788758E+02 -2.98155088E+02  2.01471613E+03 -1.63424094E+02
 -4.41415564E+02  1.57190691E+02  7.48204588E+01 -2.51613517E+02 -3.08278776E+02
 -1.38700590E+02  2.19328263E+02  6.51938802E+01 -1.75584861E+02 -3.08240817E+02
  1.93107811E+03 -1.58170329E+02 -2.98419657E+02 -3.14795962E+02  1.93586581E+03
 -1.33528569E+02 -1.56795278E+02  1.51190238E+03
