Polar                                                                   
SP        RB3LYP                                                      Gen                 
Number of atoms                            I               16
Info1-9                                    I   N=           9
         123         121           0           0           0         110
           1          18        -502
Charge                                     I                0
Multiplicity                               I                1
Number of electrons                        I               72
Number of alpha electrons                  I               36
Number of beta electrons                   I               36
Number of basis functions                  I              170
Number of independent functions            I              170
Number of point charges in /Mol/           I                0
Number of translation vectors              I                0
Atomic numbers                             I   N=          16
           6           6           6           6           6           6
           7           7           1           1           8           8
           1           1           1           1
Nuclear charges                            R   N=          16
  6.00000000E+00  6.00000000E+00  6.00000000E+00  6.00000000E+00  6.00000000E+00
  6.00000000E+00  7.00000000E+00  7.00000000E+00  1.00000000E+00  1.00000000E+00
  8.00000000E+00  8.00000000E+00  1.00000000E+00  1.00000000E+00  1.00000000E+00
  1.00000000E+00
Current cartesian coordinates              R   N=          48
 -1.34381938E+00  8.21720526E-04  2.61159356E-04 -2.77911747E-02 -2.28696630E+00
  1.68493597E-03  2.56210006E+00 -2.29055533E+00  1.25731370E-03  3.92838544E+00
 -7.33421153E-05 -2.28454201E-03  2.56326380E+00  2.29109135E+00  1.49030750E-03
 -2.68539917E-02  2.28817910E+00  2.75444839E-03 -4.04632551E+00  6.02137296E-05
  5.71100436E-04  6.47690702E+00 -8.15294836E-04 -6.93185161E-02  7.43836574E+00
 -1.61331354E+00  2.13064713E-01  7.43923395E+00  1.61090973E+00  2.14890460E-01
 -5.17845518E+00 -2.05880276E+00  1.31351438E-03 -5.18075892E+00  2.05755682E+00
 -9.43914809E-04 -1.05726844E+00 -4.04554698E+00  5.28676577E-03  3.58089886E+00
 -4.06166211E+00  2.35423654E-03  3.58171468E+00  4.06237023E+00  3.17313237E-03
 -1.05501107E+00  4.04751254E+00  8.52406840E-03
Force Field                                I                0
Int Atom Types                             I   N=          16
           0           0           0           0           0           0
           0           0           0           0           0           0
           0           0           0           0
MM charges                                 R   N=          16
  0.00000000E+00  0.00000000E+00  0.00000000E+00  0.00000000E+00  0.00000000E+00
  0.00000000E+00  0.00000000E+00  0.00000000E+00  0.00000000E+00  0.00000000E+00
  0.00000000E+00  0.00000000E+00  0.00000000E+00  0.00000000E+00  0.00000000E+00
  0.00000000E+00
Integer atomic weights                     I   N=          16
          12          12          12          12          12          12
          14          14           1           1          16          16
           1           1           1           1
Real atomic weights                        R   N=          16
  1.20000000E+01  1.20000000E+01  1.20000000E+01  1.20000000E+01  1.20000000E+01
  1.20000000E+01  1.40030740E+01  1.40030740E+01  1.00782504E+00  1.00782504E+00
  1.59949146E+01  1.59949146E+01  1.00782504E+00  1.00782504E+00  1.00782504E+00
  1.00782504E+00
Atom fragment info                         I   N=          16
           0           0           0           0           0           0
           0           0           0           0           0           0
           0           0           0           0
Atom residue num                           I   N=          16
           0           0           0           0           0           0
           0           0           0           0           0           0
           0           0           0           0
Nuclear spins                              I   N=          16
           0           0           0           0           0           0
           2           2           1           1           0           0
           1           1           1           1
Nuclear ZEff                               R   N=          16
 -3.60000000E+00 -3.60000000E+00 -3.60000000E+00 -3.60000000E+00 -3.60000000E+00
 -3.60000000E+00 -4.55000000E+00 -4.55000000E+00 -1.00000000E+00 -1.00000000E+00
 -5.60000000E+00 -5.60000000E+00 -1.00000000E+00 -1.00000000E+00 -1.00000000E+00
 -1.00000000E+00
Nuclear ZNuc                               R   N=          16
  6.00000000E+00  6.00000000E+00  6.00000000E+00  6.00000000E+00  6.00000000E+00
  6.00000000E+00  7.00000000E+00  7.00000000E+00  1.00000000E+00  1.00000000E+00
  8.00000000E+00  8.00000000E+00  1.00000000E+00  1.00000000E+00  1.00000000E+00
  1.00000000E+00
Nuclear QMom                               R   N=          16
  0.00000000E+00  0.00000000E+00  0.00000000E+00  0.00000000E+00  0.00000000E+00
  0.00000000E+00  2.04400000E+00  2.04400000E+00  0.00000000E+00  0.00000000E+00
  0.00000000E+00  0.00000000E+00  0.00000000E+00  0.00000000E+00  0.00000000E+00
  0.00000000E+00
Nuclear GFac                               R   N=          16
  0.00000000E+00  0.00000000E+00  0.00000000E+00  0.00000000E+00  0.00000000E+00
  0.00000000E+00  4.03761000E-01  4.03761000E-01  2.79284600E+00  2.79284600E+00
  0.00000000E+00  0.00000000E+00  2.79284600E+00  2.79284600E+00  2.79284600E+00
  2.79284600E+00
MicOpt                                     I   N=          16
          -1          -1          -1          -1          -1          -1
          -1          -1          -1          -1          -1          -1
          -1          -1          -1          -1
Number of contracted shells                I               78
Number of primitive shells                 I              232
Pure/Cartesian d shells                    I                0
Pure/Cartesian f shells                    I                0
Highest angular momentum                   I                2
Largest degree of contraction              I                5
Shell types                                I   N=          78
           0           0           0           1           1          -2
           0           0           0           1           1          -2
           0           0           0           1           1          -2
           0           0           0           1           1          -2
           0           0           0           1           1          -2
           0           0           0           1           1          -2
           0           0           0           1           1          -2
           0           0           0           1           1          -2
           0           0           1           0           0           1
           0           0           0           1           1          -2
           0           0           0           1           1          -2
           0           0           1           0           0           1
           0           0           1           0           0           1
Number of primitives per shell             I   N=          78
           5           3           3           4           2           2
           5           3           3           4           2           2
           5           3           3           4           2           2
           5           3           3           4           2           2
           5           3           3           4           2           2
           5           3           3           4           2           2
           5           3           3           4           2           2
           5           3           3           4           2           2
           3           2           2           3           2           2
           5           3           3           4           2           2
           5           3           3           4           2           2
           3           2           2           3           2           2
           3           2           2           3           2           2
Shell to atom map                          I   N=          78
           1           1           1           1           1           1
           2           2           2           2           2           2
           3           3           3           3           3           3
           4           4           4           4           4           4
           5           5           5           5           5           5
           6           6           6           6           6           6
           7           7           7           7           7           7
           8           8           8           8           8           8
           9           9           9          10          10          10
          11          11          11          11          11          11
          12          12          12          12          12          12
          13          13          13          14          14          14
          15          15          15          16          16          16
Primitive exponents                        R   N=         232
  6.77990000E+03  1.01720000E+03  2.31570000E+02  6.55470000E+01  7.53390000E+00
  2.12530000E+01  7.53390000E+00  2.80310000E+00  5.21510000E-01  1.59570000E-01
  4.88250000E-02  1.87340000E+01  4.13620000E+00  1.20040000E+00  3.83460000E-01
  1.21290000E-01  3.83650000E-02  4.16900000E-01  1.08560900E-01  6.77990000E+03
  1.01720000E+03  2.31570000E+02  6.55470000E+01  7.53390000E+00  2.12530000E+01
  7.53390000E+00  2.80310000E+00  5.21510000E-01  1.59570000E-01  4.88250000E-02
  1.87340000E+01  4.13620000E+00  1.20040000E+00  3.83460000E-01  1.21290000E-01
  3.83650000E-02  4.16900000E-01  1.08560900E-01  6.77990000E+03  1.01720000E+03
  2.31570000E+02  6.55470000E+01  7.53390000E+00  2.12530000E+01  7.53390000E+00
  2.80310000E+00  5.21510000E-01  1.59570000E-01  4.88250000E-02  1.87340000E+01
  4.13620000E+00  1.20040000E+00  3.83460000E-01  1.21290000E-01  3.83650000E-02
  4.16900000E-01  1.08560900E-01  6.77990000E+03  1.01720000E+03  2.31570000E+02
  6.55470000E+01  7.53390000E+00  2.12530000E+01  7.53390000E+00  2.80310000E+00
  5.21510000E-01  1.59570000E-01  4.88250000E-02  1.87340000E+01  4.13620000E+00
  1.20040000E+00  3.83460000E-01  1.21290000E-01  3.83650000E-02  4.16900000E-01
  1.08560900E-01  6.77990000E+03  1.01720000E+03  2.31570000E+02  6.55470000E+01
  7.53390000E+00  2.12530000E+01  7.53390000E+00  2.80310000E+00  5.21510000E-01
  1.59570000E-01  4.88250000E-02  1.87340000E+01  4.13620000E+00  1.20040000E+00
  3.83460000E-01  1.21290000E-01  3.83650000E-02  4.16900000E-01  1.08560900E-01
  6.77990000E+03  1.01720000E+03  2.31570000E+02  6.55470000E+01  7.53390000E+00
  2.12530000E+01  7.53390000E+00  2.80310000E+00  5.21510000E-01  1.59570000E-01
  4.88250000E-02  1.87340000E+01  4.13620000E+00  1.20040000E+00  3.83460000E-01
  1.21290000E-01  3.83650000E-02  4.16900000E-01  1.08560900E-01  9.15560000E+03
  1.37360000E+03  3.12730000E+02  8.85470000E+01  1.02460000E+01  2.87560000E+01
  1.02460000E+01  3.84430000E+00  7.46500000E-01  2.24750000E-01  6.76660000E-02
  2.66670000E+01  5.95570000E+00  1.74400000E+00  5.56290000E-01  1.73150000E-01
  5.38940000E-02  6.67104000E-01  1.48097000E-01  9.15560000E+03  1.37360000E+03
  3.12730000E+02  8.85470000E+01  1.02460000E+01  2.87560000E+01  1.02460000E+01
  3.84430000E+00  7.46500000E-01  2.24750000E-01  6.76660000E-02  2.66670000E+01
  5.95570000E+00  1.74400000E+00  5.56290000E-01  1.73150000E-01  5.38940000E-02
  6.67104000E-01  1.48097000E-01  1.87358400E+01  2.82571200E+00  6.40137000E-01
  1.75608000E-01  4.81740000E-02  6.05839000E-01  1.25177000E-01  1.87358400E+01
  2.82571200E+00  6.40137000E-01  1.75608000E-01  4.81740000E-02  6.05839000E-01
  1.25177000E-01  1.18520000E+04  1.77820000E+03  4.04860000E+02  1.14660000E+02
  1.33340000E+01  3.72790000E+01  1.33340000E+01  5.03850000E+00  1.01360000E+00
  3.02500000E-01  9.02780000E-02  3.44930000E+01  7.75620000E+00  2.28200000E+00
  7.16910000E-01  2.14610000E-01  6.42440000E-02  1.37401000E+00  2.28450000E-01
  1.18520000E+04  1.77820000E+03  4.04860000E+02  1.14660000E+02  1.33340000E+01
  3.72790000E+01  1.33340000E+01  5.03850000E+00  1.01360000E+00  3.02500000E-01
  9.02780000E-02  3.44930000E+01  7.75620000E+00  2.28200000E+00  7.16910000E-01
  2.14610000E-01  6.42440000E-02  1.37401000E+00  2.28450000E-01  1.87358400E+01
  2.82571200E+00  6.40137000E-01  1.75608000E-01  4.81740000E-02  6.05839000E-01
  1.25177000E-01  1.87358400E+01  2.82571200E+00  6.40137000E-01  1.75608000E-01
  4.81740000E-02  6.05839000E-01  1.25177000E-01  1.87358400E+01  2.82571200E+00
  6.40137000E-01  1.75608000E-01  4.81740000E-02  6.05839000E-01  1.25177000E-01
  1.87358400E+01  2.82571200E+00  6.40137000E-01  1.75608000E-01  4.81740000E-02
  6.05839000E-01  1.25177000E-01
Contraction coefficients                   R   N=         232
  2.26362740E-03  1.73766691E-02  8.85810663E-02  3.34916989E-01  7.49227380E-01
  4.89058686E-01  1.34849886E-01  5.11182216E-01  5.06672273E-01  1.61744167E-01
  5.00681748E-01  1.85607174E-02  1.16521571E-01  3.80385846E-01  6.42426708E-01
  9.25948446E-01  1.05230571E-01  3.43790816E-01  7.89056784E-01  2.26362740E-03
  1.73766691E-02  8.85810663E-02  3.34916989E-01  7.49227380E-01  4.89058686E-01
  1.34849886E-01  5.11182216E-01  5.06672273E-01  1.61744167E-01  5.00681748E-01
  1.85607174E-02  1.16521571E-01  3.80385846E-01  6.42426708E-01  9.25948446E-01
  1.05230571E-01  3.43790816E-01  7.89056784E-01  2.26362740E-03  1.73766691E-02
  8.85810663E-02  3.34916989E-01  7.49227380E-01  4.89058686E-01  1.34849886E-01
  5.11182216E-01  5.06672273E-01  1.61744167E-01  5.00681748E-01  1.85607174E-02
  1.16521571E-01  3.80385846E-01  6.42426708E-01  9.25948446E-01  1.05230571E-01
  3.43790816E-01  7.89056784E-01  2.26362740E-03  1.73766691E-02  8.85810663E-02
  3.34916989E-01  7.49227380E-01  4.89058686E-01  1.34849886E-01  5.11182216E-01
  5.06672273E-01  1.61744167E-01  5.00681748E-01  1.85607174E-02  1.16521571E-01
  3.80385846E-01  6.42426708E-01  9.25948446E-01  1.05230571E-01  3.43790816E-01
  7.89056784E-01  2.26362740E-03  1.73766691E-02  8.85810663E-02  3.34916989E-01
  7.49227380E-01  4.89058686E-01  1.34849886E-01  5.11182216E-01  5.06672273E-01
  1.61744167E-01  5.00681748E-01  1.85607174E-02  1.16521571E-01  3.80385846E-01
  6.42426708E-01  9.25948446E-01  1.05230571E-01  3.43790816E-01  7.89056784E-01
  2.26362740E-03  1.73766691E-02  8.85810663E-02  3.34916989E-01  7.49227380E-01
  4.89058686E-01  1.34849886E-01  5.11182216E-01  5.06672273E-01  1.61744167E-01
  5.00681748E-01  1.85607174E-02  1.16521571E-01  3.80385846E-01  6.42426708E-01
  9.25948446E-01  1.05230571E-01  3.43790816E-01  7.89056784E-01  2.28777817E-03
  1.76059450E-02  8.97206917E-02  3.39055356E-01  7.44522591E-01  4.93471575E-01
  1.43060213E-01  4.96278419E-01  9.88246542E-01  8.02516465E-03  1.31721057E-02
  2.57651181E-02  1.62851962E-01  3.55251732E-01  6.38239802E-01  9.34869210E-01
  9.38504545E-02  2.92752760E-01  8.45538853E-01  2.28777817E-03  1.76059450E-02
  8.97206917E-02  3.39055356E-01  7.44522591E-01  4.93471575E-01  1.43060213E-01
  4.96278419E-01  9.88246542E-01  8.02516465E-03  1.31721057E-02  2.57651181E-02
  1.62851962E-01  3.55251732E-01  6.38239802E-01  9.34869210E-01  9.38504545E-02
  2.92752760E-01  8.45538853E-01  2.90966555E-02  2.09264994E-01  8.36043900E-01
  8.81146894E-01  1.52516984E-01  1.14643488E-01  9.38523049E-01  2.90966555E-02
  2.09264994E-01  8.36043900E-01  8.81146894E-01  1.52516984E-01  1.14643488E-01
  9.38523049E-01  2.30589061E-03  1.77882990E-02  9.06873835E-02  3.42622403E-01
  7.40520298E-01  5.00852235E-01  1.46856961E-01  4.83494475E-01  4.99340042E-01
  1.29877306E-01  5.48846215E-01  2.03245889E-02  1.28155678E-01  3.94358849E-01
  6.23519234E-01  9.48976657E-01  7.58447981E-02  2.47638038E-01  9.00635960E-01
  2.30589061E-03  1.77882990E-02  9.06873835E-02  3.42622403E-01  7.40520298E-01
  5.00852235E-01  1.46856961E-01  4.83494475E-01  4.99340042E-01  1.29877306E-01
  5.48846215E-01  2.03245889E-02  1.28155678E-01  3.94358849E-01  6.23519234E-01
  9.48976657E-01  7.58447981E-02  2.47638038E-01  9.00635960E-01  2.90966555E-02
  2.09264994E-01  8.36043900E-01  8.81146894E-01  1.52516984E-01  1.14643488E-01
  9.38523049E-01  2.90966555E-02  2.09264994E-01  8.36043900E-01  8.81146894E-01
  1.52516984E-01  1.14643488E-01  9.38523049E-01  2.90966555E-02  2.09264994E-01
  8.36043900E-01  8.81146894E-01  1.52516984E-01  1.14643488E-01  9.38523049E-01
  2.90966555E-02  2.09264994E-01  8.36043900E-01  8.81146894E-01  1.52516984E-01
  1.14643488E-01  9.38523049E-01
Coordinates of each shell                  R   N=         234
 -1.34381938E+00  8.21720526E-04  2.61159356E-04 -1.34381938E+00  8.21720526E-04
  2.61159356E-04 -1.34381938E+00  8.21720526E-04  2.61159356E-04 -1.34381938E+00
  8.21720526E-04  2.61159356E-04 -1.34381938E+00  8.21720526E-04  2.61159356E-04
 -1.34381938E+00  8.21720526E-04  2.61159356E-04 -2.77911747E-02 -2.28696630E+00
  1.68493597E-03 -2.77911747E-02 -2.28696630E+00  1.68493597E-03 -2.77911747E-02
 -2.28696630E+00  1.68493597E-03 -2.77911747E-02 -2.28696630E+00  1.68493597E-03
 -2.77911747E-02 -2.28696630E+00  1.68493597E-03 -2.77911747E-02 -2.28696630E+00
  1.68493597E-03  2.56210006E+00 -2.29055533E+00  1.25731370E-03  2.56210006E+00
 -2.29055533E+00  1.25731370E-03  2.56210006E+00 -2.29055533E+00  1.25731370E-03
  2.56210006E+00 -2.29055533E+00  1.25731370E-03  2.56210006E+00 -2.29055533E+00
  1.25731370E-03  2.56210006E+00 -2.29055533E+00  1.25731370E-03  3.92838544E+00
 -7.33421153E-05 -2.28454201E-03  3.92838544E+00 -7.33421153E-05 -2.28454201E-03
  3.92838544E+00 -7.33421153E-05 -2.28454201E-03  3.92838544E+00 -7.33421153E-05
 -2.28454201E-03  3.92838544E+00 -7.33421153E-05 -2.28454201E-03  3.92838544E+00
 -7.33421153E-05 -2.28454201E-03  2.56326380E+00  2.29109135E+00  1.49030750E-03
  2.56326380E+00  2.29109135E+00  1.49030750E-03  2.56326380E+00  2.29109135E+00
  1.49030750E-03  2.56326380E+00  2.29109135E+00  1.49030750E-03  2.56326380E+00
  2.29109135E+00  1.49030750E-03  2.56326380E+00  2.29109135E+00  1.49030750E-03
 -2.68539917E-02  2.28817910E+00  2.75444839E-03 -2.68539917E-02  2.28817910E+00
  2.75444839E-03 -2.68539917E-02  2.28817910E+00  2.75444839E-03 -2.68539917E-02
  2.28817910E+00  2.75444839E-03 -2.68539917E-02  2.28817910E+00  2.75444839E-03
 -2.68539917E-02  2.28817910E+00  2.75444839E-03 -4.04632551E+00  6.02137296E-05
  5.71100436E-04 -4.04632551E+00  6.02137296E-05  5.71100436E-04 -4.04632551E+00
  6.02137296E-05  5.71100436E-04 -4.04632551E+00  6.02137296E-05  5.71100436E-04
 -4.04632551E+00  6.02137296E-05  5.71100436E-04 -4.04632551E+00  6.02137296E-05
  5.71100436E-04  6.47690702E+00 -8.15294836E-04 -6.93185161E-02  6.47690702E+00
 -8.15294836E-04 -6.93185161E-02  6.47690702E+00 -8.15294836E-04 -6.93185161E-02
  6.47690702E+00 -8.15294836E-04 -6.93185161E-02  6.47690702E+00 -8.15294836E-04
 -6.93185161E-02  6.47690702E+00 -8.15294836E-04 -6.93185161E-02  7.43836574E+00
 -1.61331354E+00  2.13064713E-01  7.43836574E+00 -1.61331354E+00  2.13064713E-01
  7.43836574E+00 -1.61331354E+00  2.13064713E-01  7.43923395E+00  1.61090973E+00
  2.14890460E-01  7.43923395E+00  1.61090973E+00  2.14890460E-01  7.43923395E+00
  1.61090973E+00  2.14890460E-01 -5.17845518E+00 -2.05880276E+00  1.31351438E-03
 -5.17845518E+00 -2.05880276E+00  1.31351438E-03 -5.17845518E+00 -2.05880276E+00
  1.31351438E-03 -5.17845518E+00 -2.05880276E+00  1.31351438E-03 -5.17845518E+00
 -2.05880276E+00  1.31351438E-03 -5.17845518E+00 -2.05880276E+00  1.31351438E-03
 -5.18075892E+00  2.05755682E+00 -9.43914809E-04 -5.18075892E+00  2.05755682E+00
 -9.43914809E-04 -5.18075892E+00  2.05755682E+00 -9.43914809E-04 -5.18075892E+00
  2.05755682E+00 -9.43914809E-04 -5.18075892E+00  2.05755682E+00 -9.43914809E-04
 -5.18075892E+00  2.05755682E+00 -9.43914809E-04 -1.05726844E+00 -4.04554698E+00
  5.28676577E-03 -1.05726844E+00 -4.04554698E+00  5.28676577E-03 -1.05726844E+00
 -4.04554698E+00  5.28676577E-03  3.58089886E+00 -4.06166211E+00  2.35423654E-03
  3.58089886E+00 -4.06166211E+00  2.35423654E-03  3.58089886E+00 -4.06166211E+00
  2.35423654E-03  3.58171468E+00  4.06237023E+00  3.17313237E-03  3.58171468E+00
  4.06237023E+00  3.17313237E-03  3.58171468E+00  4.06237023E+00  3.17313237E-03
 -1.05501107E+00  4.04751254E+00  8.52406840E-03 -1.05501107E+00  4.04751254E+00
  8.52406840E-03 -1.05501107E+00  4.04751254E+00  8.52406840E-03
Constraint Structure                       R   N=          48
 -1.34381938E+00  8.21720526E-04  2.61159356E-04 -2.77911747E-02 -2.28696630E+00
  1.68493597E-03  2.56210006E+00 -2.29055533E+00  1.25731370E-03  3.92838544E+00
 -7.33421153E-05 -2.28454201E-03  2.56326380E+00  2.29109135E+00  1.49030750E-03
 -2.68539917E-02  2.28817910E+00  2.75444839E-03 -4.04632551E+00  6.02137296E-05
  5.71100436E-04  6.47690702E+00 -8.15294836E-04 -6.93185161E-02  7.43836574E+00
 -1.61331354E+00  2.13064713E-01  7.43923395E+00  1.61090973E+00  2.14890460E-01
 -5.17845518E+00 -2.05880276E+00  1.31351438E-03 -5.18075892E+00  2.05755682E+00
 -9.43914809E-04 -1.05726844E+00 -4.04554698E+00  5.28676577E-03  3.58089886E+00
 -4.06166211E+00  2.35423654E-03  3.58171468E+00  4.06237023E+00  3.17313237E-03
 -1.05501107E+00  4.04751254E+00  8.52406840E-03
Num ILSW                                   I              100
ILSW                                       I   N=         100
           0           0           0           0           2           0
           0           0           0           0         402          -1
           0           0           0           0           0           0
           0           0           0           0           0           0
           1           0           0           0           0           0
           0           0      100000           0          -1           0
           0           0           0           0           0           0
           0           0           0           1           0           0
           0           0           1           0           0           0
           0           0           4          41           0           0
           0           0           5           0           0           0
           0           0           0          16           0           0
           0           0           0           0           0           0
           0           0           0           0           0           0
           0           0           0           0           0           0
           0           0           0           0           0           0
           0           0           0           0
Num RLSW                                   I               41
RLSW                                       R   N=          41
  8.00000000E-01  7.20000000E-01  1.00000000E+00  8.10000000E-01  2.00000000E-01
  0.00000000E+00  0.00000000E+00  1.00000000E+00  0.00000000E+00  0.00000000E+00
  0.00000000E+00  0.00000000E+00  1.00000000E+00  0.00000000E+00  0.00000000E+00
  0.00000000E+00  0.00000000E+00  1.00000000E+00  0.00000000E+00  0.00000000E+00
  0.00000000E+00  0.00000000E+00  1.00000000E+00  0.00000000E+00  0.00000000E+00
  0.00000000E+00  0.00000000E+00  1.00000000E+00  0.00000000E+00  0.00000000E+00
  0.00000000E+00  0.00000000E+00  1.00000000E+00  0.00000000E+00  0.00000000E+00
  0.00000000E+00  0.00000000E+00  0.00000000E+00  1.00000000E+00  1.00000000E+00
  0.00000000E+00
MxBond                                     I                3
NBond                                      I   N=          16
           3           3           3           3           3           3
           3           3           1           1           1           1
           1           1           1           1
IBond                                      I   N=          48
           2           6           7           1           3          13
           2           4          14           3           5           8
           4           6          15           1           5          16
           1          11          12           4           9          10
           8           0           0           8           0           0
           7           0           0           7           0           0
           2           0           0           3           0           0
           5           0           0           6           0           0
RBond                                      R   N=          48
  1.50000000E+00  1.50000000E+00  1.00000000E+00  1.50000000E+00  1.50000000E+00
  1.00000000E+00  1.50000000E+00  1.50000000E+00  1.00000000E+00  1.50000000E+00
  1.50000000E+00  1.50000000E+00  1.50000000E+00  1.50000000E+00  1.00000000E+00
  1.50000000E+00  1.50000000E+00  1.00000000E+00  1.00000000E+00  2.00000000E+00
  2.00000000E+00  1.50000000E+00  1.00000000E+00  1.00000000E+00  1.00000000E+00
  0.00000000E+00  0.00000000E+00  1.00000000E+00  0.00000000E+00  0.00000000E+00
  2.00000000E+00  0.00000000E+00  0.00000000E+00  2.00000000E+00  0.00000000E+00
  0.00000000E+00  1.00000000E+00  0.00000000E+00  0.00000000E+00  1.00000000E+00
  0.00000000E+00  0.00000000E+00  1.00000000E+00  0.00000000E+00  0.00000000E+00
  1.00000000E+00  0.00000000E+00  0.00000000E+00
Virial Ratio                               R      1.950927674246118E+00
SCF Energy                                 R     -4.902759740171942E+02
Total Energy                               R     -4.902759740171942E+02
RMS Density                                R      5.158835232601586E-09
External E-field                           R   N=          35
  0.00000000E+00  0.00000000E+00  0.00000000E+00  0.00000000E+00  0.00000000E+00
  0.00000000E+00  0.00000000E+00  0.00000000E+00  0.00000000E+00  0.00000000E+00
  0.00000000E+00  0.00000000E+00  0.00000000E+00  0.00000000E+00  0.00000000E+00
  0.00000000E+00  0.00000000E+00  0.00000000E+00  0.00000000E+00  0.00000000E+00
  0.00000000E+00  0.00000000E+00  0.00000000E+00  0.00000000E+00  0.00000000E+00
  0.00000000E+00  0.00000000E+00  0.00000000E+00  0.00000000E+00  0.00000000E+00
  0.00000000E+00  0.00000000E+00  0.00000000E+00  0.00000000E+00  0.00000000E+00
IOpCl                                      I                0
IROHF                                      I                0
Alpha Orbital Energies                     R   N=         170
 -1.90237426E+01 -1.90231469E+01 -1.44387326E+01 -1.42032655E+01 -1.01761160E+01
 -1.01541685E+01 -1.01270866E+01 -1.01250945E+01 -1.01150136E+01 -1.01128998E+01
 -1.20852343E+00 -1.02891807E+00 -9.41083042E-01 -8.71251769E-01 -7.94788485E-01
 -7.66534585E-01 -6.92828816E-01 -6.47072984E-01 -6.02910330E-01 -5.73976190E-01
 -5.64360801E-01 -5.62049713E-01 -5.52690430E-01 -5.23963938E-01 -4.75771250E-01
 -4.69239099E-01 -4.59812775E-01 -4.41120222E-01 -4.31443696E-01 -3.80287330E-01
 -3.61719419E-01 -3.51920217E-01 -3.51785621E-01 -3.29762652E-01 -2.97209162E-01
 -2.50474823E-01 -1.22564879E-01 -4.24093742E-02 -1.05881944E-02  5.33623347E-02
  6.35152024E-02  7.22897646E-02  9.78224706E-02  1.06474765E-01  1.14424265E-01
  1.26897576E-01  1.49854886E-01  1.56092751E-01  1.72500149E-01  1.84565076E-01
  2.00059980E-01  2.05053676E-01  2.05998985E-01  2.17016325E-01  2.23325399E-01
  2.38723362E-01  2.56906747E-01  2.64348836E-01  2.66895746E-01  2.77181422E-01
  2.81301285E-01  2.96985735E-01  3.09727021E-01  3.20212139E-01  3.25042078E-01
  3.36699163E-01  3.52067590E-01  3.74126572E-01  3.89307436E-01  3.92276609E-01
  3.98556348E-01  4.22635800E-01  4.39063215E-01  4.43216253E-01  4.72493597E-01
  4.76698567E-01  4.82480739E-01  5.06531872E-01  5.23278655E-01  5.43718262E-01
  5.45642849E-01  5.46353184E-01  5.47636262E-01  5.71833831E-01  5.72650998E-01
  6.10126267E-01  6.15779832E-01  6.17582111E-01  6.22831804E-01  6.30465582E-01
  6.36263726E-01  6.62271170E-01  6.71660652E-01  6.87904939E-01  6.89635631E-01
  7.08516087E-01  7.22141417E-01  7.28750192E-01  7.30752674E-01  7.34069071E-01
  7.53254143E-01  7.70495575E-01  7.71712651E-01  7.94285445E-01  8.15391325E-01
  8.19465471E-01  8.42455452E-01  8.61127732E-01  8.65477678E-01  8.94925622E-01
  9.07715503E-01  9.12920285E-01  9.24539096E-01  9.25684279E-01  9.70775262E-01
  1.01068640E+00  1.02879005E+00  1.05041465E+00  1.06898596E+00  1.11375504E+00
  1.13530046E+00  1.16919336E+00  1.17032547E+00  1.22515480E+00  1.24698611E+00
  1.25443455E+00  1.29701331E+00  1.30195400E+00  1.30435253E+00  1.32449961E+00
  1.34989493E+00  1.36166602E+00  1.37498888E+00  1.41456332E+00  1.41528573E+00
  1.47913050E+00  1.50759736E+00  1.55686566E+00  1.57457487E+00  1.60108518E+00
  1.67879403E+00  1.68416954E+00  1.68663406E+00  1.71682025E+00  1.75642927E+00
  1.75731300E+00  1.82705536E+00  1.84481666E+00  1.91642357E+00  1.92067836E+00
  1.95026393E+00  1.97896080E+00  1.97949778E+00  2.05267460E+00  2.21205369E+00
  2.25900716E+00  2.34652387E+00  2.40865346E+00  2.66869600E+00  2.72477427E+00
  1.06125669E+02  1.16721731E+02  1.17683549E+02  1.21571109E+02  1.22255326E+02
  1.25985849E+02  1.63619067E+02  1.68063658E+02  2.13408315E+02  2.16098095E+02
Alpha MO coefficients                      R   N=       28900
 -2.40418261E-05  9.20429385E-05 -9.41979132E-04  1.27125869E-04 -9.04748396E-05
 -4.97181603E-08  1.00947192E-02  8.61690987E-03  9.02676009E-06  2.28165405E-04
 -8.12182268E-07  6.30774530E-07 -5.69447850E-05  5.09960913E-04  1.53328423E-06
 -9.83968920E-06  1.81733509E-04 -6.29159003E-07 -3.74564132E-05  1.66451029E-06
 -1.02296969E-02 -8.00621440E-04 -6.85625998E-06 -2.09044799E-04  8.70514192E-07
 -1.17989011E-06  2.49602271E-04 -5.11700037E-04 -1.19689698E-05  4.31791117E-05
 -2.66911288E-04  1.79460014E-05 -5.91572182E-05 -2.53147094E-06 -8.35310886E-03
 -2.98219552E-03  4.51838361E-05  2.08563423E-05  1.45064967E-05  1.43676275E-05
 -2.19438667E-04 -3.75833332E-04 -5.06961399E-06  1.66510886E-05 -1.25392454E-04
  8.16231171E-05  1.16287938E-05 -5.00666038E-06  1.46190967E-03 -1.14016047E-02
 -9.63774845E-05 -2.76206698E-04 -9.26818741E-06 -5.32890629E-06  1.15315896E-04
  1.75098544E-04 -5.72223516E-06  2.19934117E-05 -1.56956468E-04  1.52039120E-04
  1.98564157E-05 -7.36448413E-07  1.10645229E-02 -4.87971020E-03  2.44745309E-05
  3.10367133E-04  7.68616647E-06 -9.15359213E-06 -3.13855535E-04 -3.14241372E-04
 -2.08565204E-05  7.79470798E-05 -7.72751007E-04  2.00952786E-04 -1.78407786E-05
 -2.98087718E-07  7.97963406E-03  6.31736399E-03 -2.55926475E-06 -2.99140847E-04
 -1.76101538E-06 -1.16026893E-06  1.35982998E-03  3.36884643E-05 -8.67810980E-06
  5.65106197E-05 -1.79099247E-05 -4.00744159E-06 -1.84564943E-04  3.44849944E-07
  6.02189778E-03 -1.04131315E-02  1.37509076E-06  1.08180002E-03 -3.70623083E-06
  3.64906619E-06  9.48670372E-04  4.76041222E-03  1.41960700E-06 -7.79039137E-06
  5.73519267E-05 -1.49024770E-05 -3.14450365E-05 -8.00844808E-06  1.34296396E-03
  1.70799024E-03  1.68213437E-04 -7.31122678E-05  4.26944813E-05  6.39171157E-05
 -2.14881640E-04  1.18107299E-05  8.56715927E-05 -3.78234874E-04  1.03562826E-04
 -4.87388277E-05 -1.71980516E-05 -1.72865311E-05 -1.98558030E-03  2.22298332E-04
  4.17558226E-04  8.28460991E-05 -1.08043892E-01 -2.52144551E-01 -9.25146675E-03
 -3.04082737E-04 -6.66687320E-04  2.34942119E-07 -6.30540989E-04 -1.25127082E-03
  1.49284051E-06 -3.21280818E-04  3.83498475E-07  3.35012822E-07 -1.36634098E-04
 -3.07553140E-05  2.81811153E-01  6.57897865E-01  2.25494456E-02  6.69521105E-04
 -1.48954683E-03  9.36926922E-07  1.92588689E-03 -4.10692047E-03  4.23836323E-06
 -5.32338709E-05  4.95236028E-07 -1.25045078E-07 -3.27953890E-04  1.64723717E-04
  2.67089172E-04 -3.74674269E-03 -6.45495937E-04 -4.13989777E-04  5.58512399E-06
  8.87677066E-06  7.74933280E-05  5.98802941E-04  2.77166149E-04  3.15757272E-06
  2.08530775E-04 -1.41776000E-03 -5.68254544E-04  7.30904430E-04 -5.28047419E-06
  5.71213856E-05 -2.28747468E-04  8.40090630E-04 -3.69677548E-04  3.48037704E-06
 -5.38787224E-05  2.06298930E-04 -2.11207209E-03  2.85298384E-04  3.98111159E-05
  2.85246253E-08  2.26347080E-02 -3.83323110E-03  9.45826428E-06  5.12113312E-04
  1.19144424E-06 -3.50646437E-06 -1.27574208E-04 -2.28048004E-04 -2.66647107E-05
  9.59928641E-05 -8.77297522E-04  2.69814948E-04 -9.24913593E-06  1.13401070E-06
  1.53014357E-03 -9.20165113E-03 -1.36119358E-05 -5.89938357E-04 -4.87933043E-07
 -1.85444215E-06  2.05579180E-03 -5.04545880E-04 -1.84378161E-05  6.83466001E-05
 -4.51803614E-04  2.21081903E-04 -7.98509755E-05 -3.37207446E-06  7.37316776E-03
  3.86445078E-03  7.82234283E-05  4.35533426E-04  2.13252075E-05  2.46129967E-05
 -6.18227658E-04  8.64769937E-05 -1.13663091E-05  3.73384928E-05 -2.81467721E-04
  1.83495027E-04 -5.23659698E-06 -1.11108048E-05  3.28540562E-03  5.07619597E-03
 -2.14678640E-04 -6.19137417E-04 -2.13788179E-05  2.33312559E-06  2.60421476E-04
 -7.80741026E-05 -2.12351871E-05  7.78335467E-05 -5.00778907E-04  1.61294824E-04
  9.73191982E-05 -4.20112422E-06 -1.27799222E-03 -3.71487347E-04  8.50983254E-05
  3.07069644E-04  2.57304156E-05 -2.69543714E-05 -5.77458801E-04  2.21767792E-04
 -1.66859194E-05  5.68519361E-05 -4.51607837E-04  1.80220269E-04  3.39901215E-05
  2.15304276E-06 -6.57565468E-03  6.75828481E-03 -6.19228545E-06 -5.50929549E-04
 -1.43543839E-08  9.51147979E-07  1.56011955E-03  7.16894843E-04 -1.94259391E-05
  1.26532223E-04 -3.88073251E-05 -9.20674015E-06  8.18018459E-05  3.30569886E-07
  1.34902968E-02  4.65068511E-03 -5.96248060E-06  2.42715961E-03  2.29116172E-07
  1.67282233E-06  2.14185071E-03 -2.11887159E-03  3.17964524E-06 -1.74488105E-05
  1.28458143E-04 -3.32789778E-05  1.40040442E-05 -1.80387805E-05  3.01228803E-03
 -7.61230526E-04  3.77039746E-04 -1.64449197E-04  9.52369677E-05 -2.78052747E-05
 -4.83144965E-04 -4.91119784E-06  5.34215023E-05 -3.00880797E-03  3.91392445E-04
 -6.05377092E-04  9.52913459E-05  9.92564312E-05 -2.29409838E-03  3.39278271E-04
  4.40761194E-04  5.13461713E-05  2.81804064E-01  6.57960196E-01  2.20034102E-02
  6.24456802E-04  1.40510085E-03 -5.06037614E-07  2.01715175E-03  4.39623831E-03
 -1.34465437E-06 -3.60629988E-04  8.48085493E-08 -8.77344989E-09 -5.64147788E-04
 -2.51897149E-04  1.08025492E-01  2.52307169E-01  7.82796919E-03  1.91704512E-04
 -4.43333125E-04  4.55049994E-07  8.82043468E-04 -2.00664669E-03  2.46845251E-06
 -4.80051008E-04  7.58150371E-08 -1.74480976E-06 -4.78671590E-04  1.90041132E-04
  3.15714001E-04 -3.66368568E-03  5.55402212E-04  1.27433838E-04  7.98882966E-06
  2.88592851E-04 -1.84370603E-03 -2.25670299E-04 -7.34412319E-04 -4.45742838E-06
  1.99397826E-04 -1.17294869E-03  2.95055083E-04  2.84323924E-04 -9.07862187E-07
  4.09858442E-04 -5.24145712E-03 -1.09492656E-04  2.24146553E-04  1.15768338E-05
  2.75879864E-06 -9.01897488E-06  4.66601668E-04 -1.56380007E-04 -2.55756122E-07
 -3.30043795E-08  1.33355607E-04  1.10214977E-05 -4.37884771E-06  3.15161792E-04
 -2.03196252E-06  2.14746033E-07 -3.26488748E-03 -2.67594551E-06 -8.74089329E-06
  4.75195310E-05 -7.44258832E-04  2.12622004E-04 -7.11097936E-05  4.36665023E-07
  8.55295890E-04  1.46300769E-03  8.91082071E-06 -4.14391665E-04  2.07448088E-07
  5.78210312E-07 -5.19980746E-04  1.22706218E-03 -1.10819220E-07  1.09276994E-07
  7.90008631E-06  4.02538894E-05 -6.02243180E-05 -2.24170627E-07  5.19270272E-04
 -1.54342006E-03 -9.14481097E-06  1.21193292E-04  3.04762059E-06 -4.60021820E-08
  2.25239551E-04  6.44978907E-04  9.22029484E-07 -3.77909037E-06  2.89122868E-05
  8.01975541E-07 -3.73726199E-08 -2.65344416E-06 -1.44693878E-03 -9.40451074E-06
  3.04226440E-06  5.68155845E-05 -3.64997641E-06 -4.43516476E-08  4.75595073E-04
 -2.29664036E-07 -1.03242269E-07  6.16644107E-08  8.99352432E-06  3.97450164E-05
  6.02404110E-05 -1.53285543E-07  5.35287611E-04  1.53364347E-03 -7.84464613E-06
  1.21309555E-04  2.62981126E-06 -1.74542358E-08  2.25364279E-04 -6.46243934E-04
 -8.73872658E-06  4.74872149E-05 -7.42824579E-04  2.12430593E-04  7.02822225E-05
  4.70375836E-07  8.76293173E-04 -1.45905382E-03  8.03411906E-06 -4.13992368E-04
 -1.20850245E-06 -1.39474109E-07 -5.25421643E-04 -1.22746998E-03  3.00246052E-01
  7.05975520E-01  1.49079581E-02 -8.01819347E-04 -5.07216748E-07 -8.42647688E-07
  1.76909715E-03 -7.98189372E-07  7.05867879E-08  9.87258411E-04 -9.62132796E-07
  5.68883528E-07 -1.10041537E-04 -4.89423397E-07 -7.82987268E-07  2.18563763E-06
 -2.73032311E-05  3.21446799E-05 -1.24148048E-08 -2.09740453E-06 -3.54776234E-04
  1.43905803E-06 -2.61277972E-05  1.82404918E-05 -2.16912089E-05  2.72608955E-08
 -4.84300873E-05  5.98715638E-08 -1.96944599E-06  2.38146703E-04  1.69565846E-05
  1.25207461E-04 -7.81019932E-06 -2.04496330E-06  2.36887581E-04  1.68248839E-05
 -1.24729585E-04 -7.77467630E-06 -2.02761753E-05 -6.21766367E-05  6.79185077E-04
  2.37342422E-05  7.08341442E-05 -5.15806426E-08 -9.43122489E-04 -1.01170076E-03
  2.10032132E-07  6.18598391E-04  7.24350068E-07  3.65661634E-07  5.06198670E-04
 -1.27243333E-03 -2.02820715E-05 -6.21604289E-05  6.79232129E-04  2.38273597E-05
 -7.04630097E-05 -1.35303855E-08 -9.44283000E-04  1.00925609E-03 -5.12227859E-07
  6.18641064E-04 -4.93860695E-07  1.54609321E-06  5.03572309E-04  1.27293136E-03
 -9.39233265E-05 -9.69275474E-04  5.82589460E-04 -1.72561627E-04  4.89512303E-07
  9.22779683E-05 -2.90548499E-04  2.25667944E-04 -2.77448943E-05  3.96727368E-06
  9.23052792E-05 -2.88534445E-04  2.24034401E-04  2.80530171E-05  3.89513715E-06
 -9.43883554E-05 -9.64957536E-04  5.79055816E-04  1.69679001E-04  1.45133641E-06
  7.89047577E-06 -3.62715522E-05  3.34258026E-04  2.89437910E-05 -1.89478452E-08
 -2.94669175E-07  6.26133514E-04  8.39144809E-06 -3.19168641E-05 -4.23973984E-05
  1.05108293E-05  1.64253477E-07  5.56605846E-04 -1.38212093E-07  6.92571491E-07
 -5.73225167E-07 -7.93268451E-05 -1.23936108E-04 -6.96345439E-05 -8.32020211E-06
  3.45640991E-04 -1.17882792E-03  1.65670268E-05  4.47157420E-04 -3.54953783E-06
  7.54622089E-06  2.28324417E-04 -8.20522044E-04 -6.29242940E-06  3.99202560E-05
 -9.58019408E-04 -3.91619229E-04  1.20660193E-05  1.00180131E-05 -8.67979522E-04
  1.80582337E-03 -9.74035847E-05 -1.20950670E-03 -6.38658005E-05 -3.82653130E-05
 -8.51987461E-04 -1.81764803E-03  6.91006297E-06 -1.33218874E-05  1.66020189E-03
  2.97994025E-05 -2.19289526E-08 -6.15696423E-06  5.04911569E-04 -7.19275462E-06
  3.26676019E-04  1.47283524E-03  1.11881717E-04 -5.60750839E-08 -5.49323062E-03
  3.49514387E-06 -6.29241604E-06  3.99161632E-05 -9.57809783E-04 -3.91485776E-04
 -1.18296234E-05  1.00657250E-05 -8.55811033E-04 -1.81169755E-03 -9.82549543E-05
 -1.20932707E-03 -6.32277645E-05  3.83379619E-05 -8.50855128E-04  1.81805227E-03
  6.85066501E-07 -5.34841322E-07 -7.99447376E-05 -1.23918037E-04  6.96826954E-05
 -8.20286216E-06  3.59920630E-04  1.18553347E-03  1.63218970E-05  4.46694010E-04
 -2.49446640E-06 -8.18627035E-06  2.28973534E-04  8.19709504E-04 -3.02934862E-07
  7.24302593E-06 -4.07866109E-05 -5.04854892E-05 -1.40117951E-09 -6.48885758E-07
  1.33546273E-04 -1.02654817E-06  1.80986438E-05 -3.26840403E-05  3.38351044E-06
  1.75179623E-07 -8.84718255E-05 -1.71776343E-07  3.00060985E-01  7.05983399E-01
  1.46759580E-02 -1.02725411E-03  7.65883569E-09  4.44866781E-04  2.03256232E-03
 -4.73938471E-07 -3.56130986E-04  8.69464143E-04 -2.34963769E-06 -1.25335136E-07
 -5.15944493E-04  1.26681203E-07 -1.01368134E-04 -1.48576546E-04  4.57928351E-04
 -6.56331472E-04  1.56631011E-04 -1.01448305E-04 -1.46794603E-04  4.57843901E-04
  6.55500261E-04  1.56891824E-04  2.52116023E-07 -6.96474332E-06  1.63062199E-05
 -8.65107948E-06 -3.21215359E-06 -1.77133328E-07 -6.05153384E-07  9.95080257E-06
 -1.52364059E-06 -1.20641466E-05 -4.17488751E-07 -1.70660648E-06  1.89279723E-05
 -2.90124419E-05  2.53071195E-07 -6.98137052E-06  1.65210459E-05 -8.61619725E-06
  3.20471416E-06 -1.85972282E-07 -8.27085440E-07 -1.02071765E-05 -1.71809693E-06
 -1.20986952E-05 -4.87661254E-07  1.73064116E-06  1.88161715E-05  2.91133220E-05
  4.71860887E-05  7.50623200E-04 -1.86915639E-04  4.51040431E-05 -1.00207792E-05
 -3.68876059E-04 -1.40304102E-03 -5.19351882E-04  1.48250294E-04 -1.11023853E-05
 -3.68571152E-04 -1.40420423E-03 -5.21492047E-04 -1.46222539E-04 -1.07062956E-05
  4.70287362E-05  7.50368917E-04 -1.88561564E-04 -4.60193893E-05 -9.81537601E-06
 -3.29486965E-04 -5.53914924E-04 -1.74439555E-03 -1.68878873E-04  1.84504019E-07
  2.66920875E-06  5.92605621E-03 -8.02530249E-06  2.87388477E-06  7.54272871E-04
  1.06187508E-06 -1.56471570E-06  1.92567127E-03  1.35635638E-07 -1.28634912E-04
 -1.19648188E-04 -1.69231301E-03 -2.65007568E-04 -1.04089146E-04  7.28526805E-06
 -7.18243988E-03 -9.19073190E-03  8.02874310E-05 -2.01372124E-03  4.01092797E-05
 -2.65729884E-05  1.08177944E-03 -2.10085768E-03  9.84344994E-04  2.66633686E-03
 -2.12509899E-03  7.45380530E-05 -3.25443485E-04 -1.79051763E-07 -8.38002380E-03
  6.10795213E-03  1.45754864E-04  5.50593010E-04  1.25456911E-04  2.05568526E-04
  1.48518727E-03 -3.35291597E-03  2.99499728E-01  7.06812796E-01  3.04820795E-02
  7.16663205E-04 -3.18320483E-07 -4.87015886E-05  6.84233673E-03  2.99011211E-06
 -4.61270451E-04 -1.81011666E-03  2.40632605E-04 -7.28933015E-07 -1.80540799E-03
  7.27959220E-07  9.84682912E-04  2.66711561E-03 -2.12452365E-03  7.45384646E-05
  3.25641851E-04 -2.60061751E-07 -8.38737104E-03 -6.10019487E-03  1.45663442E-04
  5.50009122E-04  1.26541127E-04 -2.07003044E-04  1.48745121E-03  3.35181875E-03
 -1.28721774E-04 -1.19867401E-04 -1.69173450E-03 -2.65168712E-04  1.04205155E-04
  7.67237474E-06 -7.18571527E-03  9.18719664E-03  8.90495530E-05 -2.01253836E-03
  3.94361296E-05  2.70471970E-05  1.08225444E-03  2.10044842E-03  5.24239492E-07
 -7.18900786E-06  5.22215338E-05  8.09731390E-05 -1.80731988E-07 -1.22581827E-06
 -5.77746096E-04  3.01652051E-06  6.47480205E-06  2.12634764E-04  4.47483199E-06
 -7.46935504E-07  1.89020223E-04  5.55026386E-07 -3.42904723E-05 -1.83070721E-04
  5.73002860E-04 -7.04600251E-05  4.95662254E-08 -9.99442899E-05  6.98195061E-03
 -4.13682320E-06  1.04305829E-03 -5.68626025E-04  6.12259605E-04  2.45502591E-06
 -2.50560564E-03  1.02892833E-06  6.08513921E-05 -6.69419178E-03  4.88330243E-04
 -4.12852380E-04 -1.28045663E-04  6.08222242E-05 -6.69180618E-03  4.88550804E-04
  4.11424981E-04 -1.28845946E-04  6.50359908E-07  1.85876830E-05 -4.25497129E-05
  6.20760368E-05 -6.47402160E-06  1.31565180E-07 -4.23820330E-05  1.13301845E-04
 -5.74122871E-07  9.99745974E-06 -4.33306093E-08  3.03519466E-07 -2.15064840E-05
  1.78585107E-04  6.49317744E-07  1.86256278E-05 -4.31627880E-05  6.20170184E-05
  6.54491614E-06  2.11605752E-07 -4.18410755E-05 -1.12475770E-04  1.41210489E-07
  1.02694922E-05  2.91778418E-07 -6.26613534E-07 -2.10531168E-05 -1.79298815E-04
  5.03294799E-04 -7.94444663E-03 -5.98217411E-04 -1.12129213E-03  8.56654597E-06
 -1.01336298E-04  2.87997198E-03 -1.35674843E-03  9.39392200E-05  1.30146737E-04
 -1.00985231E-04  2.87923242E-03 -1.35559645E-03 -9.36308958E-05  1.29614557E-04
  5.03452302E-04 -7.94266941E-03 -5.96250098E-04  1.12205605E-03  1.03190867E-05
  2.99454598E-01  7.06689581E-01  3.13544289E-02 -6.15867157E-04 -6.10059800E-07
  1.91508893E-06  2.56317400E-03 -4.81621335E-05  4.17128499E-05 -8.18428079E-04
 -1.30074419E-06  2.17738084E-06 -3.16597937E-03  3.57400183E-06  2.55634677E-03
  6.35898189E-03 -1.88787574E-03  1.00111560E-05 -3.02916713E-04  3.47928580E-06
  9.97821827E-03  2.27686934E-03 -5.00979059E-05  1.56192197E-04 -9.59918661E-06
 -3.83431930E-06  2.00678272E-03  4.10568753E-03 -1.81338356E-04 -1.92017538E-04
 -2.10781740E-03  3.78375136E-04 -1.87793371E-04 -7.00416566E-06  8.76576362E-03
 -5.72622003E-03  1.64012188E-04 -1.74384908E-03  3.26510442E-05  3.92990823E-05
  7.74198799E-04  2.69939557E-03  2.89572094E-04  9.05745154E-04 -1.64614835E-03
  4.44331986E-04  4.96608442E-08 -2.50757897E-05  3.05693228E-03  4.27803529E-05
 -3.82844919E-04 -1.93024979E-04 -4.26876936E-05  7.80307357E-07  3.08189374E-03
 -1.88497597E-06 -1.81379638E-04 -1.92141253E-04 -2.10682358E-03  3.78768864E-04
  1.87567832E-04 -6.95491588E-06  8.68895516E-03  5.76259439E-03  1.63861885E-04
 -1.74263211E-03  3.10060559E-05 -3.74399484E-05  7.69781214E-04 -2.69831690E-03
  2.55932809E-03  6.36604054E-03 -1.88757726E-03  1.07518927E-05  3.03040988E-04
  3.60109731E-06  9.89817385E-03 -2.32032178E-03 -5.31803035E-05  1.55863791E-04
 -1.28939875E-05  5.02888146E-06  2.00574596E-03 -4.10408303E-03 -2.26224993E-05
 -8.96007919E-05  2.02120778E-04  1.82483305E-04 -2.32261853E-07  6.29292792E-07
 -5.23077388E-04  7.28932691E-06 -1.31367697E-05  5.08082866E-04 -1.82948789E-06
 -1.75718991E-06 -1.91283905E-03  1.31978405E-06  2.05438090E-06 -3.89914417E-05
  2.68490968E-04 -2.34442928E-05  2.77032326E-08 -3.17440349E-05  6.31108618E-03
 -6.16306924E-06  7.59122282E-04 -2.42178698E-04  1.94606502E-04  8.85377170E-07
 -7.83403410E-04  2.82722317E-07  2.58729195E-04 -5.82184346E-03  8.84619232E-04
 -1.19891058E-03  1.77974711E-04  2.59044492E-04 -5.81944951E-03  8.86311863E-04
  1.19657141E-03  1.79041235E-04  1.58632668E-06  8.59753332E-05 -6.39794216E-04
 -1.17441313E-04 -1.20262055E-04 -8.50663253E-08  1.57327197E-04  8.58993305E-04
  1.11418982E-06 -5.50791495E-04  3.59634500E-07  7.47805349E-07  7.20302838E-05
  5.88366773E-05  1.58737941E-06  8.60467728E-05 -6.40395846E-04 -1.17654679E-04
  1.20176240E-04 -3.46891338E-07  1.55659483E-04 -8.60698352E-04  3.62579787E-06
 -5.50827320E-04  9.55329511E-07 -1.50147864E-06  7.12467270E-05 -5.94689249E-05
 -6.15264038E-05  7.26059354E-04  1.10303374E-03  1.94298825E-04  9.40295106E-06
  5.41152376E-04 -6.51384193E-03  1.57715261E-04 -1.41065486E-03 -1.02496603E-05
  5.40987761E-04 -6.51131841E-03  1.64661576E-04  1.40655884E-03 -9.65315247E-06
 -6.11598489E-05  7.28093643E-04  1.10941170E-03 -1.91723989E-04  7.20371932E-06
 -1.29975750E-03 -2.88887645E-03 -1.16545317E-03 -9.07357019E-05 -3.93798937E-04
 -8.52269146E-07  3.17763285E-03 -5.58090304E-03  2.88056932E-05  6.32752156E-04
  1.80670335E-06 -8.75031020E-06  1.68180028E-03 -4.79498251E-03 -1.26085841E-01
 -2.97450811E-01 -1.44637019E-02 -2.16751494E-04 -8.09244922E-04  4.61553441E-06
 -6.11222154E-03 -5.60971954E-03 -1.51958569E-05 -1.39951254E-03  8.58947772E-06
 -2.19393974E-06  5.08471369E-04  1.88730660E-04 -3.78471986E-03 -8.83233325E-03
 -1.44225394E-03 -4.39932957E-05 -2.33716993E-04 -7.01171809E-06 -8.19414704E-03
 -7.50280012E-03  5.98747492E-05 -8.52093875E-05  3.31940318E-05  2.34620651E-05
  1.06653372E-03 -1.42603522E-03  3.15890631E-05  1.69124427E-04 -8.03826756E-04
  1.53252300E-04 -2.26630484E-04 -4.09397151E-06  7.34939571E-03 -1.29447405E-02
 -1.81913730E-04 -1.04593676E-03 -1.21640164E-05 -4.48870879E-05 -9.14312917E-04
  1.10446765E-03  7.02174802E-03  1.68188298E-02 -7.84192398E-04  3.53786315E-04
 -6.94967292E-05  2.54171299E-06  8.88953793E-03 -1.59140918E-02  1.20589997E-04
  5.31546749E-04 -9.01189358E-06 -1.23723345E-05 -3.65370722E-03  1.72317607E-04
  2.71492062E-01  6.40809208E-01  2.81567974E-02  3.62130187E-04 -1.23179487E-03
 -3.44660431E-06  5.91149940E-03  1.47451631E-03 -7.08439897E-05 -2.64179366E-04
 -1.56564922E-05  7.60655405E-06  1.23583091E-03  2.93307958E-03 -7.59317295E-07
  2.10180813E-05 -1.85950337E-04 -4.93138219E-05 -1.70029184E-04  6.31276757E-07
  2.61206613E-04 -1.26127593E-03 -8.54236299E-06 -3.95607105E-04  4.17612629E-07
  3.67376875E-06  1.47555883E-04 -7.08221018E-04  3.46870114E-07 -8.61423122E-06
  8.87842101E-05 -7.41868307E-05 -6.24081624E-05 -1.00653802E-05  3.48467334E-03
  2.71749921E-03  4.01419010E-04 -1.76187181E-04  1.31719708E-04  1.53904685E-04
 -1.90199482E-04  3.82132290E-04  1.85642380E-04 -9.68831115E-04  4.84063941E-04
  1.46407849E-04  2.71920089E-05  2.95818572E-05 -5.31440390E-03  2.58245056E-04
  1.82767640E-03  1.71929306E-04 -1.26844836E-07 -6.40004517E-06  7.36151341E-05
  6.06569134E-05 -8.31543342E-06  1.39233603E-07 -5.76292929E-04  1.41031644E-05
  2.90345681E-06  2.64625837E-04  1.05702421E-07  2.05834688E-06 -2.27026731E-04
  6.96998379E-05  6.24221441E-07  4.10206715E-05 -3.25064655E-04 -6.56397060E-05
  8.99227411E-05 -1.55660606E-07  7.28881884E-04 -3.71846872E-04  1.28263090E-07
 -2.56965380E-04  1.60796238E-07 -4.32727648E-07  2.88206783E-04 -1.43378931E-04
  2.04656659E-04 -7.13883232E-03 -1.21546035E-03 -1.44366812E-03  1.58610127E-05
  4.54639605E-04 -5.80861763E-03  1.22271424E-03 -1.32162415E-03  1.06558001E-05
 -3.53479691E-04  5.12535749E-03 -1.07373868E-03 -1.24550621E-03 -4.26986078E-05
  2.60478833E-04  4.14071160E-03  4.47654094E-04 -1.79997188E-03 -2.25406164E-06
 -3.54739957E-03 -7.88371284E-03 -3.18542900E-03 -2.48458646E-04  1.44330670E-04
 -1.59944354E-06  8.69102205E-03  2.00445784E-03  8.03823797E-05  1.73048529E-03
  6.91133851E-06  1.06937558E-06  4.60446712E-03  1.75205263E-03  2.71479137E-01
  6.40959541E-01  2.65177023E-02  3.05803322E-04  9.51341491E-04  1.74895824E-06
  1.95551877E-03 -8.95270193E-03 -1.21277406E-04 -2.06696660E-03 -1.49705983E-05
 -1.51987672E-05  2.51298009E-03 -4.32409591E-03  6.43223249E-03  1.56818904E-02
 -2.92172330E-03  4.96292279E-04 -1.68884303E-04 -3.92793899E-06  4.10845005E-03
  1.57979492E-02  2.64026447E-04  7.22825545E-04  2.25667206E-05  4.66217155E-05
 -4.40052207E-03 -1.95166920E-03  8.60516816E-05  4.61742731E-04 -2.19768903E-03
  4.18945524E-04  8.25202778E-05 -1.12169927E-05  2.01156512E-02  4.76608346E-03
 -4.94843121E-04 -2.85894405E-03 -3.12677061E-05  1.57442458E-05 -2.50429280E-03
 -4.02595463E-04  2.45896392E-03  6.25077785E-03 -3.16367280E-03  3.51035241E-04
  2.79808709E-04 -7.81493281E-06 -2.20768040E-03 -7.19569910E-03  2.37130977E-04
  4.96773740E-04  4.18816638E-05 -5.18203401E-05 -2.67428334E-03  2.41409918E-03
  1.26059672E-01  2.97778283E-01  1.09261316E-02  9.34122543E-05 -2.04660007E-04
  4.20819633E-06 -2.49799071E-03  1.04302731E-02 -9.32083119E-05 -2.48216457E-03
 -4.44611737E-06  1.50743955E-05  2.25021074E-03  3.18197529E-03 -2.07817751E-06
  5.75049045E-05 -5.08793376E-04 -1.35953203E-04  6.17718615E-05  1.34590383E-06
  7.15293241E-04  4.65028181E-04 -2.18468772E-05 -1.08200122E-03 -9.23715740E-07
 -1.13631783E-06  3.98697367E-04  2.59386145E-04  9.52603510E-07 -2.36245958E-05
  2.43228710E-04 -2.03058361E-04  2.29145416E-05 -2.75370644E-05  9.52707860E-03
 -1.00301540E-03  1.09278336E-03 -4.82550006E-04  3.59022863E-04 -5.48800792E-05
 -5.19551685E-04 -1.39898521E-04  2.65794891E-04 -9.38857667E-03  9.71408175E-04
 -2.66223047E-03  2.97103109E-04  3.23142109E-04 -7.79336024E-03  1.05599620E-03
  1.93675705E-03  2.45686797E-04  8.18584658E-07  5.59817051E-05 -4.16494218E-04
 -2.98961759E-05 -1.49176630E-04  9.83678965E-08  4.47336653E-04  5.93443162E-04
  2.57468924E-06 -8.53702375E-05 -3.20078648E-07  3.00788683E-06  1.76820442E-04
  3.03828703E-04  5.41870180E-07  3.86771592E-05 -2.71304461E-04  1.61635431E-05
  1.19239053E-04  8.74155008E-08 -2.95150793E-05 -4.61036436E-04  2.80653090E-06
  1.05726865E-04 -5.24198600E-08 -3.23793849E-06 -1.07950131E-05 -2.77729636E-04
  6.46773110E-04 -2.03987264E-03 -7.47419158E-04  1.08092784E-03  1.89895846E-05
 -8.95447206E-06  1.06661477E-03 -2.19184603E-04  3.64926162E-04 -5.20139295E-05
  2.86284100E-04 -2.93429719E-03  6.27576047E-04  5.70897251E-04 -3.32372864E-05
  6.26479794E-04 -6.16500765E-03 -1.34930885E-03  1.09306218E-04  2.44601797E-05
  4.84396676E-05  1.70300368E-04 -5.02894067E-04 -3.16380314E-05 -2.43494462E-04
  2.36203461E-08 -1.20735921E-03 -8.14601151E-03  2.24553948E-06 -3.11879463E-04
 -3.30449461E-06  5.60413647E-06 -8.05191259E-04 -7.98424258E-04  4.88666268E-03
  1.15361825E-02  1.86053420E-04  1.85523913E-04 -1.47472575E-04  2.18351247E-06
  5.17606190E-03 -8.46327996E-03 -1.57514164E-05 -2.54369792E-04 -1.19523296E-05
  6.20349585E-06  1.90099182E-03  1.02745447E-03 -1.71554399E-01 -4.04791224E-01
 -1.87833237E-02  3.15516089E-04 -9.29961601E-04 -4.86167563E-06  3.02054944E-03
 -5.08055091E-03  2.78116756E-05 -8.67490911E-04 -5.65100622E-06 -1.16776139E-05
 -1.96730897E-04 -9.45555256E-04 -2.71611429E-04 -5.50535002E-04 -5.75922141E-04
  8.08008155E-05 -4.16322883E-04 -3.43926236E-06 -6.49429290E-04 -1.01827500E-02
 -1.01182305E-04  1.75051029E-04 -1.57572761E-05 -8.54551979E-05  1.07789417E-03
  4.71848497E-03  2.45313765E-01  5.78973587E-01  2.56505821E-02 -3.69889144E-04
 -1.08649131E-03  8.20449759E-07 -2.24400490E-03 -2.28778431E-03  3.20649542E-05
  1.52577148E-04  3.47577125E-05 -3.68679104E-05  1.07462578E-03 -2.51765263E-03
 -6.56359725E-03 -1.53251614E-02 -1.63535863E-03 -3.07321864E-04 -5.60285412E-05
  7.70858587E-07 -5.22281618E-03 -1.06577930E-02  1.20778154E-05  2.93563830E-04
  1.65029936E-05  1.02198922E-05 -3.13870671E-03 -1.26512404E-04  1.98480151E-07
 -3.60418778E-06  3.00268475E-05  3.51685637E-05 -3.40201649E-05 -4.19425311E-08
 -1.74808189E-04  9.96519302E-04 -2.61341390E-06  6.54700486E-05 -8.32287096E-07
 -1.50044680E-06  1.33912857E-04  1.55822986E-04 -3.07237676E-08  4.90676427E-06
 -5.99884856E-05  4.52432333E-05 -2.24222137E-04 -1.05582218E-05  4.31086558E-04
  3.00468745E-05  1.21101608E-04 -2.65107388E-04  3.33463034E-06  9.91417678E-05
 -1.48600960E-04  1.42773246E-04 -1.76728190E-05 -3.37129203E-04  4.60800157E-04
 -3.70143702E-04  6.48613647E-05  4.65912008E-05 -1.19248035E-03 -1.99808302E-04
 -3.84980591E-04 -2.15255654E-05  5.50042225E-07  9.52963504E-06  2.03849014E-05
  1.52484454E-05 -5.13080359E-05  1.72965820E-07 -3.77992849E-05  3.01100279E-04
 -1.39674484E-06 -1.68064709E-05 -3.03849909E-07  3.65680213E-07  1.95842143E-05
  1.00451433E-04 -9.82920642E-08  4.36209024E-06 -4.81597851E-05  3.15045713E-06
 -6.78893132E-05 -1.75374958E-07  5.34876272E-05  4.05474902E-04  1.61965019E-06
  5.79196907E-05  7.76439806E-07  3.43570802E-07 -2.29422756E-05  6.03195275E-05
  4.38227906E-04 -5.87058070E-03 -9.35892363E-04 -1.34096050E-03  1.03958522E-05
  1.26078103E-04 -6.36344226E-03  1.14334615E-03 -1.48445274E-03 -1.62825683E-05
  1.45440890E-04  5.05684841E-03 -8.40660154E-04 -1.52246343E-03  2.43685065E-05
 -3.68390946E-04  4.14787874E-03  5.16675726E-04 -1.35721942E-03 -7.44488922E-06
  2.74227067E-04  9.63597259E-04 -2.84415397E-03 -1.78643384E-04  4.29979546E-05
  4.70446534E-07 -6.82206277E-03  1.40193879E-03  1.92808908E-05 -1.76425531E-03
 -1.39888641E-05  2.10475011E-06 -4.54770419E-03  1.43443761E-04 -5.81459642E-03
 -1.32315466E-02 -4.26638193E-03 -3.88957061E-04 -2.39915082E-04  8.57484659E-06
 -1.00273674E-03  7.89274884E-03  5.40099085E-06  1.60068944E-04  1.20168185E-05
 -7.23030535E-06 -3.94514251E-03  3.19057733E-03  2.45304188E-01  5.79225347E-01
  2.33417968E-02 -2.13047955E-04  6.21371433E-04 -1.16780898E-05  1.76684563E-03
 -7.24157587E-03  1.63629713E-04 -1.93138809E-03  8.91032939E-05  7.46550122E-05
  2.60197685E-03  4.75521998E-03 -1.53366242E-03 -3.10808505E-03 -3.25528676E-03
  4.57978347E-04  7.35400790E-05 -1.95413597E-05 -3.67357435E-03  1.84222916E-03
 -5.66017080E-04  9.93001378E-04 -9.34493876E-05  1.53667141E-05  6.08535858E-03
 -8.38202900E-04  1.71541810E-01  4.05153960E-01  1.54781456E-02 -9.18202828E-05
 -2.64785423E-04 -1.22524357E-05  2.63293769E-03  8.57505902E-03  1.61991809E-04
 -2.11241612E-03  8.07204892E-05 -6.48960653E-05  2.37077429E-03 -4.14195774E-03
 -3.77410184E-03 -8.44461959E-03 -3.94031485E-03 -3.01234926E-04  2.76018862E-04
  9.38903075E-06  7.71497887E-04 -4.54107751E-03  1.48949350E-06  6.38419148E-05
  7.80748148E-06  9.82356060E-06 -3.05608172E-03 -3.34470821E-03  1.11202601E-06
 -2.02131386E-05  1.68702989E-04  1.98738961E-04  6.03483231E-06 -1.03273048E-07
 -9.89351384E-04 -1.70765088E-04 -1.35576232E-05  3.69510180E-04 -2.37513132E-06
 -1.07810293E-06  7.57629966E-04 -2.55108997E-05 -1.73634619E-07  2.77333560E-05
 -3.39203672E-04  2.56499630E-04  3.95893623E-05 -5.91746516E-05  2.43170166E-03
 -1.13764947E-05  6.84316865E-04 -1.49813695E-03  1.62696604E-05 -1.63617820E-05
 -8.40301271E-04 -2.51734224E-05  8.73189719E-05 -4.39601238E-03  6.78888360E-04
  1.08415648E-04  1.15382620E-04  7.65059794E-05 -4.23981046E-03  7.96480423E-04
  2.27000996E-05  1.30946451E-04  1.21839911E-06  3.87000898E-05 -8.35523478E-05
  5.09902174E-05  5.73345291E-05  2.23367352E-08  5.28696114E-05 -3.57813762E-04
  8.19379240E-07  1.23159239E-04  7.72258962E-07  1.19762705E-06 -1.36543772E-05
  1.00483140E-04  1.33240478E-06  3.96580121E-05 -7.21279675E-05  5.31472996E-05
 -3.61785198E-05  1.99018658E-07  3.63784405E-05  2.33514695E-04  1.60048036E-06
  1.10485283E-04  1.12456439E-06 -1.61567305E-06 -6.41548124E-06 -1.29499421E-04
  1.26415982E-04 -3.97828649E-03 -1.05490875E-03  2.84725586E-04  1.32927913E-05
  7.69948425E-04 -2.68494154E-03  6.77949847E-04  3.71458100E-04  2.78547388E-05
  7.66177402E-04 -4.70546562E-03  1.03509324E-03  1.56354473E-04  2.12858664E-05
  2.69427188E-04 -5.75157537E-03 -1.30656481E-03  1.96151115E-04  1.60236053E-05
 -8.12992600E-03 -2.71799624E-02  7.28111664E-02 -6.42966513E-02 -1.08162595E-05
 -2.68839630E-05  3.06542403E-01 -1.57733427E-03  9.36343058E-04  1.19247295E-02
 -1.13912169E-05  7.23844150E-05  1.22276127E-01  3.85552043E-05 -7.96967271E-04
 -2.53890411E-03  1.68658765E-02 -1.65356139E-02  1.04432551E-02  4.62274899E-05
  2.73624552E-02 -1.03438017E-01 -1.27767222E-03  2.94919516E-04 -7.26580159E-05
 -2.32640262E-06  4.21164141E-02 -6.47660837E-02  4.15832177E-04  2.25316528E-03
 -1.58264119E-02  1.06886131E-03 -4.69918798E-04 -1.18763883E-04  9.78237196E-02
  7.44832173E-02  3.34841831E-03 -5.50614532E-03  6.39524179E-04  7.31359654E-04
 -8.76505912E-03 -2.21887967E-02  5.21666855E-04  2.33729089E-03 -1.13584046E-02
  1.73701333E-03  3.21742951E-07 -2.94644791E-04  1.81294609E-01  1.61264149E-03
 -7.59429250E-03 -1.73418748E-02 -8.50887388E-04 -9.45676082E-06  1.35694026E-03
 -2.27405190E-05  4.16046209E-04  2.25418240E-03 -1.58295019E-02  1.08168554E-03
  4.70260068E-04 -1.15326324E-04  9.49034811E-02 -7.29133312E-02  3.33019493E-03
 -5.49139577E-03  6.65988468E-04 -7.65376164E-04 -8.77391551E-03  2.22310668E-02
 -7.93899421E-04 -2.52817178E-03  1.67868482E-02 -1.65296422E-02 -1.04143915E-02
  1.91160957E-05  2.44026906E-02  1.02009744E-01 -1.32289606E-03  2.67297527E-04
 -6.70335103E-05  1.08693882E-05  4.22229391E-02  6.47824553E-02 -5.31091616E-02
 -1.85412383E-01  3.38748512E-01 -1.10639125E-01 -4.45968575E-05 -3.18254919E-05
  1.69216927E-01  1.32917430E-04 -2.80593581E-04 -1.02846260E-01 -3.61594875E-05
 -1.51992924E-04 -1.20048639E-01 -1.59587968E-04  1.18334529E-04  6.68778885E-05
  4.05786782E-03 -8.15773634E-04  1.83214306E-06 -4.94207220E-04  1.17543437E-01
 -2.34941746E-04  1.55722932E-02 -7.63250874E-03  3.98969556E-03  1.68754423E-05
 -8.56539542E-03 -3.18855501E-06  3.95530262E-03 -1.13746997E-01  1.59134543E-02
 -2.47736628E-02  3.10495888E-03  3.96524699E-03 -1.13574492E-01  1.59399528E-02
  2.46937544E-02  3.11109270E-03 -3.13583955E-02 -1.10180774E-01  4.52063102E-01
  5.53546803E-02  1.24095412E-01 -4.96546457E-05  4.83912247E-02  1.59020113E-01
 -2.85886265E-05 -2.80035830E-02 -1.89607856E-05 -4.86117673E-06 -4.83982120E-02
  4.17386709E-02 -3.13634572E-02 -1.10197763E-01  4.52125858E-01  5.55151493E-02
 -1.24041250E-01  8.44020418E-05  4.85634535E-02 -1.59128761E-01  1.52677820E-04
 -2.80056763E-02  3.77151724E-05 -8.31255997E-05 -4.83224599E-02 -4.19168555E-02
  1.33737231E-02  2.81964241E-02  2.52589174E-02  8.44540024E-03  3.03767085E-04
  5.15716946E-03 -7.48471423E-02 -5.79024387E-03 -1.96191648E-02 -2.95061930E-04
  5.15668438E-03 -7.48112969E-02 -5.54432523E-03  1.94844378E-02 -2.77867517E-04
  1.33597454E-02  2.81057205E-02  2.53926398E-02 -8.27614711E-03  2.74755259E-04
 -1.00197830E-05 -3.58931658E-05  1.58392060E-04 -2.67198901E-05 -5.26392435E-02
  2.76969324E-05 -1.16632023E-04  8.80301088E-01  1.75234119E-04 -3.42876449E-05
  5.31761419E-05  1.03230611E-04  1.81616273E-05 -1.04154670E-02 -1.64564391E-03
 -4.94421330E-03 -1.24107786E-03 -1.13612340E-02  6.53283024E-03  1.31109599E-05
 -6.54368132E-01  6.04519125E-01 -4.16472633E-04  1.62764766E-02  9.15119126E-06
  2.01054226E-04  3.49659343E-02  4.56389274E-04 -2.78933713E-04 -1.22901118E-03
  7.01890334E-03  2.07458145E-05 -8.37690918E-04 -2.73580300E-05 -5.96699442E-01
 -4.51749614E-01  7.94209897E-04 -4.01354046E-03  3.53585604E-04  3.29110466E-04
  1.14726974E-02  1.02944454E-02  2.43862198E-07  1.65761988E-06 -1.18956019E-05
 -1.22487065E-08  5.65316276E-04 -2.23523591E-06 -5.38762676E-05 -7.03147744E-01
  4.18282867E-05  5.60285175E-07 -9.28302740E-06  1.14965849E-04  1.37537074E-05
  1.73165132E-02  2.78370487E-04  1.22846023E-03 -7.04468727E-03 -2.13220326E-05
 -8.36881780E-04  2.73275681E-05  5.96658910E-01 -4.51905882E-01 -1.16253979E-03
  3.97219121E-03 -3.13653238E-04  3.16119522E-04 -1.14813877E-02  1.02964429E-02
  1.63719255E-03  4.91622379E-03  1.32877021E-03  1.13055508E-02  6.49907546E-03
  1.57670606E-06  6.55002476E-01  6.03956581E-01  7.17020334E-04 -1.62614421E-02
  1.00928521E-06  2.79259452E-04 -3.49631177E-02  4.98301748E-04 -3.11319529E-06
 -1.26367990E-05  4.71033961E-05  2.63475142E-04 -3.71804614E-01  2.02026380E-04
 -9.94783923E-05 -1.02851875E-01  1.45632415E-05  3.67929614E-06 -7.02678861E-05
  7.91493107E-05 -1.92306707E-04  1.59487134E-01  2.21127230E-07  4.83913989E-07
  2.42479059E-06 -1.11581125E-06 -1.16237534E-03  1.11710134E-06  1.02441766E-04
  8.58311783E-02  1.20789528E-05 -8.16321276E-06  8.60484954E-06  1.63946852E-03
  5.67820322E-08  5.55101962E-03  2.33397989E-03  4.16563059E-02  1.26662786E-03
  1.36065715E-02 -3.89806927E-03 -2.32426147E-03 -4.18391662E-02 -1.22746393E-03
  1.36314007E-02  3.92932883E-03 -4.22833759E-02 -1.48471763E-01  6.10153292E-01
  7.72373699E-02  1.01450739E-01 -3.08602353E-05  1.35641759E-01  1.11230639E-01
  9.12906337E-06 -5.17752159E-02  1.62535665E-05 -5.99020747E-05 -1.24814039E-02
  2.48446836E-02  4.22832065E-02  1.48471397E-01 -6.10165040E-01 -7.73550308E-02
  1.01358037E-01 -7.46744321E-05 -1.35697744E-01  1.11272197E-01 -1.62393819E-04
  5.17562611E-02 -7.09355570E-05  1.24124751E-05  1.24057656E-02  2.49069289E-02
  8.63125254E-04  1.95999695E-01  1.56383261E-01 -2.03250095E-02  2.08126160E-05
  1.83484425E-03 -3.40903320E-02  4.74240485E-02  2.58027647E-02  4.82527104E-04
 -1.82210264E-03  3.39737331E-02 -4.74128582E-02  2.58594353E-02 -4.34485164E-04
 -8.13771694E-04 -1.95894180E-01 -1.56145470E-01 -2.02715865E-02 -5.74150343E-05
 -3.78369528E-03 -1.17950682E-02  2.18717141E-02  1.51925422E-02 -2.55517719E-06
  6.20845731E-05  5.68052908E-03 -8.10249024E-04  3.46900266E-04 -4.59843615E-03
  1.12431034E-04  4.54655068E-06 -2.32132515E-02  2.84622984E-05 -4.38230746E-03
 -1.42894789E-02  3.23682138E-02  1.77615155E-02  1.23569051E-02  8.82572445E-05
 -2.43063220E-02 -2.93799493E-02  3.45144162E-04 -3.27206024E-02  9.36260870E-05
 -4.01998300E-04  1.86071147E-02  1.61953349E-02 -1.20114311E-02 -4.03108832E-02
  1.09632907E-01  3.78401270E-02  3.83394035E-02 -1.01608290E-04 -6.78350382E-02
  5.21885524E-02  1.43649700E-03 -9.16131804E-03  1.27633469E-03  1.90124819E-03
 -1.16155312E-02  6.65234144E-02 -3.63567642E-02 -1.23815879E-01  3.37342898E-01
  1.29098243E-01 -4.80988582E-05 -3.54362990E-04  1.72540381E-01  6.78212428E-04
 -2.02021875E-03 -1.13474575E-01  1.85920108E-03  8.61769535E-06  1.04852436E-01
 -7.42157561E-05 -1.20090301E-02 -4.03026965E-02  1.09612277E-01  3.78144558E-02
 -3.83612546E-02 -1.03169547E-04 -6.91609473E-02 -5.15469437E-02  1.40992078E-03
 -9.16412111E-03  1.25830885E-03 -1.89816157E-03 -1.17187641E-02 -6.64781567E-02
 -4.38170999E-03 -1.42882949E-02  3.23972067E-02  1.77555305E-02 -1.23595305E-02
  8.12895208E-05 -2.55882230E-02  2.87641454E-02  4.34216024E-04 -3.26965352E-02
  6.63755072E-05  4.67134086E-04  1.85973387E-02 -1.61446201E-02 -7.47738209E-04
 -2.72947074E-03  6.14957690E-03  1.36985697E-02  9.15074778E-06  8.43767982E-06
  6.94515127E-03  1.25145258E-04 -1.81516639E-05 -2.26958928E-03  3.74286279E-05
 -1.70577254E-05  2.00373541E-02  2.56739513E-05 -5.48939764E-02 -1.95781604E-01
  4.00560816E-01 -6.19484708E-02 -9.01320669E-07  2.50353938E-02  1.17568745E-02
 -5.81211326E-05 -4.65862126E-04 -5.45334857E-02  8.08588620E-03  2.80616964E-05
  5.02909563E-02 -3.71800104E-05  1.20975891E-01 -2.13247985E-02 -4.57863911E-02
  3.41274475E-02 -4.18837991E-03  1.20971757E-01 -2.12985728E-02 -4.57681568E-02
 -3.41385143E-02 -4.23811176E-03  8.12910696E-04  2.97007175E-03 -1.24176083E-02
  3.01175989E-03 -9.49002378E-04  7.74905927E-07 -2.15968820E-03  2.97650217E-03
 -8.30005159E-06  1.57511498E-03 -1.21312973E-05  1.51088150E-05 -1.75741143E-03
  5.03015116E-03  8.11190474E-04  2.96456551E-03 -1.24075005E-02  3.00902897E-03
  9.49405904E-04  7.50987206E-07 -2.13802857E-03 -2.95431758E-03  6.22267908E-06
  1.58036599E-03 -6.17296051E-06 -1.88468453E-05 -1.74699829E-03 -5.04547993E-03
  1.11931077E-02 -1.10091690E-01 -9.18185360E-03 -5.40705735E-03  7.36135154E-05
  2.88066774E-02  4.08667653E-02  1.88489537E-02  1.70710199E-02  1.40037463E-03
  2.87758332E-02  4.09104535E-02  1.90279296E-02 -1.71912168E-02  1.39620569E-03
  1.12067958E-02 -1.10100797E-01 -9.03291307E-03  5.48617062E-03  5.86791226E-05
 -4.14416846E-02 -1.40789500E-01  3.89568588E-01  9.55580675E-03 -5.01140266E-05
  1.19599497E-04 -3.49678905E-02 -1.25394875E-03  1.56997545E-03 -9.41425020E-02
  1.14366871E-04  2.74589045E-05 -4.69941382E-02  1.04628100E-04 -2.73296594E-02
 -9.25845835E-02  2.46933125E-01 -2.69958431E-03  7.39465273E-02  5.67769389E-05
  1.09282013E-01 -6.54159171E-03 -2.62096373E-03 -6.88526936E-02 -4.34058106E-04
 -2.26793882E-04 -1.75303222E-02 -3.87408387E-02 -1.59734633E-02 -5.34130123E-02
  1.33889394E-01 -5.90723660E-02  3.22434859E-02 -2.08204005E-04 -5.71458825E-03
  8.93779981E-02  6.14368881E-03 -4.76975348E-02  5.85834559E-04  8.94800553E-04
  3.22796027E-02 -1.20740759E-03 -5.42021996E-03 -1.71471827E-02  3.55304457E-02
 -1.08076803E-01  2.19625648E-05 -3.78542001E-04  2.25806137E-01  1.05445305E-03
 -1.29776343E-02 -3.02659792E-02 -1.82396789E-03  1.12047027E-05 -4.22210519E-02
  3.66554030E-05 -1.59675036E-02 -5.33929055E-02  1.33844352E-01 -5.90468286E-02
 -3.22189064E-02 -2.01332060E-04 -7.58812257E-03 -8.83640950E-02  6.08492881E-03
 -4.77030712E-02  5.75997277E-04 -8.98407013E-04  3.21808972E-02  1.24994876E-03
 -2.73200422E-02 -9.25518056E-02  2.46868295E-01 -2.72506475E-03 -7.39146216E-02
  2.96487424E-05  1.07426901E-01  5.42427010E-03 -2.56081598E-03 -6.87934351E-02
 -4.11278797E-04  3.40452177E-04 -1.74480143E-02  3.88355281E-02 -8.98724737E-03
 -3.22296478E-02  7.22736459E-02  2.17905497E-01  1.64579903E-04  5.89124962E-05
  3.98372636E-02  2.58319663E-04 -4.07537818E-04  2.50771334E-03 -5.75218578E-05
  1.01852471E-05  1.01884915E-01  6.89116270E-05  1.64935210E-02  5.82654084E-02
 -1.14257089E-01 -9.87189284E-03  7.24208652E-06 -1.03150621E-02  1.64279664E-01
 -2.06316644E-04  2.96329404E-02 -7.62349652E-03  4.27366519E-03  2.48250961E-05
  5.27736150E-04 -5.04264517E-06 -3.23728388E-02 -2.05531752E-01  3.98056146E-02
 -5.50687970E-02  5.73856875E-03 -3.23655244E-02 -2.05379330E-01  3.98602248E-02
  5.49500864E-02  5.77934876E-03  1.08387525E-02  3.82750193E-02 -1.62446961E-01
  3.12047461E-02 -3.19599302E-02  2.01667312E-05  8.01262875E-03 -1.50821161E-02
  3.61514154E-05  4.15831342E-03 -1.83663283E-06  4.79055234E-05  5.38870877E-03
  1.52351214E-02  1.08194512E-02  3.82080805E-02 -1.62191269E-01  3.11643959E-02
  3.19528931E-02 -8.80774118E-06  8.09617197E-03  1.51459079E-02  3.25711793E-05
  4.14256491E-03  7.32181494E-06 -4.93457207E-05  5.42807185E-03 -1.52292046E-02
  4.48013620E-02 -5.63265442E-02 -4.31166225E-02  4.68479480E-02  4.69315900E-04
  2.60835281E-02 -4.82636407E-02 -1.68440953E-02  7.09538936E-03 -9.31823968E-04
  2.60808972E-02 -4.83185320E-02 -1.66458714E-02 -7.17111489E-03 -9.27727279E-04
  4.48083644E-02 -5.62586791E-02 -4.28344554E-02 -4.67220665E-02  3.98851366E-04
 -2.46283120E-02 -8.64460401E-02  2.90209725E-01 -1.76338366E-01 -1.00914580E-04
  7.32862812E-05 -1.33150761E-01  7.82032163E-04 -9.62751314E-04 -5.25912633E-02
 -5.52472706E-05 -2.35340186E-05  6.85221568E-02  5.61201203E-06  6.60950741E-03
  2.16695308E-02 -4.82911367E-02 -1.14307829E-01  1.43018409E-02  8.40090202E-06
 -5.48465311E-03  3.63127516E-02  2.08354071E-03  2.40447986E-02  5.18165844E-04
  2.54975966E-05 -5.37798018E-02 -4.75425770E-02  2.53667436E-02  8.63352368E-02
 -2.37840381E-01  1.38360042E-02 -5.41675935E-02  3.31789963E-04  4.43726641E-02
 -3.13738896E-02 -4.21269303E-03  5.36475741E-02 -2.38865621E-07 -1.70694755E-04
  1.82533788E-02 -2.91523818E-02  2.15183683E-02  7.27751534E-02 -1.97678076E-01
  1.41261233E-01 -7.12526945E-05  1.25393489E-03 -4.68676336E-02 -7.21625435E-04
  8.68028275E-03  5.05967102E-02  2.08041033E-03 -2.17608560E-05  7.58859208E-02
 -1.22248559E-05  2.53851400E-02  8.63989572E-02 -2.38044560E-01  1.39229890E-02
  5.41594474E-02  3.16574376E-04  4.58180238E-02  3.08512771E-02 -4.21371934E-03
  5.36900504E-02  2.28869813E-05  1.50671773E-04  1.82618551E-02  2.91174479E-02
  6.63995918E-03  2.17760230E-02 -4.86594436E-02 -1.14294262E-01 -1.42504078E-02
  2.39241743E-05 -4.28756952E-03 -3.56587233E-02  2.06248135E-03  2.40803261E-02
  5.94613384E-04 -5.55336637E-05 -5.37071176E-02  4.75133045E-02 -1.61865944E-02
 -5.77864756E-02  1.30559946E-01  2.92866741E-01  1.79387251E-04  2.36215774E-06
 -1.23834093E-02 -8.35469973E-05  3.29755808E-04  1.74508994E-02  4.01092880E-05
  7.62242458E-05  6.48641437E-02  1.27359168E-05 -2.03262476E-02 -7.23253008E-02
  1.48519321E-01  6.60375497E-02 -3.77621174E-05  1.62256822E-02 -5.58162477E-02
  1.06652828E-04 -1.98811027E-02  2.86965494E-04  3.80756106E-04 -8.21328293E-06
 -2.02214186E-02  2.61730977E-05  5.65658586E-02  1.39427508E-01 -2.91070830E-02
  4.10758529E-02 -3.95913557E-03  5.65530596E-02  1.39294368E-01 -2.91476817E-02
 -4.09817266E-02 -3.98706725E-03  1.32889564E-02  4.69414853E-02 -2.07149694E-01
  5.13041648E-02 -3.39997581E-02  1.62179286E-05  2.89035851E-02 -3.21301460E-02
 -1.98659173E-05 -2.61550833E-03 -2.52422151E-06 -2.42690920E-05  1.64791471E-02
  1.04500180E-02  1.32752574E-02  4.68926850E-02 -2.06933940E-01  5.12576963E-02
  3.40372541E-02 -1.85082830E-05  2.89254076E-02  3.21940171E-02 -7.46627285E-05
 -2.64247318E-03  2.01803220E-06  3.13646924E-05  1.65051350E-02 -1.03801904E-02
 -1.02095700E-02  1.00141906E-01 -3.17631144E-02  9.21794847E-03 -3.81836187E-04
 -4.43907707E-02  2.86410429E-02  2.67532830E-03 -3.47333189E-02  9.82310156E-04
 -4.44156238E-02  2.84877717E-02  2.56724669E-03  3.48460826E-02  9.85260109E-04
 -1.02858179E-02  1.00091489E-01 -3.17736226E-02 -9.21314478E-03 -4.02678462E-04
 -1.43807275E-05 -4.98105139E-05  1.51699630E-04 -5.36231364E-05  1.46636913E-01
  3.74688896E-05 -2.20841514E-05 -1.53412800E-01 -1.35809092E-06 -3.76242152E-05
  3.34007761E-05  3.97091730E-07  6.41083681E-05  1.00383373E-01  3.42888457E-02
  1.18673484E-01 -3.59919106E-01 -6.88631216E-02  1.35167866E-02 -1.51664218E-05
 -1.87994845E-02 -1.06015512E-01 -5.14522485E-05  5.25014598E-02 -6.01192484E-05
 -6.28821744E-05 -6.45066236E-02  1.53443378E-02  3.41192619E-02  1.17965936E-01
 -3.54249401E-01  6.64705546E-02  1.28165076E-02  3.67597747E-05 -3.81219035E-02
 -1.68146746E-01  4.98431843E-04  5.05734546E-02 -2.10038118E-05  2.53807736E-05
 -6.68412259E-02 -1.20749162E-02  7.80208726E-06  2.68515740E-05 -8.23643287E-05
  8.20292923E-05  1.53950240E-01  1.88425991E-05 -3.61052361E-05 -2.30324908E-01
 -2.85425342E-05  7.25330468E-06  6.94917257E-06  4.57809307E-04 -4.49841572E-05
 -9.73174314E-02 -3.41020200E-02 -1.17907006E-01  3.54107065E-01 -6.64782589E-02
  1.28815811E-02  1.06680641E-05  3.81030801E-02 -1.68184843E-01 -4.93217976E-04
 -5.05314872E-02 -5.80910748E-06  1.24698278E-05  6.68166585E-02 -1.20849527E-02
 -3.42924612E-02 -1.18687105E-01  3.60009337E-01  6.87632117E-02  1.35048706E-02
  1.10849071E-05  1.86691314E-02 -1.06040544E-01 -9.11014575E-05 -5.25067635E-02
  4.02017872E-05 -5.30931389E-05  6.44643475E-02  1.53717481E-02 -9.66395618E-06
 -3.40770056E-05  7.19811437E-05  1.05040838E-04 -6.84078330E-03  3.92284822E-05
 -3.03602611E-05  5.37873742E-02  1.14649591E-05  4.62414536E-06 -8.07759526E-06
 -4.75887964E-05 -6.00532715E-07  4.44686387E-02 -8.41031497E-06 -2.99455426E-05
  6.18036393E-05  4.77941100E-05  4.69997978E-02  1.99698571E-05 -4.00217701E-06
  6.48095401E-02 -1.12437568E-06 -4.54658731E-08 -3.12828474E-06  3.41442320E-03
 -1.97856869E-05 -2.55984566E-02 -1.49706570E-02 -8.55436570E-03  1.81288566E-04
  1.04623354E-03  2.53828763E-03  1.50252004E-02  8.63021016E-03 -1.90333716E-04
  9.96863354E-04 -2.54000307E-03 -2.89374985E-03 -1.02197367E-02  4.48989009E-02
 -5.61109444E-03  6.30018811E-03  6.63292751E-06  1.29653611E-02  6.69329463E-03
 -2.23907986E-05 -2.81732473E-03 -1.90501266E-06  4.65600578E-07  2.43072651E-03
  2.09281765E-03  2.90532697E-03  1.02607752E-02 -4.50819665E-02  5.63017387E-03
  6.28929503E-03  9.31532248E-06 -1.29267970E-02  6.70335516E-03  2.22932850E-05
  2.81147845E-03 -4.21333476E-06  4.03992709E-06 -2.40717876E-03  2.07746599E-03
 -6.60680620E-02 -1.32105422E-01 -4.42879010E-02 -5.20627766E-02  7.65803480E-05
 -6.60976647E-02 -1.49742059E-01  5.50015946E-02 -5.01811475E-02 -1.51232780E-04
  6.60841880E-02  1.49746341E-01 -5.49791330E-02 -5.01626646E-02  1.40687463E-04
  6.61125466E-02  1.32138951E-01  4.42180993E-02 -5.21117809E-02 -1.29482905E-04
  6.86594108E-03  2.32033802E-02 -5.15369759E-02 -2.38711200E-01 -5.70251947E-05
 -2.30989111E-04 -4.83274692E-02  5.61875298E-04 -2.77376295E-04  4.27267037E-03
 -1.06789071E-04 -6.01770971E-05  1.41096579E-01  2.32519422E-05  2.34271026E-02
  8.11242512E-02 -2.53434324E-01  1.07898965E-03 -3.15822376E-02 -3.42307853E-04
 -2.15607304E-01 -4.40265179E-02 -7.23674892E-04  2.59767274E-02 -5.32989984E-04
  7.84658281E-05  3.89758622E-02 -4.07489301E-03 -7.37441336E-03 -2.57860715E-02
  8.05849584E-02  1.41184521E-01  7.69915404E-02 -1.04521154E-03 -1.27322776E-01
 -3.81863346E-02 -2.03782775E-03 -1.48446154E-02 -1.77582182E-03 -2.38572348E-03
 -6.10540863E-02  2.64292051E-02 -3.37060631E-02 -1.16873664E-01  3.79418979E-01
 -3.27279553E-02  4.57602033E-05 -5.26694152E-03 -2.37057511E-01 -5.82687550E-04
  4.18397981E-03 -1.97237338E-02 -4.23535531E-03  1.16130649E-05 -9.27403373E-02
  4.53629095E-05 -7.38797041E-03 -2.58327100E-02  8.07180998E-02  1.41118038E-01
 -7.70632436E-02 -1.07736345E-03 -1.26127820E-01  3.75279677E-02 -2.03527979E-03
 -1.48688060E-02 -1.76616571E-03  2.41266127E-03 -6.10831387E-02 -2.63915258E-02
  2.34317534E-02  8.11412109E-02 -2.53521783E-01  1.21146968E-03  3.15998945E-02
 -3.24138819E-04 -2.14563904E-01  4.48253597E-02 -6.07537552E-04  2.59822047E-02
 -5.03892042E-04 -1.06131925E-04  3.90524052E-02  4.03940309E-03 -1.85893809E-02
 -6.64785409E-02  1.54848294E-01  2.14245521E-01  9.37376410E-05 -8.37397018E-05
 -5.37868779E-02 -2.89757651E-05 -6.10050115E-05  3.29500125E-02 -5.23790458E-05
  5.58224458E-05  3.30219607E-02  4.05917684E-05  1.82815037E-02  6.60376268E-02
 -1.49111703E-01 -2.12458724E-01  1.01559362E-04 -2.54234013E-02 -2.09243879E-01
  1.33959724E-04 -1.36505960E-02  8.90690550E-03 -1.25535148E-02 -3.26077652E-05
  5.25967632E-02 -2.91678475E-05 -9.95205380E-02  6.80659310E-02 -1.17369313E-02
 -2.69569695E-03  1.24292901E-03 -9.94980213E-02  6.80726239E-02 -1.17506291E-02
  2.71272084E-03  1.24235116E-03  1.17586752E-02  4.18112887E-02 -1.90922663E-01
  6.30999312E-02  3.66876039E-03 -3.77587888E-05  2.72224086E-02 -1.30401488E-02
 -2.88739283E-05 -6.40051813E-03 -1.46373564E-05 -9.75047915E-06  1.15432539E-02
  1.59564151E-02  1.17577233E-02  4.18077430E-02 -1.90908539E-01  6.31114007E-02
 -3.57007318E-03 -3.96463395E-05  2.72311497E-02  1.31569209E-02 -5.63234899E-05
 -6.40773736E-03 -3.51379910E-06  9.91214933E-07  1.15826646E-02 -1.58974264E-02
 -4.77464181E-02 -8.88882770E-02 -2.49550820E-02 -5.13005804E-02 -2.15558630E-04
  1.51560670E-02  2.73430916E-02  2.69031100E-02  4.15489401E-02 -1.66196115E-03
  1.51448499E-02  2.73128380E-02  2.67850518E-02 -4.15122079E-02 -1.67609653E-03
 -4.77592017E-02 -8.89773929E-02 -2.49238503E-02  5.12868327E-02 -1.88512283E-04
  8.21375083E-06  2.88015038E-05 -9.62099359E-05  1.47817734E-05 -2.32869590E-01
 -9.30589500E-05  4.23530424E-05 -2.67046240E-02 -1.50201973E-05  2.23576557E-05
 -8.74076001E-06 -2.42869887E-04 -6.08965429E-05 -4.86234334E-02 -2.51181773E-02
 -8.78627287E-02  3.03572707E-01 -1.10675181E-01  4.10666553E-03  7.91561029E-05
  2.92551912E-02  3.44761929E-02 -4.91085150E-04 -9.32308081E-03  2.50396563E-06
 -2.57060323E-05 -2.65028622E-02 -6.63963803E-04  2.16296232E-02  7.56237583E-02
 -2.61753734E-01 -1.52123375E-01 -1.89073985E-02  2.39641285E-05  3.74863311E-02
 -4.04803152E-02 -4.10578212E-04  3.67648468E-03 -7.52285284E-05 -6.58830504E-04
  2.77053873E-02 -3.86525262E-04  1.80729268E-06  6.54469932E-06 -3.26360262E-05
  7.06179680E-05  2.79859973E-01  3.00128288E-05  2.52334896E-05  2.78055472E-02
 -4.66146739E-06 -1.52999623E-05  6.57829134E-06 -2.49474680E-03  1.74834482E-05
 -2.40814357E-02 -2.16352519E-02 -7.56431926E-02  2.61819275E-01  1.52006578E-01
 -1.89608951E-02 -3.34345533E-05 -3.74128385E-02 -4.04848607E-02  4.11563016E-04
 -3.68173228E-03  1.04211698E-04 -6.56418188E-04 -2.76805779E-02 -4.04373268E-04
  2.51117376E-02  8.78408111E-02 -3.03521347E-01  1.10735171E-01  4.09128765E-03
 -1.33259484E-04 -2.91628502E-02  3.44708032E-02  5.51447274E-04  9.32553103E-03
 -8.09690922E-07 -5.48320092E-05  2.65077832E-02 -7.20667917E-04  1.16468122E-05
  4.17320496E-05 -9.88640769E-05 -4.34752909E-07 -1.27168715E-02 -1.41594017E-04
  5.90179618E-06 -2.21150292E-02 -1.92085178E-05 -1.59779877E-05  2.99953197E-06
  2.40337018E-05  4.99467710E-06 -4.75159724E-02 -3.49493504E-06 -1.26108787E-05
  2.82615036E-05  8.88415904E-05  2.01219806E-01  8.13101223E-05  7.02838565E-05
  6.92748864E-02  2.07335092E-05  6.17516986E-06  1.25220994E-05  1.01383213E-02
 -1.49672419E-05 -1.52950335E-02 -7.73086650E-02 -4.34381715E-02  1.14168213E-02
 -8.46369812E-03  8.63530745E-03  7.73396954E-02  4.33755597E-02 -1.14111550E-02
 -8.44942456E-03 -8.65794894E-03  5.28276099E-03  1.87788099E-02 -8.41264560E-02
  2.64241622E-02 -2.86728365E-03 -4.88592080E-05 -3.00474187E-03 -1.22314516E-02
 -2.82629187E-05  3.52301423E-03 -1.47360081E-05 -1.12125516E-06  4.27737182E-03
 -1.21599903E-03 -5.29836283E-03 -1.88341395E-02  8.43740847E-02 -2.64218872E-02
 -2.74557274E-03 -7.61191221E-05  3.02050994E-03 -1.22060082E-02 -2.54850988E-05
 -3.51728375E-03  1.70434362E-06  1.13775732E-05 -4.26890518E-03 -1.21405791E-03
  8.17809293E-02  8.83829346E-02  1.82492769E-03  4.87194652E-02  4.80801893E-05
 -7.68900385E-02 -9.94331575E-02  4.31496242E-03 -4.76976064E-02 -8.82030793E-04
  7.68587688E-02  9.94145844E-02 -4.33466046E-03 -4.76990387E-02  8.60295230E-04
 -8.17580595E-02 -8.83687737E-02 -1.77246753E-03  4.87339805E-02  1.90516465E-06
 -2.27472689E-02 -7.91036846E-02  2.63701753E-01  2.03016072E-01  1.28315329E-04
 -2.52475005E-04  1.35636749E-02 -6.42905776E-04  6.97085326E-04  6.53522952E-03
 -2.27284552E-04  6.57302654E-05 -9.45249680E-02 -4.04329645E-06  2.03898012E-03
  7.46181769E-03 -3.30700299E-02 -1.37905358E-01  1.93541458E-01 -7.12828377E-04
  1.16393233E-01  7.98702378E-02 -1.65074573E-03  6.73552592E-03 -6.03337101E-04
  5.02381971E-06 -7.51372084E-02  4.15580497E-03  2.06049280E-02  7.19222006E-02
 -2.42780534E-01  5.46097577E-02  1.44394054E-01 -2.32227930E-03  1.57613541E-01
 -9.56491662E-02 -1.24883514E-04 -4.33924927E-05 -8.61994066E-04 -2.07854221E-03
  1.42145737E-02  3.37905276E-02 -1.80454681E-02 -6.27596298E-02  2.24574364E-01
  1.04204170E-01  4.52866362E-05 -9.58593091E-03 -1.23874007E-01  7.09622785E-04
 -3.18214165E-03  1.29201913E-02 -6.59811543E-03 -9.99926456E-06  9.61060749E-02
 -3.98154499E-05  2.06106933E-02  7.19424850E-02 -2.42855609E-01  5.46385199E-02
 -1.44524541E-01 -2.39003463E-03  1.56390856E-01  9.63186850E-02 -1.26762812E-04
 -3.25698506E-05 -8.50437353E-04  2.06107839E-03  1.42224127E-02 -3.37998493E-02
  2.02861648E-03  7.42568238E-03 -3.29535118E-02 -1.38109913E-01 -1.93638755E-01
 -7.95980782E-04  1.15220042E-01 -8.06568429E-02 -1.74415866E-03  6.72392312E-03
 -5.69878635E-04  3.94107463E-05 -7.51379187E-02 -4.08827959E-03  1.70510724E-02
  6.12274194E-02 -1.50315347E-01 -8.64699590E-02 -4.59289698E-05 -2.36443425E-04
  5.99567232E-02  4.22847396E-05 -4.62324522E-04 -5.01111434E-02 -1.40370740E-04
 -5.09159120E-05 -2.25492869E-02 -1.76315315E-05  3.27691435E-03  1.21677074E-02
 -3.29607117E-02 -2.21715114E-01  2.11296470E-04 -2.10670749E-02 -7.40788317E-02
 -3.48666029E-07 -2.83163296E-03 -4.34623941E-03 -7.74422167E-03 -1.43599229E-06
  1.89223130E-02 -1.29155027E-06 -6.84648729E-02 -3.72595735E-02 -1.33035247E-03
 -1.39316218E-02  4.68184462E-03 -6.83434092E-02 -3.71871575E-02 -1.33207348E-03
  1.39142745E-02  4.68693775E-03 -1.25691152E-02 -4.47841758E-02  2.06941811E-01
 -7.12492491E-02 -5.98257320E-02 -1.07451180E-04 -2.24052516E-02 -9.27335819E-03
 -3.79321347E-05  9.13918653E-03 -8.35957500E-06  7.23504064E-06 -3.82569467E-03
 -1.35574490E-02 -1.25683868E-02 -4.47814843E-02  2.06931665E-01 -7.13146818E-02
  5.97669867E-02 -1.74342154E-04 -2.24468570E-02  9.19013471E-03 -5.07097759E-05
  9.14469186E-03 -2.07051716E-05  9.40543404E-06 -3.87209444E-03  1.35257751E-02
 -4.26201961E-02  4.98580992E-03 -1.78849940E-02  1.94028790E-02 -1.89635096E-05
 -9.26599851E-02 -1.48093818E-01  2.48340251E-02 -3.71030871E-02 -1.73768267E-03
 -9.27201885E-02 -1.48125946E-01  2.49372975E-02  3.70638447E-02 -1.71812434E-03
 -4.26669033E-02  5.06786866E-03 -1.78466243E-02 -1.93611810E-02 -2.42152654E-06
  4.07504583E-03  1.47548746E-02 -4.75338443E-02 -7.97424922E-02 -1.81384964E-04
 -9.71043794E-04  6.42082307E-02 -1.34148133E-03  9.82880127E-04  7.73250913E-03
 -1.51417699E-04  7.00487395E-05 -6.71130908E-02  2.17928225E-05 -1.01020136E-02
 -3.49052867E-02  1.14607743E-01 -6.96130875E-02 -1.64305386E-01 -8.19914610E-04
  8.12944923E-02  4.07720857E-02 -2.41490051E-03 -7.54778989E-03 -8.59075789E-04
 -6.16815610E-05  5.12999125E-03  5.71051936E-03  2.40061349E-04  1.12892030E-03
 -8.45095724E-03  1.87827462E-02 -1.54753912E-01 -3.06756079E-03  1.32174303E-01
 -6.71865603E-02  1.02785885E-03 -1.80264837E-02 -7.07194036E-04 -2.29212478E-03
  4.70278025E-02  3.44083921E-02 -8.00929647E-04 -2.25075236E-03  6.34971060E-03
  2.57176977E-01 -2.43496637E-04 -1.33728133E-02 -2.26528851E-02  1.31735198E-03
 -7.32382407E-03 -1.19199583E-02 -8.40331981E-03  1.25925754E-05  6.25141271E-02
 -1.36671475E-04  2.18716701E-04  1.05430261E-03 -8.19952938E-03  1.85373852E-02
  1.54939509E-01 -3.01288524E-03  1.29950034E-01  6.83827395E-02  1.06633004E-03
 -1.80306937E-02 -7.29798855E-04  2.29151003E-03  4.69916286E-02 -3.44252666E-02
 -1.00983031E-02 -3.48916192E-02  1.14536093E-01 -6.91227479E-02  1.64458087E-01
 -7.00770287E-04  7.89132296E-02 -4.21620957E-02 -2.51166104E-03 -7.55496412E-03
 -9.07028341E-04  1.03465502E-04  5.14996225E-03 -5.66605689E-03  1.45844485E-02
  5.22500526E-02 -1.30783539E-01  1.28202986E-01  5.08435401E-05 -1.77528073E-03
  4.87533365E-03  8.96830028E-05 -8.69610591E-04 -4.55772480E-02 -1.77525884E-04
 -7.74300302E-05 -6.52176489E-02 -1.20193032E-04  1.99339072E-03  7.30891265E-03
 -1.77553524E-02 -2.62247978E-01 -2.90686712E-04 -2.55149438E-02  1.93339653E-02
 -2.98412241E-04  4.06301861E-03  1.54205344E-03 -5.36363861E-03 -1.74353501E-05
  4.26978697E-03 -3.12741355E-05 -7.28569441E-02 -1.07105619E-01  4.18848739E-03
 -3.32629747E-02  7.17965197E-03 -7.31654017E-02 -1.07001079E-01  4.24494888E-03
  3.31957069E-02  7.21780164E-03 -1.75003132E-02 -6.23193583E-02  2.84955610E-01
 -2.10250487E-02 -1.84902868E-01 -8.83352932E-04  9.64500109E-03 -5.27169880E-02
 -3.51054798E-04  5.92266253E-03 -7.23041338E-05 -9.58320701E-05  1.13281422E-02
 -8.81273057E-03 -1.75188058E-02 -6.23849432E-02  2.85251037E-01 -2.13799997E-02
  1.84882078E-01 -1.05967907E-03  9.52414914E-03  5.25771727E-02 -3.86843445E-04
  5.92113435E-03 -6.71849576E-05  1.34158138E-04  1.12712781E-02  8.78891445E-03
  1.11679065E-01  7.94523540E-02  3.58286929E-02  1.20686206E-02 -2.81479580E-05
  6.49458458E-02 -3.89161721E-02 -1.57708024E-02 -1.95288742E-02 -2.18771685E-03
  6.50215368E-02 -3.88076901E-02 -1.56251335E-02  1.94117270E-02 -2.18548456E-03
  1.11598766E-01  7.95759963E-02  3.60023934E-02 -1.19823511E-02 -5.62927783E-05
  4.85333016E-06  1.96087419E-05  5.37642757E-05 -6.19957820E-04  1.96988377E-03
  1.49553763E-01  7.88868910E-04  2.69272050E-03  1.55005698E-02  2.51703444E-04
 -4.96171744E-02 -3.59185123E-05 -5.57267503E-05 -2.33305567E-04  5.14759823E-05
  1.84471008E-04 -7.28849389E-04  1.19850137E-03 -9.72769170E-04  4.40487269E-02
 -1.65168613E-03  1.47545652E-03  1.48855269E-02 -1.14642181E-05  1.07502836E-03
  1.74560284E-02  4.69739356E-04 -6.44916927E-05 -1.18936118E-04 -4.12904028E-04
  1.28195620E-03 -3.71071574E-04 -7.40525781E-04  1.27228241E-02 -8.58567204E-04
 -8.60026299E-04  5.18818208E-03 -2.07157561E-04 -3.76687270E-03  6.31498268E-04
 -6.12207575E-05  8.21383664E-05 -6.44258401E-05 -2.19766127E-04  6.86840786E-04
  1.18089979E-04  1.02502413E-03  8.81293535E-03  6.47038061E-04 -1.52425169E-03
 -3.19911583E-03  4.69855776E-05 -3.79374179E-03 -4.98842553E-05 -2.16398424E-04
  8.96885786E-04  1.13666568E-04  3.99322619E-04 -1.35933099E-03  1.52493120E-03
 -6.82896017E-04  1.27158146E-02  1.51265714E-03 -8.86614987E-04  5.17238120E-03
 -3.62059147E-05 -3.76863578E-03 -6.46662974E-04 -2.37283280E-04 -1.20889175E-04
 -2.12235361E-05 -7.59733037E-05  3.74060730E-04 -2.32807337E-03 -1.91784937E-04
  4.40187535E-02  2.31764486E-03  1.18095349E-03  1.49776771E-02 -7.09950396E-05
  1.06375688E-03 -1.74642618E-02 -1.09873237E-04  6.09111650E-05  1.23145418E-04
  4.42560179E-04 -1.14692776E-03  1.42671235E-03  1.02189361E-03  5.46375128E-01
  1.40508652E-04 -4.27070706E-04  5.70671331E-02 -5.01338762E-04 -2.29649260E-03
 -2.77226927E-06 -6.70910794E-04  3.71556367E-04  6.49982486E-05  2.32936437E-04
 -5.15952590E-04 -4.68540493E-04  3.57316883E-03  3.31285776E-03  4.17912560E-04
  1.41977919E-03  5.46743816E-03  1.15730145E-06 -2.36659624E-03  1.78187105E-04
 -5.34153582E-05  3.42194867E-04 -1.62104117E-03 -7.71475512E-04  2.40118212E-04
 -1.81004887E-04  7.84982129E-04  1.44311937E-03 -5.98920086E-04  1.57635755E-05
  1.68517825E-04  6.51897562E-04 -2.52895730E-04 -9.00524937E-04  4.09781571E-03
 -9.23798017E-04 -2.13211175E-03  2.96424710E-01 -9.09789281E-05 -5.06550324E-04
  1.33019089E-01 -7.94527342E-07  2.63349345E-02  4.28963606E-02  1.28307192E-05
 -1.37497688E-04 -8.98194391E-05 -3.20074421E-04  1.48267230E-03  3.91833660E-04
  1.70002810E-03  2.96491386E-01  2.02388320E-04  5.78032329E-04  1.33049942E-01
  1.53947294E-04  2.63854397E-02 -4.28745828E-02  2.05888989E-04  3.74032955E-05
  8.03880933E-05  5.46057716E-04  8.36683672E-04 -2.80811268E-04  8.24440516E-03
  5.29105443E-04 -2.37022106E-05 -4.85139696E-05  1.37934644E-04  2.16214254E-03
 -1.99426882E-04 -6.36861125E-04  2.69025908E-04  1.53457388E-04  2.18402672E-03
  6.51120975E-04  2.24337971E-04 -2.68432133E-04 -1.90468520E-04  8.22270550E-03
  9.50088834E-06  3.26385878E-05 -1.36125112E-04  1.05658914E-05  2.26158786E-01
 -1.28422950E-03 -3.47625449E-04  2.83633981E-01 -9.97720860E-05 -9.32345628E-05
  4.68883627E-04 -9.49647430E-06 -1.34730241E-04 -2.07194469E-02  5.22566421E-03
  1.86509637E-02 -7.58917559E-02  1.95324480E-01 -6.36934478E-02 -2.62873996E-04
 -2.06488879E-01  1.47122101E-01 -4.24554805E-04  3.66940590E-03  3.20041790E-05
  1.57714511E-04  3.25382713E-02  4.76994123E-04 -1.34636735E-02 -4.70454574E-02
  1.54101614E-01 -9.50960117E-02 -7.95957435E-02 -2.88593497E-04 -1.18526004E-01
 -9.39610262E-02 -1.12749649E-03 -9.41649855E-03  6.20914860E-04 -1.14315137E-03
  8.19621016E-03 -1.43809697E-03  4.85522378E-06  1.73828147E-05 -5.12401589E-05
  6.96563413E-04  1.03842296E-01 -4.92441467E-05 -3.16777888E-04 -1.55349643E-01
  1.22774696E-05 -1.12254536E-05  3.85579246E-05 -5.99711366E-03  2.49947172E-04
  1.01057963E-01  1.34709270E-02  4.70704976E-02 -1.54188692E-01  9.49122529E-02
 -7.89450464E-02  3.39520769E-05  1.18895119E-01 -9.35826711E-02  9.55263420E-04
  9.36315052E-03 -5.44125161E-04 -1.14463777E-03 -7.88397770E-03 -1.60488221E-03
 -5.28430545E-03 -1.88552329E-02  7.65863151E-02 -1.95439368E-01 -6.30169169E-02
 -4.96744268E-04  2.06801701E-01  1.46690823E-01  2.38485404E-04 -3.65551365E-03
 -4.16039925E-05  5.14081360E-04 -3.26434144E-02  3.62840943E-04 -2.14668259E-05
 -7.77458740E-05  2.09256306E-04 -2.92996415E-04  9.14827909E-02 -4.90745562E-03
 -6.27914168E-05 -5.16499174E-02 -4.75623195E-04  8.89558283E-05  1.68739062E-05
 -9.41520385E-07  6.78337479E-05  4.69087271E-02 -3.87768453E-07 -7.08041192E-07
 -6.92043980E-06 -5.22809938E-04  3.99099128E-01  1.36200789E-04 -4.53102410E-05
  1.56396258E-01  2.75405392E-05  3.43703584E-05  2.69427141E-05  1.97654899E-02
  5.34319856E-05  3.96671405E-02 -1.71819463E-01 -9.73659577E-03  1.24594685E-02
 -5.54312928E-04  7.40427251E-03  1.71476287E-01  9.53929813E-03 -1.25010064E-02
 -4.30575486E-04 -7.38496775E-03 -1.00171091E-02 -3.56593700E-02  1.60812657E-01
 -8.23028607E-02 -4.88851619E-02 -2.65207097E-03 -1.80575332E-02 -6.00446965E-03
 -1.20930427E-03 -4.40740783E-03 -2.40634962E-04 -3.95757436E-04 -8.25120885E-03
 -8.41156104E-03  1.00739577E-02  3.58619611E-02 -1.61741800E-01  8.24383298E-02
 -4.94275534E-02 -2.60470820E-03  1.80638205E-02 -6.09066864E-03 -1.17903349E-03
  4.38278140E-03 -2.28268190E-04  3.74235538E-04  8.22600557E-03 -8.40924254E-03
 -3.34214461E-02  1.92060676E-02  6.23017592E-02 -2.80148044E-02  2.77822394E-04
  4.46977257E-02  3.57828174E-02 -1.79155063E-02  1.72807364E-02 -1.12096171E-03
 -4.45320199E-02 -3.57366544E-02  1.77700732E-02  1.73618581E-02  1.09571103E-03
  3.37893660E-02 -1.89158888E-02 -6.22650331E-02 -2.80845964E-02 -4.54065430E-04
 -1.01004490E-04  6.07877465E-05  2.20951327E-02 -1.11832262E-01  4.82054191E-04
 -8.35065593E-05  2.21210961E-01 -4.19350289E-04 -2.88574176E-05  4.73986850E-02
  5.47587890E-04  1.43562678E-05  9.57931128E-02 -5.48561644E-05  1.13207125E-02
  3.95527465E-02 -1.32586282E-01  2.81285398E-02  3.75631580E-02  1.04089386E-03
 -5.32118175E-02 -8.19103480E-02  9.42484540E-04 -4.76158231E-03  7.89850535E-04
 -3.28483309E-05  6.06474432E-02 -4.66309058E-02 -6.72167782E-03 -2.31017268E-02
  7.16801172E-02  3.99575190E-02  8.60781323E-02  3.86641369E-03 -6.42056581E-02
  1.08392665E-01  2.73398881E-03  4.94505074E-03  1.39348300E-03  3.18516024E-03
 -6.71797227E-02 -4.15498470E-02 -1.25238659E-04 -4.87004729E-04 -4.56867799E-03
 -2.65080569E-01  2.06298720E-04  1.56005276E-02  1.87141659E-01  5.78916129E-04
 -4.82947766E-04 -8.94156010E-03  7.80929218E-03 -1.98820903E-05 -1.01947975E-01
  1.96115846E-04 -6.67612418E-03 -2.29424945E-02  7.11583227E-02  4.00767184E-02
 -8.64243310E-02  3.83703805E-03 -6.54477205E-02 -1.07820729E-01  2.72850897E-03
  4.98240580E-03  1.42285403E-03 -3.21257114E-03 -6.71262791E-02  4.16051773E-02
  1.12876940E-02  3.94363324E-02 -1.32189839E-01  2.75330372E-02 -3.79169590E-02
  9.66572802E-04 -5.41713177E-02  8.15123232E-02  9.54358340E-04 -4.79604123E-03
  7.69714974E-04 -6.01585114E-06  6.05831420E-02  4.66163436E-02  1.38878933E-02
  5.00715290E-02 -1.34706336E-01  2.62926232E-01  3.38970172E-04 -2.85099764E-03
  2.91302548E-02 -7.67533903E-05 -7.72574407E-06 -6.79226461E-02  1.73180894E-04
 -1.02501732E-04 -9.82848377E-02 -6.96929569E-06  7.91055913E-04  2.36777359E-03
  1.09277421E-03  2.68132069E-01  5.46277131E-04  2.63303012E-02  9.05862339E-02
  1.22632129E-04  1.23975328E-02 -7.54272468E-03  8.30313053E-03  4.41285092E-05
 -1.10478212E-02  6.68285113E-05  7.30287907E-02  4.27560224E-04  1.36955838E-02
  1.02126325E-02 -4.12877313E-03  7.35794652E-02  5.36160704E-04  1.36484587E-02
 -1.02305599E-02 -4.17248062E-03 -2.33270835E-02 -8.31379636E-02  3.81129578E-01
 -1.78682586E-02 -2.73579849E-01 -1.49822844E-03  1.30006644E-02 -7.44521331E-02
 -6.76892854E-04  7.25340166E-03 -1.36917390E-04 -2.24216541E-04  1.61060911E-02
 -5.96847469E-03 -2.32855068E-02 -8.29897267E-02  3.80460738E-01 -1.77849727E-02
  2.73425811E-01 -1.81039401E-03  1.29710951E-02  7.43362556E-02 -7.58092667E-04
  7.27807310E-03 -1.34958639E-04  2.72219249E-04  1.61100938E-02  5.91834893E-03
 -4.03756131E-02 -2.74540456E-02  3.46103912E-02 -2.63739458E-02  3.85849178E-04
 -3.09574268E-03 -1.34177975E-02  1.83412485E-02  1.40810721E-02  1.99530565E-03
 -3.32676630E-03 -1.35204550E-02  1.84859411E-02 -1.40996541E-02  2.00591031E-03
 -4.03389065E-02 -2.74442822E-02  3.44829488E-02  2.63193241E-02  4.06810830E-04
  9.68078043E-07  2.57471141E-06  1.04942215E-05  5.27267305E-05  5.39296893E-03
 -3.32137664E-05 -2.23912367E-04  7.97212427E-01  8.91554137E-05 -2.75522265E-05
  4.70960781E-05  1.29589109E-04  1.79754427E-05 -1.06700545E-01 -6.18908165E-03
 -2.13864699E-02  6.78464693E-02 -2.94113883E-02 -4.91037651E-02  5.06565378E-05
 -5.27985496E-01  4.42437876E-01 -2.83706961E-04  2.00256355E-02 -4.12340829E-05
  2.58827717E-05  1.90817081E-02  8.89825900E-03  6.96972214E-03  2.42780645E-02
 -8.01599929E-02 -3.92938991E-02  8.00087745E-04  1.91444666E-04 -4.81881445E-01
 -3.56811687E-01  1.32087723E-03 -2.54557600E-03 -1.02586719E-04  7.80139089E-04
  8.73118744E-03  7.98648309E-03 -3.62415816E-06 -1.23330047E-05  4.03969402E-05
  1.01695471E-05  4.69114772E-02 -5.90823770E-05 -9.24496334E-05 -5.75603430E-01
  4.31319886E-05  7.77819402E-06 -1.65462079E-05  3.04759194E-03  3.23373077E-06
 -3.70327769E-02 -6.96200919E-03 -2.42509132E-02  8.00608941E-02  3.92562754E-02
  6.86609562E-04 -2.47474699E-04  4.81783850E-01 -3.56929764E-01 -1.65353187E-03
  2.51859159E-03  1.47668360E-04  7.80566506E-04 -8.73327261E-03  7.96315260E-03
  6.18535196E-03  2.13730576E-02 -6.77609843E-02  2.93461341E-02 -4.91411247E-02
 -1.40456756E-04  5.28477595E-01  4.41974084E-01  5.36565762E-04 -1.99673497E-02
  4.64445267E-05  8.71903793E-05 -1.91263258E-02  8.87361452E-03 -2.24671417E-06
 -8.59210528E-06  3.32149918E-05 -2.16769062E-04  3.50337445E-01 -6.27269844E-05
  3.75433596E-06 -2.55847058E-01  8.96505198E-05  1.48650717E-05 -1.96737744E-05
  4.55380686E-05 -3.93180420E-05  1.83828412E-02 -9.19861703E-07 -3.32284217E-06
  6.90466303E-06 -7.32661774E-05 -1.73164246E-01 -1.36268307E-04  2.17012445E-05
  1.56101791E-02 -5.92412033E-05 -1.67335287E-05 -1.89348451E-06 -7.47869535E-03
 -1.52101431E-05 -2.54025195E-02  8.09911189E-02  3.62857201E-02 -4.45907880E-03
  9.01259476E-03 -6.49016996E-03 -8.10019966E-02 -3.63781646E-02  4.47789830E-03
  9.01310784E-03  6.50854917E-03 -2.42367745E-02 -8.63295554E-02  3.89357842E-01
 -2.35131306E-01 -2.72444498E-01  1.64359470E-04 -7.77588121E-02 -9.03408216E-02
  9.28747978E-05 -3.47145838E-03  3.44420903E-05 -1.66496426E-05 -4.40352944E-03
 -3.71833523E-02  2.42458949E-02  8.63626836E-02 -3.89529426E-01  2.35572040E-01
 -2.72258756E-01  2.91462095E-04  7.79559897E-02 -9.01242541E-02  5.89727806E-05
  3.45374859E-03  6.11902230E-06 -5.20695230E-05  4.48869732E-03 -3.71487667E-02
  4.73299759E-02  1.69928201E-01  1.12418531E-01 -1.00673780E-02 -1.56471020E-04
 -2.94522906E-02 -5.00608803E-02  3.87696447E-02  8.22759097E-03  8.45817577E-04
  2.93806578E-02  4.99979237E-02 -3.87452198E-02  8.26367356E-03 -8.20440548E-04
 -4.72763533E-02 -1.69848836E-01 -1.12254508E-01 -1.00005935E-02  1.28708009E-04
 -1.52246175E-05 -5.30243055E-05  1.86018365E-04  1.70835629E-05  2.73499065E-01
  8.00564905E-07  2.04352150E-04 -2.64969922E-01 -5.42414866E-05  1.81416585E-05
 -1.00901548E-05  8.46911744E-05  1.07838208E-04  4.35910903E-02 -2.07995796E-03
 -7.30717779E-03  2.48031474E-02  1.88978422E-01 -1.78299636E-01  1.51649378E-04
  1.43702820E-01 -8.74306220E-02  3.89116698E-04 -8.22176061E-03 -7.11493918E-05
 -2.29548347E-04 -1.06118739E-02  1.10168105E-02  5.29997683E-03  1.87654282E-02
 -6.62486455E-02 -2.22307785E-01 -1.39385486E-01  7.16162860E-04  1.09683998E-01
  7.80323294E-02  7.72828135E-04  5.56251070E-03 -7.41381629E-04  8.86101327E-04
 -3.93211984E-04 -1.90628768E-03  1.65857249E-05  5.80161842E-05 -2.11579181E-04
  2.52240398E-04  2.81753300E-01 -2.39669932E-04  2.05868477E-04  1.16338792E-01
  2.96461051E-05 -3.35170532E-05 -3.50181690E-05  5.19519358E-03 -9.35931873E-05
 -7.88233251E-02 -5.32922927E-03 -1.88673553E-02  6.65990130E-02  2.22301027E-01
 -1.38948425E-01 -1.02240786E-03 -1.09638502E-01  7.76886271E-02 -8.37236104E-04
 -5.52937633E-03  7.35435949E-04  9.57679257E-04  3.86362803E-04 -1.70853973E-03
  2.09596063E-03  7.36374851E-03 -2.50273531E-02 -1.88811093E-01 -1.78527814E-01
 -3.55667668E-04 -1.43948874E-01 -8.70378455E-02 -4.19586144E-04  8.18274142E-03
  7.10555314E-05 -2.41981949E-04  1.07530291E-02  1.12638858E-02 -1.31818658E-06
 -4.45150722E-06  2.03878720E-06  1.26971192E-04 -1.07792250E-01 -1.82848770E-05
  1.05950694E-05  1.14955527E-01 -1.09955449E-05 -3.00910652E-05 -4.01910123E-06
 -2.18354286E-05 -2.06937224E-05  4.38094741E-02 -2.83595949E-06 -1.01479558E-05
  2.35025643E-05 -1.42853317E-04 -2.64063680E-01 -3.89346447E-04  4.34568437E-05
 -1.08537110E-01 -1.94093173E-04 -1.67103780E-05 -8.89532465E-06 -1.66057457E-02
 -5.90790860E-05 -6.92656747E-02  1.34353879E-01 -2.17348447E-02 -5.82155608E-03
 -1.44507571E-02 -4.65795040E-03 -1.34403389E-01  2.16423609E-02  5.79630502E-03
 -1.44126748E-02  4.63781373E-03  4.73348202E-03  1.68878020E-02 -7.57450289E-02
  5.41454932E-02  1.16179969E-01 -9.49837281E-05  3.03406568E-02  4.78850474E-02
 -3.16620003E-05 -3.27707301E-03  5.87131380E-06 -2.23519760E-05 -4.89323729E-03
  1.11452846E-02 -4.74078905E-03 -1.69142103E-02  7.58779400E-02 -5.43952351E-02
  1.16182881E-01 -1.69479917E-04 -3.04487965E-02  4.78558474E-02 -1.09986244E-04
  3.28682859E-03 -3.91535632E-05  8.75856133E-06  4.84863347E-03  1.11473599E-02
  3.54003398E-02  2.86559029E-03  9.53357821E-03 -5.03778704E-03 -3.36091629E-04
 -9.13986540E-03 -3.39683935E-03 -3.35185222E-02 -2.51576410E-02  8.02713355E-04
  9.41844020E-03  3.66440525E-03  3.33951800E-02 -2.51727532E-02 -8.46130684E-04
 -3.56992536E-02 -3.03751243E-03 -9.54822437E-03 -5.01487314E-03  3.16857762E-04
 -2.03055025E-02 -7.09523085E-02  2.47494617E-01  1.07514316E-01 -2.92444615E-04
 -5.59973496E-04  1.17040176E-01  5.92711965E-04  7.66993811E-05  2.18968888E-02
 -1.57540858E-04 -3.44355731E-05  5.51742265E-02 -1.60370270E-04  1.05857303E-02
  3.71411874E-02 -1.35803442E-01  2.01955274E-02  2.15973170E-01 -9.28746080E-04
  1.43629339E-02 -1.58847602E-01 -1.55086315E-04 -1.47761002E-02  1.27139705E-04
  3.54875323E-05  8.01191263E-03 -1.28751789E-01 -1.03721970E-02 -3.63161784E-02
  1.30679358E-01  1.14994132E-01 -2.40037749E-01 -8.74852851E-04 -6.48915254E-04
  1.75055462E-01 -3.12236975E-05  8.60045977E-03  2.97025561E-04 -3.10108879E-04
 -1.96769147E-02 -1.21938591E-01  1.51543266E-02  5.30571307E-02 -1.88259621E-01
  1.28534965E-01 -3.94284212E-04 -2.90705745E-03  1.67074566E-01 -2.12767120E-04
 -2.31022182E-03 -2.00451288E-02 -1.08522876E-03 -1.53350895E-05 -8.41406895E-02
  1.84300984E-04 -1.03641241E-02 -3.62878672E-02  1.30589740E-01  1.15160688E-01
  2.40892477E-01 -8.94958183E-04 -2.05825023E-04 -1.75395374E-01 -1.11867479E-04
  8.58510819E-03  3.80369952E-04  2.94515672E-04 -1.97521167E-02  1.21989974E-01
  1.06018355E-02  3.71977143E-02 -1.35995885E-01  1.99970701E-02 -2.15321681E-01
 -1.17387851E-03  1.51941282E-02  1.59445650E-01 -7.52986130E-05 -1.47946863E-02
  1.92182792E-04 -8.32587903E-05  8.02022674E-03  1.28734209E-01  3.44503186E-03
  1.24738398E-02 -3.38714492E-02 -1.34018432E-02  1.20259255E-04  4.54368849E-04
  3.26219339E-02 -2.01240421E-04 -8.27628584E-05 -2.44832915E-02 -1.25838945E-04
 -8.36573804E-06  2.28520504E-02  2.02892624E-07  1.30172228E-03  4.68423978E-03
 -8.81925184E-03 -2.54591530E-02  2.00778898E-04 -4.33675403E-03  5.10864587E-02
  2.16757805E-05  1.62633093E-03  6.32291618E-03  4.15471861E-04  1.69753119E-05
 -1.77558542E-02  7.69450226E-05 -7.14979832E-03 -3.38816777E-02  3.26954570E-03
 -9.56668077E-03  2.35923101E-03 -6.94111124E-03 -3.38808557E-02  3.25697242E-03
  9.55733670E-03  2.36208266E-03 -2.75096589E-03 -9.92493266E-03  4.89786314E-02
 -7.16859759E-02  9.19367216E-04  3.95079818E-04 -2.71375219E-02  5.78374391E-04
  1.58265178E-04  5.41501816E-03  2.43234605E-05  4.61939211E-05 -4.36488471E-03
 -1.94797250E-03 -2.72781072E-03 -9.84217438E-03  4.86014973E-02 -7.13206154E-02
 -1.13823191E-03  3.20415101E-04 -2.69672575E-02 -6.35371529E-04  1.21115314E-04
  5.40865310E-03  1.18127181E-05 -4.27424713E-05 -4.34634962E-03  1.91634784E-03
 -1.35851385E-01 -9.05780380E-02 -3.96289668E-02  1.61720942E-03  4.75478132E-07
  1.72140396E-01  1.22290586E-01 -3.25642610E-02  4.69539504E-03 -2.60728944E-04
  1.72534186E-01  1.22528252E-01 -3.25986140E-02 -4.64929534E-03 -2.76013972E-04
 -1.35598916E-01 -9.05969332E-02 -3.97310861E-02 -1.59066104E-03  1.64558074E-05
  2.72662361E-05  9.51431193E-05 -3.16134766E-04 -2.54602467E-04 -7.94255967E-02
  3.05145998E-05  1.60285139E-05  1.73835847E-01  6.05254235E-05 -2.06282238E-05
  1.14950038E-05  1.61279218E-04  7.32402215E-05 -7.36447444E-02 -6.14264707E-03
 -2.14949402E-02  6.95091174E-02  2.14984336E-01  2.28276203E-01 -5.00927832E-04
 -8.83497957E-02  9.46761611E-02 -2.39704032E-04  3.93382559E-03 -8.07687866E-05
  7.85531660E-05  4.63374864E-02 -1.41555012E-02 -3.81657957E-03 -1.33831000E-02
  4.38734636E-02 -2.21161351E-01  2.23388935E-01 -2.82242197E-04 -4.55602077E-03
  2.85483778E-02  2.29813614E-04  6.36595569E-03 -2.75472045E-04  5.40599450E-05
  4.66372234E-02  1.20840288E-02 -1.42630796E-05 -5.00451898E-05  1.74055599E-04
  1.25941010E-05 -6.37894925E-02 -3.24290399E-05 -2.30801577E-04  6.83681173E-02
  3.54514126E-05 -5.27533516E-06 -1.59808881E-05  6.39276550E-04  2.54159333E-04
  5.36156325E-02  3.83554796E-03  1.34499090E-02 -4.41216361E-02  2.20427432E-01
  2.22728299E-01  3.45613583E-04  4.80271202E-03  2.89707195E-02 -2.57329262E-04
 -6.35638988E-03  2.72015198E-04  9.26316645E-05 -4.65281349E-02  1.18045882E-02
  6.12853318E-03  2.14458866E-02 -6.93349954E-02 -2.14347396E-01  2.28685723E-01
  8.17719709E-04  8.82386943E-02  9.42998886E-02  3.08775629E-04 -3.86435766E-03
  7.12390678E-05  1.24992325E-04 -4.62764047E-02 -1.43451824E-02 -5.43503132E-06
 -2.00455720E-05  4.86084379E-05  2.70062903E-04 -1.43173116E-03 -8.94297533E-05
 -1.77151884E-05 -4.90495829E-02 -2.19322274E-05 -1.13943334E-06  7.00954264E-06
  3.51155676E-05 -7.98232353E-05  2.53989559E-03 -9.41458085E-06 -3.40176909E-05
  7.57019009E-05 -1.73974101E-04 -6.88372232E-02 -8.72729229E-05 -7.79082443E-05
 -6.48083823E-02 -4.73506043E-05 -4.34691294E-06 -6.32049270E-06 -4.20437885E-03
  2.78332044E-05 -4.40293530E-03  2.86064888E-02 -9.45889524E-03  2.76970488E-03
 -7.35125828E-03 -4.48432029E-04 -2.86629786E-02  9.44329223E-03 -2.80283549E-03
 -7.33645745E-03  4.38385416E-04 -1.69431389E-03 -6.03113340E-03  2.68581099E-02
 -3.92273135E-02  2.36990638E-02 -1.53728492E-04 -1.79267213E-02  1.22048824E-02
 -4.36668491E-05 -1.04865119E-04 -3.93390035E-06 -1.42680036E-05 -7.07791886E-03
  5.20918975E-04  1.67505073E-03  5.96189662E-03 -2.65284562E-02  3.92612939E-02
  2.40520894E-02  1.64594637E-05  1.79326284E-02  1.23127858E-02 -6.21672928E-06
  1.05070382E-04  2.61710658E-06  2.97712232E-07  7.08167372E-03  5.05619624E-04
 -1.37635817E-01 -3.97622951E-02  3.39070966E-02 -1.75890741E-03 -4.81108378E-05
 -1.44647929E-01 -6.25957832E-02 -2.40803101E-02 -4.47671757E-03 -1.39596086E-04
  1.44094840E-01  6.21732109E-02  2.40684018E-02 -4.43615573E-03  1.35416430E-04
  1.37698916E-01  3.99162978E-02 -3.37193747E-02 -1.71390130E-03  5.66020671E-05
  8.46248884E-03  2.93981522E-02 -9.41317191E-02 -5.28946185E-02 -4.09085106E-05
 -3.96412482E-02  1.06014207E-01 -4.72294288E-04 -3.81766040E-03 -5.85421069E-03
 -6.15744980E-03 -3.51037761E-05  1.21849212E-01  6.42051421E-05 -8.20865665E-04
 -2.88985187E-03  1.23757552E-02  3.04780542E-01  6.65371718E-02 -4.64110509E-02
 -4.98340997E-02 -2.05523066E-02 -6.56654429E-03  1.45596399E-02 -4.47347919E-03
 -3.03042263E-03  5.06007688E-02 -2.19372599E-02 -1.48686260E-03 -5.20409663E-03
  2.01771381E-02 -2.87203480E-01 -1.14866673E-02 -6.64566906E-02  9.20259495E-02
  2.41684629E-03 -2.45826864E-02  1.60979863E-02 -1.25411053E-03 -1.35972573E-02
  6.08696822E-02 -1.66755220E-03  8.97087539E-03  3.12884180E-02 -1.09975547E-01
  2.01021450E-01 -1.40276870E-04 -1.21138052E-01 -5.30074391E-02  1.91958190E-04
  9.68054077E-03 -2.17074433E-02 -8.40331257E-03 -8.38077057E-06  1.41081302E-01
 -9.34537507E-05 -1.48603816E-03 -5.20140559E-03  2.01759916E-02 -2.87869649E-01
  1.12955447E-02 -6.64515550E-02  9.15015013E-02 -2.25894442E-03 -2.46120496E-02
  1.61140264E-02 -1.23760885E-03  1.35770082E-02  6.09885454E-02  1.61032988E-03
 -8.41501024E-04 -2.96305536E-03  1.26398602E-02  3.05324639E-01 -6.68600998E-02
 -4.66519654E-02 -5.04606589E-02  2.01764561E-02 -6.56034629E-03  1.45749574E-02
 -4.46927323E-03  2.96721906E-03  5.07272763E-02  2.19051396E-02 -5.33221971E-03
 -1.91409237E-02  4.29420593E-02  1.40178076E-01  8.19784272E-05  1.60048781E-02
  4.85784792E-03  5.66031505E-05 -3.95071952E-03 -1.38833504E-03 -6.23760325E-03
 -4.17518819E-05 -4.02866207E-02  3.76509314E-06 -8.56005528E-03 -3.07911058E-02
  6.85385856E-02 -1.81281187E-01  2.74695120E-04 -1.08471664E-01 -4.16567280E-03
  1.06925599E-04 -5.44013808E-02  5.37286817E-03  9.28458406E-03  9.11171457E-06
  4.65723584E-03  3.65592505E-05 -3.67540377E-02 -4.17105798E-02 -1.16908440E-02
 -1.46485671E-02 -1.94705230E-03 -3.65829019E-02 -4.17493980E-02 -1.16652793E-02
  1.46582781E-02 -1.94872561E-03 -3.19040136E-03 -1.14552740E-02  5.35720702E-02
  5.80781365E-02 -7.71104160E-02  1.76946372E-02  2.18631746E-02 -2.08966304E-02
  7.63434858E-03 -1.89703740E-03  1.23135514E-03  1.58993906E-03  2.96632477E-03
  7.96113511E-03 -3.18390610E-03 -1.14319799E-02  5.34581855E-02  5.81952493E-02
  7.73481356E-02  1.75076695E-02  2.19195731E-02  2.10072432E-02  7.58730047E-03
 -1.88713933E-03  1.24060429E-03 -1.57967653E-03  3.00909954E-03 -7.95113137E-03
 -1.07859153E-01 -4.38147004E-02  3.67132083E-02 -1.40401446E-02 -7.21576992E-03
 -6.86010625E-02 -3.04324036E-02 -5.56443737E-02 -2.22717871E-02 -8.44884273E-03
 -6.88709870E-02 -3.05089067E-02 -5.56545283E-02  2.22904988E-02 -8.44151964E-03
 -1.08042029E-01 -4.38892872E-02  3.68340139E-02  1.40660771E-02 -7.22930586E-03
  2.43043765E-03  8.43935396E-03 -2.74284803E-02 -1.28208676E-02  8.67585030E-05
  1.49582056E-01  3.10099102E-02 -4.10546831E-04  1.33059110E-02 -3.56969225E-03
  2.06812227E-02 -6.53476311E-06  3.39102511E-02  3.10009061E-05 -5.81620326E-04
 -1.99619187E-03  7.34812498E-03  9.47876984E-02  2.10349620E-02  1.66564395E-01
 -1.48878787E-02  9.63559385E-04  2.27785090E-02  6.25601550E-03  1.29396924E-02
  1.26099210E-02  1.27836938E-02 -5.50019749E-03 -7.86641969E-05 -2.30433315E-04
 -4.35579710E-04 -9.14230884E-02 -8.76406564E-03  2.18023500E-01  5.10700853E-02
 -2.95312371E-02  7.54747870E-02  5.75560366E-04 -4.41033234E-04  3.68681017E-02
  2.52395993E-02  4.32345535E-03  1.59164240E-03  5.65399346E-03 -2.10547487E-02
  9.24198182E-02  1.26890478E-04  3.49579571E-01 -8.84302345E-02  2.67061348E-04
 -3.17838212E-02 -5.77295632E-03  3.78349049E-03  3.88119978E-06  4.74613271E-02
 -1.25262738E-04 -8.87814084E-05 -2.66083198E-04 -3.15870912E-04 -9.13130871E-02
  8.42274481E-03  2.18002432E-01  5.06134233E-02  2.97423702E-02  7.54779914E-02
  5.79952387E-04 -4.59955958E-04 -3.68816117E-02  2.52686247E-02 -4.34375708E-03
 -5.83151788E-04 -2.00170190E-03  7.36396716E-03  9.48315017E-02 -2.14776617E-02
  1.66473302E-01 -1.54766284E-02 -1.34975010E-03  2.27617952E-02  6.22719665E-03
  1.29177265E-02 -1.26302356E-02  1.28290110E-02  5.50618081E-03 -1.63270184E-03
 -5.87302117E-03  1.34161349E-02  4.05920176E-02 -7.37954019E-06 -5.24883433E-02
  7.30861175E-04  5.14521742E-05  1.42923093E-02 -1.27683016E-04  2.30798460E-02
 -1.75033682E-05 -1.18488315E-02  1.04206848E-05  5.07939332E-04  1.85577034E-03
 -4.55861908E-03 -9.43040779E-02 -3.07703469E-04  2.82396377E-01 -3.58399785E-02
 -1.48239379E-04  1.57697051E-01  1.33237597E-02 -3.72529936E-02 -9.82198459E-06
  7.10534680E-04 -5.02098674E-05 -9.83295825E-03 -5.84871259E-03 -6.58842616E-04
 -3.52134684E-03  1.28025207E-02 -1.00306586E-02 -5.80185957E-03 -6.41393027E-04
  3.47507250E-03  1.28113116E-02 -9.02669054E-04 -3.24354735E-03  1.52438081E-02
  1.85288575E-02 -2.24070853E-02 -6.34705286E-02  7.06035413E-03 -6.16724800E-03
 -2.74808820E-02 -5.63004625E-04 -4.35423922E-03 -5.36290872E-03  7.39214222E-04
  2.57274018E-03 -9.02066658E-04 -3.24125430E-03  1.52280941E-02  1.85268802E-02
  2.23786356E-02 -6.36332167E-02  7.06411643E-03  6.15364514E-03 -2.75284401E-02
 -5.72502202E-04 -4.36160112E-03  5.36838812E-03  7.38628086E-04 -2.57743723E-03
 -3.30287802E-02 -1.44050983E-02  1.08892197E-02 -3.65533001E-03  2.51383914E-02
 -2.10129980E-02 -3.14809676E-02 -1.49130597E-02 -8.45923143E-03  2.47237891E-02
 -2.10855427E-02 -3.14985767E-02 -1.48623680E-02  8.41995821E-03  2.47341507E-02
 -3.31433393E-02 -1.44241874E-02  1.09497255E-02  3.65081928E-03  2.51306098E-02
 -1.11794188E-05 -3.89852568E-05  1.31813060E-04 -1.36292541E-04 -2.82243609E-01
  3.63897310E-04 -7.39293291E-05  1.26972166E-01  5.25040732E-05 -9.94733188E-06
  2.95244984E-05  1.41839343E-04  1.48862117E-05 -5.70393252E-02  4.32044887E-04
  1.78629532E-03 -8.68634154E-03 -2.38438665E-03  2.55159531E-01 -1.51281360E-04
 -3.72594501E-02 -9.66274803E-02  3.00134237E-04  1.48913037E-02  1.38499690E-04
  3.31025292E-05  2.57567994E-02 -1.00293225E-01  3.37440854E-04  9.53665460E-04
 -8.29696546E-04 -1.78961819E-02 -2.72117299E-01  8.67882669E-04 -4.28288966E-02
  9.84241887E-02  2.42166841E-04 -1.26889740E-02 -2.15664711E-04  3.41427006E-04
 -2.74773379E-02 -1.00333596E-01  5.37386670E-06  1.87749478E-05 -6.13710669E-05
  7.40230230E-05  3.15985606E-01 -2.82921405E-04  1.97045474E-04 -1.13961637E-01
  8.80022857E-05 -1.89389188E-06 -7.10559129E-05  2.21707378E-03 -6.22447345E-05
 -6.64914800E-02 -3.41858429E-04 -9.69156797E-04  8.95047673E-04  1.78724026E-02
 -2.72067422E-01 -7.46587682E-04  4.28269075E-02  9.81128386E-02 -2.94615887E-04
  1.27061100E-02  7.85987435E-05  4.30626553E-04  2.74451912E-02 -1.00278399E-01
 -4.28629459E-04 -1.77399655E-03  8.63724779E-03  2.50384487E-03  2.55150188E-01
  1.03992867E-03  3.73734095E-02 -9.65286940E-02 -1.53895482E-04 -1.48956068E-02
 -2.38567807E-04  2.61648982E-05 -2.58586067E-02 -1.00172380E-01  2.33555699E-06
  7.76560075E-06 -1.70919740E-05  1.04467712E-04  2.55733048E-02 -1.00096062E-04
 -5.76496996E-06 -7.92370951E-02  1.40398508E-05 -1.67561064E-05  5.83510046E-05
  1.05362711E-04  1.49936738E-04 -3.79407614E-02 -3.52581146E-06 -1.27033259E-05
  2.85812128E-05  4.13763792E-05 -5.67711664E-02 -6.14689456E-04  1.25556327E-04
  1.55980811E-02 -3.13796482E-04 -3.33441890E-05  1.37587378E-05 -4.45725913E-03
 -3.98958730E-05 -4.92186118E-02  4.62402292E-02 -2.75565281E-03 -6.71745667E-03
 -7.82943254E-03 -1.41670399E-03 -4.62629566E-02  2.63173550E-03  6.70852968E-03
 -7.79202922E-03  1.38889491E-03 -1.33735303E-03 -4.78571446E-03  2.11683578E-02
 -4.47203740E-02 -2.84523878E-02 -4.89100539E-04 -3.12531762E-02 -1.19303717E-02
 -1.70131066E-04  2.10545759E-03 -5.78475919E-06 -1.85367454E-05 -9.80548924E-04
 -2.73630272E-03  1.32791553E-03  4.75112621E-03 -2.09894285E-02  4.40057151E-02
 -2.84580755E-02  2.77221858E-04  3.10024657E-02 -1.18738916E-02  1.01412590E-04
 -2.08334245E-03  7.64358697E-06 -5.72566389E-06  9.86471867E-04 -2.73317089E-03
 -1.42037650E-01 -9.35082411E-02 -2.39249430E-02  1.43693742E-02 -1.15878900E-04
  1.47582777E-01  1.10550432E-01 -2.50700051E-02 -1.41628656E-02  4.38271718E-04
 -1.47536830E-01 -1.10420682E-01  2.50080198E-02 -1.41461515E-02 -4.03482337E-04
  1.42019201E-01  9.35313852E-02  2.38962799E-02  1.43408228E-02  1.67008175E-04
  1.81464905E-04  6.25376156E-04 -2.23376767E-03  2.87847538E-03 -3.30330246E-04
 -3.47008381E-01  2.56981213E-03  8.99508208E-05 -1.44205420E-03 -1.44104156E-03
 -2.51010673E-02 -2.72141405E-05 -8.11951227E-04 -7.24194854E-05 -2.33511155E-04
 -7.77181520E-04  2.59678463E-03  6.92633048E-03  2.10280862E-03 -2.48450740E-01
 -2.56458784E-03  6.00585117E-03 -7.53343837E-02  2.34621157E-03  1.30605598E-02
 -3.73529274E-02 -1.48136463E-03  8.21224260E-04  1.96283029E-04  7.46735377E-04
 -4.99995177E-03 -8.03794080E-03 -3.54400645E-03 -6.18677254E-02  2.47745093E-02
 -3.13077130E-02  4.24915401E-02 -4.43412184E-03  3.52051427E-02  3.04924886E-02
  7.03509190E-03  4.42719494E-03 -8.64492891E-04 -2.95361607E-03  1.03263633E-02
  2.62476174E-02  4.45406047E-04  1.95400673E-01 -8.01832938E-02 -6.01362854E-05
 -7.58654176E-02 -1.01518083E-03  5.13141178E-02  6.24451571E-06  4.06215598E-03
 -1.46979458E-04  1.86931388E-04  7.14452838E-04 -4.90067575E-03 -7.89817219E-03
  2.81784943E-03 -6.17784969E-02  2.49129343E-02  3.16737768E-02  4.24919067E-02
 -4.44674916E-03  3.51676193E-02 -3.05009015E-02  7.10008821E-03 -4.73965412E-03
 -2.23199099E-04 -7.41337310E-04  2.48149713E-03  6.82821524E-03 -1.21186547E-03
 -2.48358949E-01 -2.43965826E-03 -6.12435407E-03 -7.53279364E-02  2.36429708E-03
  1.31047226E-02  3.73232169E-02 -1.53166789E-03 -1.13807316E-03 -7.91688157E-05
 -2.89464975E-04  7.87988252E-04  5.97742502E-04 -8.64301198E-06  3.63197170E-02
 -3.32541908E-04 -1.92976414E-05 -4.01712684E-02  1.80510080E-04 -5.46586029E-02
  1.54383331E-04 -2.37189240E-03  6.91658536E-05  3.53639186E-03  1.27715886E-02
 -2.90731751E-02 -3.63947969E-02 -3.25693495E-04  3.91747547E-01 -3.51657553E-02
 -1.12348789E-04  2.06175802E-01  1.40705338E-02 -1.71836219E-02 -1.58375008E-05
 -1.50276017E-03 -8.70710708E-05  8.06384613E-03  7.12562525E-03  4.05863493E-03
  1.11607069E-04  1.06480802E-02  7.88188406E-03  7.16619696E-03  4.09001732E-03
 -1.79009910E-04  1.06485742E-02 -5.13109045E-05 -1.80865221E-04  8.15274764E-04
  6.03110821E-03 -1.70137187E-03  1.30942613E-01  2.27133856E-03 -1.51717518E-04
  5.99256406E-02 -1.03726929E-04  7.82345456E-03  6.51814611E-03 -3.40966602E-05
  3.63142847E-04 -4.41577348E-05 -1.55720412E-04  7.06734660E-04  6.70837767E-03
  2.43769205E-03  1.32366875E-01  2.53893751E-03  5.24910299E-04  6.04609558E-02
 -7.01681659E-05  7.84605879E-03 -6.56716251E-03  3.12099847E-05 -3.56393832E-04
 -2.35272001E-03 -2.71882413E-03  3.31575067E-04  3.26542947E-05 -2.37377924E-02
 -1.37234917E-03 -2.44295614E-02  1.53099209E-03 -1.66347675E-03 -1.63299242E-02
 -1.73541769E-03 -2.48076656E-02  1.60790898E-03  1.63014330E-03 -1.63088318E-02
 -1.97209307E-03 -2.53404670E-03  3.00076686E-04  5.60589718E-05 -2.37011954E-02
  8.15789407E-03  2.82074556E-02 -8.44574343E-02  2.43862153E-01 -2.10524888E-04
  3.52426636E-03  1.07275384E-01  1.67112735E-04 -8.71491064E-05  3.40638526E-02
  2.70469634E-04  5.08883219E-05 -6.55313091E-02 -4.85378268E-05 -1.96871223E-05
 -2.56337342E-04  4.14412850E-03 -4.41855416E-02  7.04837543E-02  2.38368553E-03
  3.75830824E-02 -1.89327490E-02  1.02127004E-03 -2.60378665E-03 -1.17103931E-04
  3.96599205E-04 -2.37986396E-02  1.23333766E-02  9.79893489E-04  3.38630766E-03
 -1.07330422E-02  5.47153650E-02 -2.38239861E-02  2.64464473E-04  2.04369943E-02
 -1.04468073E-02 -8.68398412E-04 -2.95788089E-03 -3.18761669E-04 -4.13729670E-04
 -4.28729369E-03 -1.55463728E-02  1.75328212E-03  6.23540988E-03 -2.28932537E-02
  9.95896651E-03  2.10591138E-04 -2.58457837E-03  3.54013117E-04 -9.44794139E-05
  1.07169581E-03  5.88062804E-03 -4.08158589E-04 -1.65262840E-05 -1.02365709E-02
 -2.60383502E-05  9.81917543E-04  3.39368003E-03 -1.07586989E-02  5.48174765E-02
  2.35157176E-02  7.17288267E-05  2.05396538E-02  1.04980964E-02 -9.50804477E-04
 -2.93949640E-03 -2.75304234E-04  4.13048037E-04 -4.25174009E-03  1.53921437E-02
 -2.36456618E-05 -2.71433143E-04  4.21690309E-03 -4.43039790E-02 -7.00125394E-02
  2.07603947E-03  3.77082952E-02  1.89142288E-02  1.02757839E-03 -2.62599831E-03
 -1.45045522E-04 -3.34012232E-04 -2.38868931E-02 -1.24624485E-02  2.95227589E-03
  1.11115378E-02 -2.91337816E-02 -1.49776096E-01 -1.13102247E-04 -3.12736835E-04
  5.59967412E-02  1.69528147E-05  4.88285682E-04 -8.66975074E-04  5.42849540E-04
 -4.08792159E-04 -1.88407077E-01 -1.46705571E-04  7.10835272E-04  2.61213243E-03
 -6.37208553E-03  6.70103685E-03 -3.05806851E-05 -4.62057038E-03 -1.98359836E-03
  8.65819328E-06 -3.44549799E-03  5.94299153E-04 -1.78455761E-04 -3.35050391E-06
 -4.21627621E-03 -3.04124907E-05  5.20980783E-04  5.81523023E-03  8.68296857E-04
  2.43263499E-03  5.59308546E-05  4.61415684E-04  5.82497619E-03  8.71929419E-04
 -2.44511752E-03  5.74349472E-05 -7.28422224E-04 -2.20953211E-03  3.79942452E-03
  4.85389512E-01 -8.67318274E-02  2.91303441E-05  1.68342854E-01  1.15296684E-02
 -1.32382022E-04 -7.16837834E-03 -7.29403462E-05 -2.13658537E-05  1.21074809E-03
  5.53404702E-03 -7.27640900E-04 -2.20741981E-03  3.80645849E-03  4.85817767E-01
  8.77936194E-02 -2.58596795E-03  1.68537127E-01 -1.10614934E-02 -1.10870968E-03
 -7.14695709E-03 -8.67293484E-05  1.02772494E-04  1.24414979E-03 -5.52478532E-03
 -5.60675404E-03 -2.22259708E-02 -2.74331448E-02  5.06842197E-03  2.25404912E-04
  2.91206430E-02  8.26517192E-03  2.59619925E-03 -1.36890870E-04  2.37090338E-04
  2.89478909E-02  8.17339631E-03  2.62911250E-03  1.17031407E-04  2.32995730E-04
 -5.35772484E-03 -2.21391568E-02 -2.74072483E-02 -5.04308800E-03  1.10477920E-04
 -1.90445730E-05 -6.61647846E-05  1.97731127E-04 -5.82674241E-04 -2.47560205E-04
 -4.66426979E-04 -1.73711986E-04 -2.55534563E-03 -1.19493080E-05 -1.15017160E-04
 -4.22766700E-05  2.47765055E-02  1.20801594E-04 -1.60245151E-05 -3.10364566E-06
 -1.06102023E-05  3.65791149E-05  6.70405375E-05  1.13195376E-04  3.39645424E-02
  2.05198520E-03 -1.09499875E-03  8.64208171E-03 -6.13410388E-06  4.23754021E-03
  8.24179329E-03  8.68095274E-05 -8.67172344E-05 -3.54063821E-06 -1.20968153E-05
  2.60926793E-05 -1.13118281E-04 -2.16507566E-05  2.02511561E-02  2.20212482E-03
  1.27665154E-03  7.17564533E-03  4.00344478E-06 -3.47764139E-03 -1.41655224E-03
 -1.28783333E-05  3.82710868E-06 -8.47774291E-06 -2.99689268E-05  1.09731790E-04
 -2.81741236E-05  1.80052845E-04  2.19631782E-04 -1.71855648E-04  2.57447578E-03
 -1.28293798E-04 -9.64555141E-06  7.83074137E-05 -4.09145049E-03  1.50653444E-05
 -3.90037955E-05  2.46099774E-06  8.41606227E-06 -1.51752900E-05 -8.76388324E-05
 -1.58254797E-04 -2.05188388E-02 -2.29268795E-03  1.35690031E-03 -7.03128545E-03
  8.78604570E-06  3.56922776E-03 -1.49802766E-03  3.61577980E-05 -1.34510713E-04
 -2.64172152E-06 -7.73891956E-06 -1.55298307E-05  3.66864699E-05  5.78500776E-04
 -3.46770992E-02 -2.45265028E-03 -1.15777026E-03 -8.92255486E-03  2.64908257E-05
 -4.19895888E-03  8.33683194E-03  1.24236677E-05 -7.63761682E-05 -5.74796434E-06
 -2.19367162E-05  6.12548404E-05  3.26115992E-04 -4.61133716E-06  8.46761792E-05
 -1.41260448E-04  2.16952815E-04 -3.06229340E-05  1.35811803E-04  1.13085857E-05
 -1.30808941E-01  5.15033008E-04  1.06870359E-04  4.30162626E-06  1.55033660E-05
 -3.53449227E-05 -3.66746009E-05  5.74983109E-05  5.42508413E-04 -7.10055274E-05
 -3.44402864E-04  2.86952281E-04  1.78983477E-05 -1.94736056E-05  8.10848615E-06
  1.12116043E-05 -3.08959320E-05  6.05387535E-05 -1.52389649E-04 -7.58906842E-06
 -8.60247251E-05  7.75970599E-05 -3.24632679E-05  2.17412346E-04  8.86979645E-06
 -9.06884387E-05 -5.16493225E-05  1.44169969E-06  3.94874147E-06  4.93990996E-06
 -1.44547634E-03  5.76986185E-04  5.36639255E-01 -5.16808010E-04  1.25567072E-04
  2.09910161E-01 -5.72941781E-07  4.51333591E-03  2.08659789E-02 -1.51334439E-05
 -2.58478947E-05  2.64200959E-06  8.56348854E-06 -2.90983688E-05 -8.35053921E-04
 -4.40969032E-04 -5.36273919E-01 -2.76536736E-04 -6.54925098E-05 -2.09722491E-01
 -7.61551947E-06 -4.50924695E-03  2.08381384E-02 -1.82146735E-05 -6.27225594E-06
 -7.42348730E-05  7.95316735E-05 -9.41299318E-05  1.05489735E-04  1.45591139E-02
  4.73641901E-06 -1.05224933E-05 -1.96971717E-04 -1.01639010E-04 -1.81547254E-04
 -1.58079741E-04 -4.68802759E-05  2.19338084E-04 -1.19406732E-04  1.16150423E-04
  1.64690177E-04 -7.01168991E-05  2.66301042E-04  1.25607677E-04 -1.45820870E-02
  6.37532840E-06  2.31902159E-05 -9.07393022E-05  1.13900513E-04  4.67648396E-02
 -2.34566329E-04  1.07928920E-04  1.91375646E-01 -5.62228988E-05  2.77726238E-05
 -1.42283860E-05  1.65742787E-04  7.88007410E-05 -2.77108251E-02  4.43912739E-03
  1.56276056E-02 -5.02360796E-02  7.50671960E-02  1.13368357E-02 -4.85604669E-04
 -3.19529072E-02 -5.25620091E-02 -4.77546642E-05  1.40633955E-02 -3.98000167E-05
  2.94605546E-06  2.28022112E-02  3.71360127E-03 -2.31388284E-03 -8.15923753E-03
  2.72015654E-02 -4.65734550E-02 -1.19184781E-03 -2.14150595E-04 -5.12341012E-02
  2.93610764E-03  1.54855546E-04 -4.04946335E-03 -4.67376057E-06  6.66637387E-05
 -7.55535051E-04 -7.81762145E-03  5.42329344E-06  1.89272832E-05 -6.67411638E-05
  9.06125841E-05  2.47001536E-02  9.15504717E-05 -4.25605102E-05 -6.13433434E-02
 -9.26895213E-05 -1.24418561E-05  6.18388159E-05  3.28346131E-04  1.11276412E-05
  5.52546081E-03  2.30611902E-03  8.13187853E-03 -2.71081105E-02  4.64520453E-02
 -1.12362513E-03 -4.10828372E-05  5.12798527E-02  2.83008994E-03 -8.56064633E-05
  4.06169068E-03  5.86898259E-05  1.60089922E-05  7.65370551E-04 -7.71197198E-03
 -4.42350364E-03 -1.55723157E-02  5.00423061E-02 -7.48111976E-02  1.10795096E-02
  7.83880501E-05  3.19759079E-02 -5.23863497E-02 -1.09063677E-04 -1.40454547E-02
  1.35853820E-05  6.63221609E-05 -2.27510319E-02  3.80453664E-03 -1.14741317E-06
 -3.35867470E-06 -2.56985711E-06 -2.00363337E-05  2.74276518E-02 -2.29270653E-05
  1.07359318E-04 -1.01452849E-01 -7.59265478E-06 -1.65727415E-05  3.04389655E-05
 -6.20545752E-05  1.07581121E-05 -1.34514912E-01  1.30393752E-06  4.73995377E-06
 -1.07576595E-05 -7.16407545E-05 -1.06011338E-02  3.45805597E-04 -2.90034569E-05
  7.43928091E-03  1.84190232E-04  1.50290787E-05 -8.10879343E-06 -3.13452410E-04
 -7.33536076E-06 -5.66301549E-03  7.09203086E-03  7.92893756E-03 -2.15728045E-03
 -2.69029563E-04 -6.89240776E-04 -7.08675697E-03 -7.92381411E-03  2.15280630E-03
 -2.63573669E-04  7.11397211E-04  1.22428686E-03  4.14166776E-03 -1.52900889E-02
  4.11323730E-01 -3.66746732E-01  5.70423233E-04  1.64445182E-01 -1.94370192E-01
  2.73900958E-04  1.09895656E-02  9.66866883E-06  3.61451809E-05  2.71268641E-02
  3.75442509E-03 -1.23123599E-03 -4.16595636E-03  1.53948596E-02 -4.10279162E-01
 -3.66996788E-01 -1.08996537E-05 -1.63985256E-01 -1.94568410E-01  3.00837553E-05
 -1.09986903E-02 -1.51530744E-07 -1.67100233E-05 -2.71128333E-02  3.66535496E-03
 -2.87313304E-02 -5.24738187E-02 -2.58654737E-02 -1.69991722E-02 -3.81796336E-05
 -5.20495117E-03  4.40240076E-03 -5.84745045E-03 -1.00962823E-03 -1.39039875E-05
  5.23853920E-03 -4.38761259E-03  5.79180980E-03 -9.94098870E-04 -3.33226099E-05
  2.85548122E-02  5.23433980E-02  2.57370834E-02 -1.69716400E-02  1.39420344E-05
 -6.80420169E-07 -2.42118702E-06  1.03974467E-05  6.69351525E-05  1.10445369E-04
  1.11239572E-05  7.39240705E-05 -1.82158841E-03  7.52868855E-06  4.49343650E-05
  2.22249095E-05  9.58008361E-02  7.53496986E-05  1.00893521E-05 -5.76218460E-06
 -2.13907560E-05  1.17735089E-04 -2.29426794E-05 -6.39978047E-04 -3.50831302E-01
  1.41798977E-03 -1.79008112E-03 -5.12489812E-02 -8.12849810E-07 -4.69941619E-02
  5.19675098E-03  2.31088565E-05 -2.15796627E-04  3.44741207E-05  1.20845292E-04
 -4.07851817E-04 -2.18382576E-04 -9.37524578E-04 -3.46858720E-01  8.45044219E-04
  2.87142835E-03 -5.52239840E-02 -1.28763982E-04  4.53429480E-02  2.55760002E-03
 -2.69457066E-04  6.48373216E-05  4.18208268E-06  1.47422275E-05 -5.29141790E-05
  3.83699635E-05  2.28698010E-04  8.51000176E-06  6.78270468E-05  1.32670362E-03
 -2.74643946E-06  4.95003934E-06  1.63912343E-05  8.90894611E-02  3.65735921E-06
 -1.24271831E-03 -3.00972136E-05 -1.05419267E-04  3.55237326E-04  2.58874502E-04
 -9.56893830E-04  3.46862979E-01 -8.04196887E-04  2.75979779E-03  5.52366086E-02
  1.60233009E-04 -4.53382714E-02  2.57016224E-03  2.53623649E-04  1.65311277E-04
  1.02645120E-05  3.71841504E-05 -1.72409565E-04  2.24741000E-04 -9.69317251E-04
  3.50857888E-01 -1.42786044E-03 -1.72922363E-03  5.12622044E-02 -1.25775471E-05
  4.69913569E-02  5.19437801E-03 -1.45628869E-05 -1.67130721E-04 -1.03448652E-06
 -3.67165908E-06  6.92795650E-06  1.52500453E-05 -1.43471991E-05  3.30912903E-05
  1.26873472E-05  1.99177828E-04  2.83024450E-05  3.27494457E-06  5.95650631E-06
 -1.39518308E-02 -3.73646871E-05  8.15590081E-05 -3.99927906E-07 -1.34218843E-06
  2.03198240E-06 -1.97293139E-05 -1.90219888E-03 -1.54427014E-05  7.44401112E-06
  1.39761165E-03 -7.25021066E-06  1.23307689E-06 -4.68365812E-06 -2.61080398E-04
 -7.06333013E-06 -7.97541777E-04 -7.22379059E-04  9.67044274E-04 -8.83478315E-04
 -1.92466483E-05  2.67129239E-03  7.19175143E-04 -9.88848494E-04  8.84464484E-04
 -9.42989894E-06 -2.66137041E-03 -9.81247610E-07 -3.46237537E-06  1.81636314E-05
 -1.64613733E-04  2.15319550E-04  5.23380632E-02 -7.52506711E-05  1.38221509E-04
  2.35903270E-02 -1.38443360E-05  1.07449576E-05  1.72223627E-03 -1.33758104E-05
 -6.10246580E-07 -2.88389332E-06 -1.03167126E-05  4.70776268E-05  3.29876751E-04
  2.41762112E-04 -5.23104621E-02  1.39890689E-04  1.34221055E-04 -2.35805553E-02
  1.03985569E-05 -1.70894603E-05  1.71974918E-03  8.09736656E-06 -8.10408775E-06
 -6.61527585E-07 -2.02473761E-04 -1.36075156E-04  7.06313485E-05 -3.68805089E-02
  1.60629719E-04  1.57895952E-03 -5.32663341E-04 -8.67243498E-05 -3.86963589E-02
 -1.08499006E-04 -1.52776205E-03  5.12377139E-04 -8.17588576E-05  3.86942112E-02
 -3.15302872E-05  1.77224836E-04  1.41799512E-04  3.54404089E-05  3.68740372E-02
  2.21570092E-05  7.77507541E-05 -4.10301895E-04  1.77484349E-04 -1.22341142E-04
  3.46846621E-01  1.56809935E-03 -5.70929838E-04 -1.49781294E-02 -9.46546321E-04
 -1.06935223E-04 -1.39173336E-05 -5.08491833E-04 -2.68477870E-05 -5.28223721E-05
 -1.50279603E-04  4.00544494E-04  1.02485889E-03  2.21567660E-04  2.74659547E-02
 -4.40525602E-03  2.09794574E-03  2.01880953E-02  1.66107695E-03 -6.26098305E-02
  4.47177257E-02 -1.16721500E-03  4.27223081E-04  1.55864234E-05  1.35962723E-04
 -3.42313120E-03 -1.60427384E-03 -1.18017889E-03 -2.72203967E-01  1.70479697E-02
 -2.24948297E-02 -2.06029201E-02 -3.97176191E-03 -2.66590530E-02 -1.41219656E-02
  3.91366187E-03  2.71344844E-03 -6.64799870E-04 -2.26268671E-03  8.67922422E-03
  1.08135495E-02  2.51263372E-05 -1.92725809E-01 -6.66816908E-02  5.59088076E-04
 -1.00086583E-01 -3.06180709E-03  9.49301234E-02 -2.14921754E-05 -2.54890759E-03
 -7.71120332E-05  2.73005871E-06  9.02489244E-05 -3.25432162E-03 -1.62967605E-03
  1.16164882E-03 -2.72211190E-01  1.61921364E-02  2.31098338E-02 -2.06365961E-02
 -3.97246352E-03 -2.66416237E-02  1.41379823E-02  3.92017874E-03 -2.75443282E-03
 -4.77325695E-05 -1.32016387E-04  3.27671813E-04  1.04616901E-03 -1.83829812E-04
  2.75035371E-02 -5.29785045E-03 -2.78668473E-03  2.02660885E-02  1.67432010E-03
 -6.26270116E-02 -4.47153862E-02 -1.17146442E-03 -4.53216618E-04 -2.34330095E-05
 -9.07324840E-05  3.23257201E-04  4.53595618E-04  6.16058672E-05  1.01265854E-01
 -1.03874226E-03  5.79545577E-05  8.71985354E-02  1.39941072E-04  7.33683438E-02
  3.62197337E-05  1.78461941E-04  6.78444680E-06  3.69092940E-03  1.33381659E-02
 -3.04817567E-02 -2.75346351E-02 -1.97557379E-04  4.11690539E-01 -2.23888783E-02
 -1.54649688E-04  2.21025460E-01  1.07063211E-02  2.37103575E-02 -1.55399071E-05
  1.01565508E-03 -1.89009893E-06  1.67727704E-02  6.07150067E-03  1.60115991E-03
 -4.33160435E-03  1.72060261E-02  1.68122344E-02  6.12756026E-03  1.60877890E-03
  4.29282957E-03  1.71986560E-02 -2.60519294E-06 -8.72362179E-06  4.29593497E-05
 -8.31044158E-05 -1.74992071E-04 -1.79107389E-01  1.03327275E-04 -1.55022166E-04
 -9.35088145E-02  2.12548727E-06 -6.13179670E-03  9.67766479E-04 -2.27172820E-05
  1.64721132E-04 -4.72464685E-06 -1.62542485E-05  7.81902503E-05  1.50158774E-04
  5.86673960E-05 -1.79014351E-01  2.67038893E-04  1.25864908E-04 -9.34390106E-02
 -1.07547892E-06 -6.12709840E-03 -9.79232569E-04 -8.77533015E-06 -1.72416805E-04
 -9.88245775E-05 -3.43987084E-03 -1.30125711E-04 -2.89160278E-04 -3.14725212E-03
 -2.50330050E-05 -1.89525315E-02  1.07503355E-03 -7.37323355E-04 -3.25232002E-02
 -4.68167387E-05 -1.90070652E-02  1.13875833E-03  6.79990086E-04 -3.25209974E-02
 -7.90741661E-05 -3.35744322E-03 -2.67212601E-06  3.61661394E-04 -3.12440794E-03
 -6.66220740E-06 -2.89596330E-05  1.87345195E-04  4.67116558E-05 -3.57306015E-05
  2.58165520E-02 -1.66579696E-03 -1.57641576E-06 -1.32132467E-01  1.41785004E-06
 -7.69552108E-02 -3.51830945E-05 -3.63820945E-04 -8.92345798E-05 -2.90055055E-05
 -1.16882518E-04  5.26666112E-04  8.59855276E-05 -1.39267325E-04 -2.09664272E-01
  3.81876090E-03  1.02650074E-03  1.66474560E-02 -4.89092960E-04  2.91320286E-02
  1.21899679E-02  3.68562371E-04 -8.19316219E-05  2.17423319E-05  2.72113528E-05
  1.48159200E-03  6.71954050E-06 -1.53403026E-04  5.24511852E-02 -4.24251116E-03
  7.20475332E-03 -2.85253768E-02  1.48803495E-03  6.06750419E-02  2.61050964E-02
 -9.86460620E-04 -4.04139928E-04  1.70466393E-04  5.43512294E-04 -2.08109496E-03
 -1.30908655E-03  4.27908607E-05  2.41841819E-01  2.60118418E-02 -1.98251713E-05
  6.79663304E-02  2.50261708E-03 -4.57227301E-02  2.50015805E-05  2.31146502E-03
  1.54955476E-05  2.45690867E-05  3.65827698E-05  1.47120756E-03 -3.10638542E-05
  1.51235629E-04  5.25078179E-02 -4.27511217E-03 -7.13182036E-03 -2.85311442E-02
  1.46926347E-03  6.06565701E-02 -2.61251118E-02 -9.68507262E-04  3.07851561E-04
 -2.37314432E-05 -9.82578613E-05  4.73433910E-04  7.01505313E-05  4.78121939E-04
 -2.09739180E-01  3.75850288E-03 -1.12401637E-03  1.66671158E-02 -4.69459664E-04
  2.91060686E-02 -1.22282640E-02  3.60362910E-04  3.95440827E-05  1.67951888E-06
  7.13977781E-06 -4.83969038E-05 -1.76576875E-04  2.80265134E-04  5.15773292E-01
  3.29117208E-04  9.65103982E-05  2.74161075E-01 -3.05317238E-05  8.31002185E-02
  3.00533553E-05 -9.48456179E-05  1.90063312E-05 -1.65532114E-03 -5.98578061E-03
  1.37672345E-02  1.34554555E-02  8.71569053E-05 -1.79571691E-01  5.79073736E-03
  4.27383847E-05 -1.00125509E-01 -1.55686384E-03 -3.37273279E-02  1.00349866E-05
 -2.24621246E-03 -2.15255709E-05 -1.07585147E-02 -4.37757425E-03  1.15367423E-03
  4.92982705E-03 -1.77339629E-02 -1.08118556E-02 -4.37305075E-03  1.15790336E-03
 -4.94877690E-03 -1.77409180E-02 -3.37254118E-06 -1.30783886E-05  7.28498071E-05
  1.00627566E-04 -2.00004996E-04 -3.59964753E-01  3.08118240E-05 -1.30962563E-04
 -2.23454440E-01 -1.97866433E-05  7.74852253E-03  2.34252161E-02 -5.47837163E-06
 -8.28996448E-05 -3.04291209E-06 -1.20183684E-05  7.05427851E-05  6.04575150E-05
 -2.42377910E-04 -3.59999240E-01  3.05945877E-05 -1.23475950E-04 -2.23460307E-01
  2.37768243E-05  7.77768664E-03 -2.34263755E-02  2.48781177E-05  1.01394808E-04
 -3.59330972E-04  2.82810480E-03  3.24483474E-04  4.27865607E-04 -4.63940587E-02
 -2.90141064E-04  6.23248332E-03  2.48639272E-05  2.67559526E-04  9.80232514E-03
 -3.39505016E-04  6.21888044E-03  2.96334928E-05 -2.88966906E-04  9.82716492E-03
 -3.58989350E-04  2.85363347E-03  4.55720337E-04 -3.73583566E-04 -4.63514412E-02
 -6.18448190E-06 -2.13209372E-05  6.31618649E-05 -5.24192449E-05 -6.55193245E-04
  3.79596427E-05  6.01216944E-05  1.46398119E-02  2.31367243E-05 -6.11163293E-05
 -3.36719267E-05 -1.35749873E-01 -1.48492240E-04  6.91853927E-05 -2.86481539E-05
 -9.94048869E-05  3.38688634E-04  4.40422612E-04  6.84314593E-04  3.75112275E-01
 -1.12776752E-02  5.50515793E-03  8.60950263E-02  1.29935159E-04 -7.44999953E-02
 -1.18453440E-02  7.27449308E-05 -1.10421888E-03  7.94420611E-05  2.79230525E-04
 -9.73611622E-04 -7.89279242E-04 -2.12190197E-03 -3.71465817E-01 -1.46522846E-02
  8.17261058E-04 -9.29256085E-02 -4.76468902E-04 -7.57579939E-02  1.03033546E-02
 -7.94575640E-04  1.99689614E-04 -7.67858409E-06 -2.69911290E-05  1.01632157E-04
 -4.58349477E-05 -4.73251777E-04 -7.86975033E-05  3.73502132E-05 -1.62986771E-02
 -3.54929243E-06  5.35827772E-06  3.83018534E-05  1.30092884E-01 -6.27936965E-06
 -6.11176180E-03 -7.49670836E-05 -2.62403731E-04  8.85617229E-04  8.29014517E-04
 -2.21457389E-03  3.71536244E-01  1.47202576E-02  7.68257842E-04  9.29913856E-02
  3.79961504E-04  7.57154360E-02  1.03170014E-02  8.36019673E-04  7.57162250E-05
  1.92220266E-05  6.69676455E-05 -2.43675339E-04 -6.04473828E-04  9.88441149E-04
 -3.75108347E-01  1.13312101E-02  5.59552450E-03 -8.61440748E-02 -2.23109469E-04
  7.44650184E-02 -1.18747043E-02 -7.59958616E-05 -1.09912833E-03  4.91272766E-06
  1.79662985E-05 -4.63273350E-05 -5.73627463E-05 -2.66693065E-05 -6.05683984E-05
  5.16321195E-05 -1.45273350E-03 -7.21893399E-05 -2.82050084E-05  8.11637649E-06
  8.24500155E-03  3.29978114E-05 -3.58264832E-04  4.48421813E-06  1.62657107E-05
 -3.85855272E-05  7.17397961E-06 -9.61970268E-03  3.04988400E-05  6.57934726E-05
  2.10810361E-02  3.88354919E-05 -9.44961225E-06  1.47900379E-05  5.35471372E-03
 -2.11309708E-06  1.39375919E-03 -3.98773133E-03  1.93258180E-02 -7.67152860E-03
  7.99221874E-03 -1.14217619E-02  4.03204928E-03 -1.94379624E-02  7.74383139E-03
  8.04662070E-03  1.14600949E-02 -4.33646746E-06 -1.44701741E-05  3.08227934E-05
  1.04138026E-04 -2.05678026E-04 -3.61653530E-02  2.45877015E-05 -1.14837393E-04
 -2.09332070E-02  3.31336758E-06  9.29167041E-04 -1.21407532E-03 -1.74489669E-05
  3.38916091E-05  5.80294133E-06  1.95703809E-05 -5.09209274E-05 -1.37027326E-04
 -2.59559085E-04  3.61401516E-02 -7.32801281E-05 -1.69289160E-04  2.09175722E-02
 -1.55296447E-06 -9.29249465E-04 -1.21348178E-03  1.18543742E-05  4.22169251E-05
 -2.83035986E-04 -5.11224338E-04  8.80510001E-04  9.19469203E-07  6.64276626E-02
  2.22292543E-04  4.61793521E-03 -1.23617595E-03  3.47494600E-04 -7.19871937E-02
 -2.27800873E-04 -4.71553602E-03  1.25348962E-03  3.42269463E-04  7.20091567E-02
  1.94429349E-04  3.27076782E-04 -9.21892957E-04 -5.99272023E-06 -6.64368966E-02
 -8.65183823E-05 -2.85340467E-04  5.81050613E-04 -3.03766061E-04 -1.29024721E-04
  4.18801436E-01  2.38235233E-03  3.05661743E-04  1.71499090E-01  5.57440696E-04
  1.30168958E-03  9.10825608E-06 -9.01425297E-04  6.39913623E-05 -6.77225346E-06
 -2.17191547E-05 -1.34702774E-04 -4.64898741E-04 -4.07229044E-04 -1.60757210E-01
 -1.31601870E-03 -1.15859023E-03 -8.75523104E-02 -9.99662391E-04 -6.92996749E-02
  7.19009267E-02  4.92014038E-04 -1.21200415E-03 -1.22318739E-04 -4.64670774E-04
  3.16273975E-03  1.09143914E-03 -2.94297517E-03 -1.86107353E-01 -5.88752799E-03
  5.09385803E-03 -7.00748226E-02  2.04460168E-03  5.85735185E-02  7.62359665E-02
 -4.85763903E-04  6.11881230E-04  7.66919293E-05  2.19244716E-04 -2.22693648E-03
  5.91085635E-04 -4.91481499E-06  4.72782675E-01  1.57546636E-02 -3.21297990E-04
  1.12226027E-01  3.89011320E-03 -1.65148603E-02  1.40668285E-05  1.50949975E-03
  4.32877170E-05 -1.21788420E-04 -4.62436798E-04  3.14377149E-03  1.03730063E-03
  3.03576453E-03 -1.86039802E-01 -5.42099770E-03 -5.37402084E-03 -7.00636667E-02
  2.03364891E-03  5.85297993E-02 -7.62756966E-02 -4.79022209E-04 -6.31844634E-04
 -1.13541434E-05 -3.81936609E-05 -8.24520804E-05 -5.88630508E-04  4.69864475E-04
 -1.60803499E-01 -8.59306330E-04  1.52915431E-03 -8.75970034E-02 -1.06986496E-03
 -6.93193271E-02 -7.18911172E-02  4.73880876E-04  1.23564237E-03  8.32444407E-05
  3.02571007E-04 -7.86365563E-04 -8.82566145E-04 -2.13453185E-04 -3.32248850E-01
 -2.11587781E-04 -1.75048187E-04 -1.76398086E-01 -1.64653057E-04  2.69399773E-02
  1.29000766E-05 -6.59116559E-05 -8.41808662E-05 -2.60094908E-03 -9.43092599E-03
  2.22237173E-02  2.57499033E-02  1.18618488E-04 -1.82194169E-01  3.61356602E-03
  6.66513306E-05 -9.64479639E-02  5.77280650E-03 -7.64527929E-02  1.49837131E-05
 -6.61238393E-04 -3.60693083E-05 -1.86769028E-02 -1.36654980E-02 -5.33893935E-03
  1.78847589E-02 -5.80638843E-02 -1.87679235E-02 -1.36674560E-02 -5.38891171E-03
 -1.79398488E-02 -5.80908268E-02 -1.48746780E-05 -5.18037730E-05  2.53536888E-04
  3.68559089E-04  1.28790828E-04  1.48731357E-01  8.86636878E-05  1.32604556E-04
  1.15325817E-01  7.82214821E-05 -1.34424241E-02 -1.97333541E-02  3.29624112E-06
 -1.91254064E-05 -1.98031730E-05 -6.95649324E-05  3.47007334E-04  5.01972734E-04
 -2.79167512E-05  1.48734727E-01  2.35279826E-04 -3.63572549E-05  1.15343674E-01
  3.05791566E-05 -1.34627627E-02  1.97274891E-02 -1.85972993E-05  8.36510739E-06
 -8.69139935E-04 -3.34966802E-03 -1.62166448E-04  1.01586280E-04 -2.21424803E-02
 -2.22848616E-04  4.76916956E-03 -2.29808000E-03  2.95292084E-03 -5.21995797E-02
 -2.51346261E-04  4.73325229E-03 -2.36481068E-03 -2.91143433E-03 -5.21733174E-02
 -8.95604973E-04 -3.33101267E-03 -2.66918592E-04 -1.03134531E-04 -2.21860777E-02
  2.70948157E-03  8.57754236E-03 -1.69535829E-02  1.88261146E-03  2.65540224E-05
  3.86037458E-02 -2.10894641E-01 -2.14772984E-05  1.84828079E-02 -5.04597373E-02
 -4.22977154E-03  5.03561193E-05 -7.95286652E-03 -2.41107569E-05 -4.72729987E-03
 -1.76143560E-02  8.81394701E-02  3.29143699E-02 -1.13184857E-03 -2.54593682E-02
  6.24371940E-01  3.44405320E-01 -1.08510204E-02  5.16852933E-02 -1.77141063E-03
  9.10173369E-03 -1.85744045E-04 -5.38476131E-03  7.74303763E-03  2.48026756E-02
 -4.17361701E-02 -6.18513782E-02  7.53890223E-02  2.93413925E-03  4.17467757E-01
  4.68955782E-02 -9.83824124E-03 -8.28827518E-03  7.14406761E-03 -8.09108338E-03
 -1.04218750E-05 -4.23342313E-02 -1.81759167E-03 -1.09897014E-02  1.75481421E-01
  6.43723620E-02  1.43339884E-06 -2.03786083E-03  8.48989053E-01 -8.93432467E-04
  3.69016870E-02  8.77997785E-02 -1.67355660E-02 -1.04104994E-05  5.60210184E-02
  1.01575761E-04  7.73653660E-03  2.47826903E-02 -4.17416003E-02 -6.17520641E-02
 -7.50288940E-02  2.81601193E-03  4.17497456E-01 -4.81505078E-02 -9.85805833E-03
 -8.25636745E-03  7.15902740E-03  8.09361009E-03  8.81855266E-05  4.21155641E-02
 -4.73558050E-03 -1.76409336E-02  8.81330326E-02  3.28471605E-02  1.26652647E-03
 -2.54478177E-02  6.24323548E-01 -3.45071493E-01 -1.14117851E-02  5.15894791E-02
 -1.74240963E-03 -9.23206709E-03 -7.37153623E-05  5.50344918E-03 -2.44460186E-03
 -8.78723653E-03  1.94486468E-02  4.00470827E-02  2.85759059E-05 -2.11928328E-02
  5.32156158E-02 -1.25467254E-04 -1.42655613E-02 -2.77417026E-02  3.53833951E-03
  8.26159721E-06 -2.22871622E-02 -2.12469610E-05  2.62875748E-02  9.57315922E-02
 -2.37614233E-01 -1.80273899E-01  1.87351271E-04 -5.50641222E-02  2.78788445E-01
 -2.11406802E-04 -2.20267707E-02  3.14548646E-02 -1.24133984E-02  3.46511119E-05
 -1.31600428E-01  2.57010642E-05  4.47812759E-02 -8.44867946E-02  3.83048027E-01
 -4.07806045E-01  8.81715820E-02  4.47526852E-02 -8.40113936E-02  3.82931257E-01
  4.07181543E-01  8.85819303E-02 -1.45867126E-03 -5.45688423E-03  3.05385611E-02
 -8.64735779E-03 -3.43787213E-03  8.66259083E-03  5.09080388E-03  3.12926983E-04
  7.61074286E-03 -5.15070082E-03 -1.00263958E-03 -1.22141812E-03  3.58851152E-03
 -5.15289721E-03 -1.46000241E-03 -5.46205039E-03  3.05783154E-02 -8.63500127E-03
  3.49805454E-03  8.65347682E-03  5.07714885E-03 -3.49878540E-04  7.59954386E-03
 -5.17540948E-03 -1.00442773E-03  1.22315953E-03  3.59647971E-03  5.16619252E-03
 -5.20067025E-03  6.53056059E-01  6.06899611E-02  1.37408515E-01 -8.34581692E-03
 -2.27471852E-02 -1.55218106E-01  1.13387764E-01 -1.94456262E-01  3.08347259E-03
 -2.28008440E-02 -1.54157383E-01  1.12922147E-01  1.93932313E-01  3.16823104E-03
 -5.27969231E-03  6.53462774E-01  6.07323741E-02 -1.37785599E-01 -8.48398812E-03
  3.01647316E-06  7.20563983E-06  5.56232909E-05  1.12443007E-04 -4.43883426E-02
  2.84945824E-05 -1.71842356E-04  7.13828714E-01  1.25978411E-04 -5.83423446E-05
 -3.40466652E-05  2.48391909E-03  1.80107957E-04  3.31840397E-02 -3.90747155E-03
 -1.17512224E-02 -1.72342854E-02 -4.05201822E-02 -1.12718969E-01 -4.84725169E-03
 -1.32202949E-01  4.22692591E-01 -2.46477945E-03 -2.59717759E-02  3.26447149E-03
  4.83838453E-04  5.68530987E-02 -1.29419128E-01 -5.44682048E-03 -1.66016348E-02
 -1.17824828E-02  4.47153744E-02 -1.88245534E-01  1.16147962E-02 -1.72538055E-01
  8.32245492E-01  1.73020000E-03 -1.91506493E-02 -9.69939338E-04  8.17752780E-04
  5.87913291E-02  1.33295733E-01 -7.21273237E-07 -6.51677789E-06  1.44103124E-04
 -3.11668535E-05 -4.36514765E-02  7.46383476E-05 -1.69334700E-04  7.22743170E-01
  2.51064114E-04  1.33918630E-04 -2.51832735E-05  6.20488489E-04  7.87934028E-06
 -1.18176900E-01  5.47464618E-03  1.66907850E-02  1.16400254E-02 -4.49435558E-02
 -1.88475102E-01 -1.17262310E-02  1.73091656E-01  8.33216915E-01 -1.76123530E-03
  1.90896871E-02  1.07750825E-03  8.64028517E-04 -5.88720250E-02  1.33502680E-01
  3.92024155E-03  1.17891456E-02  1.72921335E-02  4.06724842E-02 -1.12988842E-01
  4.67246930E-03  1.33049873E-01  4.22400781E-01  2.96270755E-03  2.60933006E-02
 -3.36539329E-03  5.80280971E-04 -5.71661698E-02 -1.29481644E-01 -7.92940471E-06
 -2.93696751E-05  8.36977985E-05  1.45172708E-04 -6.14788788E-03  1.12056420E-06
  7.70652696E-05 -1.17505899E-01  1.72809170E-05 -1.02246136E-05  7.98986237E-06
  1.16271343E-04 -1.55416325E-05 -4.42776500E-02  1.07642901E-05  3.98607645E-05
 -1.09328068E-04 -2.11745603E-04 -1.97919466E-01 -1.56829687E-04 -3.79171367E-04
  2.12475652E-01  3.92629420E-05  7.89813561E-05  2.39669749E-05  1.99866159E-02
  7.79257586E-05  1.32302949E-01 -2.73108306E-02  4.17223562E-01 -2.36884027E-01
  3.40006627E-01 -5.58410725E-02  2.73550313E-02 -4.16126527E-01  2.37240091E-01
  3.40141871E-01  5.62342498E-02 -8.73147704E-04 -3.05869426E-03  1.22241206E-02
 -1.73006768E-03 -3.66998924E-02  9.43879152E-04 -1.32331547E-03 -2.15498473E-02
  5.36170764E-04 -4.17319913E-03 -6.95094668E-05  1.06975151E-04  4.78856292E-03
 -5.03860050E-04  8.69797134E-04  3.04526899E-03 -1.21387536E-02  1.68425076E-03
 -3.66859423E-02 -9.87578116E-04  1.31936120E-03 -2.14709881E-02 -5.53867757E-04
  4.15909505E-03  7.11778627E-05  1.14731688E-04 -4.81106893E-03 -5.04908233E-04
 -3.43311737E-02  4.06033899E-01  1.66431831E-01  2.55249807E-01 -2.57824516E-03
 -2.75746445E-02  8.23395768E-01 -2.95199378E-01  3.86267667E-01 -9.27518490E-04
  2.75999278E-02 -8.23886854E-01  2.95533787E-01  3.86934706E-01  1.09452341E-03
  3.44132408E-02 -4.05138609E-01 -1.66394393E-01  2.55752984E-01  2.82710552E-03
 -1.91372985E-03 -5.12878382E-03 -1.57898742E-02 -1.27461512E-01 -4.73801055E-05
  4.53893919E-04 -1.65109742E-02 -3.70078732E-04  3.29384927E-03  8.06754906E-02
 -4.74512636E-04  4.14756636E-05 -1.86404333E-01 -2.74671400E-05 -9.37924526E-03
 -3.07496603E-02  3.97807435E-02 -6.90499976E-02 -1.12401064E-01 -2.32325386E-05
  3.38955030E-01  1.27264830E-01 -5.32935333E-03  6.40234740E-03 -6.95404568E-04
  2.24240895E-04  1.12038544E-01 -9.47180343E-02 -9.84331189E-03 -3.25473902E-02
  6.10726817E-02  5.60561942E-02 -1.14124614E-01 -5.41870270E-04 -5.23128396E-02
  5.74026021E-01  1.20885242E-02  4.28413489E-02  2.27012111E-03 -1.20147473E-03
  5.76939577E-02  8.86686702E-02 -1.02452655E-03 -3.80059704E-03  2.30117307E-02
  1.02039050E-01 -1.44113475E-04 -7.65326623E-03  1.27226253E+00  8.86068451E-04
 -2.81308559E-02  1.62485231E-02 -6.80204692E-03  1.34904820E-05 -6.73859446E-02
 -1.33771326E-04 -9.84157278E-03 -3.25457266E-02  6.11962283E-02  5.60392421E-02
  1.13798998E-01 -5.90235852E-04 -5.33042791E-02 -5.71750783E-01  1.18323598E-02
  4.28940456E-02  2.21733857E-03  1.17385370E-03  5.75696944E-02 -8.84797173E-02
 -9.37984079E-03 -3.07539163E-02  3.98731529E-02 -6.90032763E-02  1.12494371E-01
  2.45484896E-04  3.37972462E-01 -1.28300429E-01 -5.36356699E-03  6.45398323E-03
 -6.56126971E-04 -3.36604523E-04  1.12045813E-01  9.45165455E-02  1.19868093E-02
  4.38024798E-02 -1.20858493E-01 -9.87263512E-02 -5.21105723E-05 -2.56833265E-04
 -3.60375483E-02 -5.70802905E-05 -1.46625002E-03 -3.68424743E-02 -2.27689939E-04
 -5.68184555E-05 -8.66360579E-03 -6.00298573E-05  9.94762934E-03  3.53143351E-02
 -7.70608493E-02  4.95219458E-02 -3.47398696E-04 -1.05474084E-02  7.20405079E-01
  1.71093274E-04  6.50384110E-02 -3.31117438E-02  1.16639928E-02  1.19285143E-04
 -8.01944832E-02  2.36905924E-04  4.15912117E-03 -6.25128037E-01  2.26033540E-01
 -1.80649013E-01  5.02687224E-02  4.24310453E-03 -6.26543364E-01  2.26924485E-01
  1.81578329E-01  5.07340299E-02 -3.17584326E-03 -1.11567527E-02  5.51121145E-02
  4.95209623E-02  1.15801500E-02  1.10929284E-04  2.61832246E-02  7.45871034E-03
  1.89250129E-04  1.06648288E-02 -4.13217999E-06  7.92749987E-05  1.03109091E-02
 -1.12466738E-02 -3.17180606E-03 -1.11417694E-02  5.50307915E-02  4.95594289E-02
 -1.16709429E-02  2.17322389E-04  2.62136365E-02 -7.54198638E-03  2.17051458E-04
  1.06727015E-02 -2.35159258E-05 -7.73953555E-05  1.02700224E-02  1.12328662E-02
 -7.17841548E-02  4.95312216E-02  6.81346423E-02  3.06708601E-01  7.10439560E-04
 -6.47129142E-02  1.45088227E-01 -1.17640900E-01  2.52110239E-01 -7.03246797E-04
 -6.46940141E-02  1.43682552E-01 -1.16876194E-01 -2.51720449E-01 -8.58562487E-04
 -7.17471393E-02  4.96262725E-02  6.80247129E-02 -3.06707938E-01  4.06722565E-04
 -1.01154683E-03  3.22083049E-03 -1.70110742E-01  4.38148028E-02 -2.39907428E-05
 -2.84343161E-04  1.14129199E-01 -3.79192070E-03  4.46858516E-03 -2.77060056E-01
  8.45506543E-04  1.81807868E-04 -1.06199754E-01  1.83525691E-04 -9.97710350E-03
 -2.94036237E-02 -4.15368715E-02 -3.72447562E-02 -1.03786227E-02  8.28490011E-04
  4.17900671E-01  5.28357879E-02 -9.94033287E-03 -2.36630329E-01  2.07550116E-04
 -5.32689752E-05  3.59483213E-02 -2.01766892E-02 -5.43570533E-03 -1.41620841E-02
 -7.10291330E-02  2.08327867E-02  8.16477748E-03  2.47856799E-03  1.43962942E-01
  2.37370359E-01  1.97207051E-02 -2.09863941E-01  2.86026831E-03  5.06283662E-03
  2.26844479E-02  2.36763384E-02 -1.65308737E-03 -1.30143717E-03 -9.32184024E-02
 -2.84219273E-02  2.77421078E-06  4.24424858E-03  9.83861861E-01  3.18319494E-03
 -5.44992533E-02 -2.49018701E-01 -1.14187075E-02 -6.33303003E-06  4.00873957E-02
 -5.61509987E-05 -5.42933075E-03 -1.41405874E-02 -7.10564637E-02  2.09093934E-02
 -8.25556321E-03  2.37732910E-03  1.38371855E-01 -2.33739776E-01  1.97001091E-02
 -2.09867818E-01  2.74069837E-03 -5.03259339E-03  2.24794942E-02 -2.35468858E-02
 -9.99156860E-03 -2.94548446E-02 -4.13090170E-02 -3.73368268E-02  1.04370411E-02
  1.00478716E-03  4.12374669E-01 -5.70654978E-02 -1.00275367E-02 -2.36534672E-01
  9.46103321E-05  3.24504667E-04  3.59995020E-02  2.03716154E-02 -4.25229333E-03
 -1.54065669E-02  3.61282692E-02  9.75401896E-02  3.68379885E-05  7.98579731E-04
  1.48774715E-01  5.05687643E-04 -6.74542989E-04 -1.31380802E-01  1.57319966E-04
 -1.35651421E-04  1.84454135E-02  1.99298411E-05 -2.53151750E-03 -1.03511622E-02
  3.83145723E-02 -3.39674923E-02 -1.08076571E-04  4.33573457E-03  5.60665208E-01
 -3.87834040E-04  1.12242437E-01 -9.01534937E-02  1.73306723E-02  1.20269177E-04
 -2.57428281E-02  7.23574520E-05  2.39140662E-02 -6.14967602E-01  1.07357201E-01
 -1.50083121E-01 -5.82069186E-03  2.39353388E-02 -6.15279953E-01  1.07835066E-01
  1.50321767E-01 -5.79280323E-03 -3.93757693E-03 -1.41452653E-02  7.72399653E-02
 -2.22356114E-04  9.74533265E-03  9.14226759E-05 -2.10332440E-02  4.96566918E-02
  1.23349364E-04 -1.38670758E-02 -1.45746103E-06  2.65887103E-04 -5.14690521E-03
  1.83293845E-02 -3.94088109E-03 -1.41555180E-02  7.72543919E-02 -1.07450906E-04
 -9.70929111E-03  1.28287574E-05 -2.08388966E-02 -4.96654960E-02  1.31947109E-04
 -1.38561713E-02  4.27258486E-05 -2.81196490E-04 -5.09159321E-03 -1.84074073E-02
  4.92139286E-02  8.29779155E-02  3.38680083E-02  2.10477815E-01  1.72384362E-03
  5.06326124E-02 -9.70483555E-02 -3.10920808E-02  4.46984452E-02 -3.66421785E-03
  5.06174022E-02 -9.74951971E-02 -3.02857570E-02 -4.48526391E-02 -3.80745010E-03
  4.92216391E-02  8.39754722E-02  3.45442121E-02 -2.10675992E-01  1.33352009E-03
 -3.15456577E-06 -8.27833358E-06 -2.42413903E-05 -1.95272963E-04  6.48583536E-02
 -4.94881415E-04 -3.03532145E-05  7.93815221E-01 -1.77466331E-04 -1.92728511E-05
  2.01828378E-05 -3.56398124E-03 -2.10207885E-04  1.36187003E-02 -8.68444162E-03
 -2.81220878E-02  3.45106547E-02 -5.85327284E-02 -1.45366551E-01  6.51775105E-03
  2.49712521E-01  1.10728777E+00  3.58653714E-03  5.73067771E-03 -5.70423405E-03
 -4.23567293E-04  7.53825395E-02 -8.52028957E-02 -3.22936670E-03 -1.05608794E-02
  4.50719295E-03  3.45783438E-02  1.58860547E-02 -2.11427422E-02  2.83321804E-01
 -2.14138547E-01 -7.23370384E-03 -3.76273921E-02  3.25409096E-03 -1.77096390E-03
  3.81412800E-02  3.81434306E-02 -5.06821485E-06 -1.71415463E-05  6.04297496E-05
  6.19206697E-05  5.01628513E-02  3.91481500E-04  1.31948911E-03  3.22324854E-01
  6.89837866E-05 -6.89513252E-05  1.49792692E-05 -2.68428412E-03  9.88663055E-05
  1.00695146E-01  3.21818142E-03  1.05272283E-02 -4.56308984E-03 -3.46826958E-02
  1.59664389E-02  2.05827656E-02 -2.82966457E-01 -2.14662950E-01  6.62315101E-03
  3.74212638E-02 -3.32718067E-03 -1.98742624E-03 -3.81027077E-02  3.81133746E-02
  8.66641344E-03  2.80663054E-02 -3.45155510E-02  5.83391205E-02 -1.45258686E-01
 -5.96163672E-03 -2.47555569E-01  1.10683289E+00 -1.87540064E-03 -5.83975564E-03
  5.52628740E-03 -2.35314969E-05 -7.52150270E-02 -8.49228547E-02  2.17181624E-05
  7.91849926E-05 -2.18223598E-04 -2.34546767E-05  1.85293773E-02  1.69013887E-04
  5.67687523E-05 -1.40916794E-01  1.92663865E-04 -1.78697083E-04 -8.61409914E-05
 -4.29786055E-04 -6.14220661E-05 -1.31700239E-02  4.67477166E-06  1.56485621E-05
 -1.99010122E-05  6.92336788E-05  2.61924187E-01  1.26123324E-04  4.93140441E-04
 -6.67513044E-01 -1.43415866E-04 -5.15286267E-05 -1.72892167E-04 -4.60747818E-02
 -1.88243812E-04 -1.80306759E-01  3.51708846E-02 -8.28174787E-01  3.73210803E-01
 -5.68302426E-01  1.09869968E-01 -3.51847444E-02  8.26734838E-01 -3.72931823E-01
 -5.67649187E-01 -1.10802896E-01 -2.65897374E-03 -9.41669104E-03  4.37333234E-02
  1.97009885E-02 -3.95872074E-02 -1.80996973E-03  3.46710647E-02 -2.23859115E-02
 -9.50905443E-04 -7.38232281E-03  2.20909830E-04 -2.82467100E-04  1.13186349E-02
 -4.78282218E-03  2.63759204E-03  9.33913064E-03 -4.33135706E-02 -1.95631109E-02
 -3.97608078E-02  1.54700545E-03 -3.45925797E-02 -2.24327403E-02  7.37908567E-04
  7.41636372E-03 -1.98907381E-04 -2.67678797E-04 -1.12889935E-02 -4.72857485E-03
 -1.13740816E-02  1.08076186E+00  2.58890383E-01  4.97400699E-01  3.65258630E-03
 -6.52584825E-03 -1.15178717E-01  9.30995850E-02  1.07139498E-01  6.14953750E-03
  6.55245908E-03  1.14866758E-01 -9.30372011E-02  1.07095468E-01 -6.35979526E-03
  1.12720848E-02 -1.08005953E+00 -2.58423227E-01  4.96823445E-01 -2.73146763E-03
 -4.88029302E-04 -1.77766408E-03  1.11319877E-02  1.68944817E-02  2.88553373E-05
  4.05212746E-01  1.84350210E-02  1.28234568E-03  2.45280362E-01  1.20675287E-02
 -4.39193251E-02  1.88845456E-05  1.76145018E-02  8.74946626E-05  1.58195179E-03
  5.54822346E-03 -2.20707958E-02  9.50599552E-03  1.17968916E-02 -3.06621563E-01
 -1.81658846E-01 -1.21422405E-01 -2.13119332E-01 -2.18665957E-02  3.47838055E-02
  9.08555974E-02 -1.10248911E-02  1.31525296E-02 -2.14172941E-03 -6.95446363E-03
  1.34412097E-02  1.59323290E-02 -1.50913789E-02  2.48664845E-01 -1.85414699E-01
  1.06477800E-01  1.93328640E-01 -1.21172321E-03  5.66227490E-02 -8.80657143E-02
  7.78400777E-03  1.34744205E-02  1.33339551E-04  1.41124757E-03 -3.17992468E-02
  3.49213424E-03  1.95970227E-04 -3.87780680E-01  4.09605106E-03 -1.26546219E-04
 -5.45867930E-02 -3.70661812E-02  2.62067274E-03 -1.38840859E-05 -2.34650803E-02
  9.50413073E-05 -2.13007191E-03 -6.91398216E-03  1.33402478E-02  1.58920194E-02
  1.50747683E-02  2.48689972E-01 -1.85383281E-01 -1.07673684E-01  1.93370888E-01
 -1.24911449E-03  5.66322863E-02  8.80630262E-02  7.76514632E-03 -1.34916222E-02
  1.59608094E-03  5.59147188E-03 -2.20506796E-02  9.51589435E-03 -1.19235159E-02
 -3.06626719E-01 -1.81752275E-01  1.24862930E-01 -2.12934841E-01 -2.20194575E-02
  3.46997474E-02 -9.08019188E-02 -1.12327271E-02 -1.32957381E-02 -9.01631848E-04
 -3.36313851E-03  1.09171162E-02 -3.77545376E-03 -1.41706382E-04 -1.65213719E-01
 -1.57657938E-02 -3.00090420E-04 -1.29554883E-01  1.98633298E-02  5.29180683E-02
  3.62721784E-05  1.21787199E-02 -7.57745699E-05 -8.29299909E-05 -3.42572329E-04
  1.13306604E-03 -8.67592913E-03  2.63630303E-04 -4.28579399E-03 -2.56099795E-02
 -6.15789672E-04 -1.47149019E-01 -4.00419870E-02  8.23026934E-02 -4.63705829E-05
  1.23985241E-02 -2.27106595E-04  1.17956631E-02  2.79151400E-02 -8.63475225E-03
  1.98592919E-02  1.81129390E-01  1.17508281E-02  2.97118527E-02 -9.45918160E-03
 -2.11635827E-02  1.80815534E-01  1.17077695E-03  4.24511994E-03 -2.28132438E-02
 -4.50847037E-03 -2.32192641E-03  7.41773616E-02 -5.70573614E-03 -6.05922563E-03
  6.61595975E-02  1.14603022E-03 -1.09242893E-02 -5.76888457E-03 -3.06743315E-03
  2.17241620E-03  1.17126793E-03  4.24622118E-03 -2.28012412E-02 -4.48067909E-03
  2.17283132E-03  7.40728769E-02 -5.66239798E-03  6.04618591E-03  6.61151265E-02
  1.13250067E-03 -1.09311936E-02  5.77159117E-03 -3.11060031E-03 -2.16857930E-03
  7.20680573E-03 -1.83421277E-01 -3.55725087E-02 -7.31105912E-02 -1.26803600E-01
 -1.13861842E-03  1.58076233E-01 -3.59096714E-02  8.46813174E-02  1.51375735E-01
 -1.11924765E-03  1.58563330E-01 -3.62642031E-02 -8.44265035E-02  1.51286097E-01
  7.14390693E-03 -1.86285468E-01 -3.62036589E-02  7.45166979E-02 -1.26717718E-01
 -9.62085852E-04 -4.94324776E-03  6.87470476E-02  1.46493846E-01 -1.94299805E-05
 -5.91565412E-02 -1.00456610E-01  1.59847541E-03 -3.79559065E-02  5.89678868E-02
  5.13349151E-03 -1.06484726E-04  1.31265069E-01 -5.22285149E-06  7.02819631E-03
  2.35030254E-02 -6.79717266E-02  1.09114216E-01  8.18680858E-02  4.31833051E-02
 -6.93439840E-01 -5.18740164E-01  4.12182272E-02 -8.39930073E-02 -6.09713628E-03
 -1.29444864E-02 -9.31317581E-02  7.83166184E-02 -1.00818673E-02 -3.39473610E-02
  9.44066589E-02  9.09700958E-02 -7.50952883E-02 -4.24270347E-02 -8.87899208E-01
  7.62398106E-01 -4.65029551E-02 -3.06909305E-03 -4.93169271E-03  1.26906461E-02
  8.28176347E-02  6.58168093E-02 -2.30608780E-03 -7.03698595E-03 -1.99615191E-02
  1.49728075E-01 -1.62098932E-04  6.49683542E-02  7.04889925E-01 -2.02184461E-03
  4.82076748E-02 -1.48466926E-01 -4.36474289E-03  4.64719606E-05 -1.53670086E-01
  3.57224855E-05 -1.01019022E-02 -3.40168697E-02  9.46045472E-02  9.10167861E-02
  7.52271269E-02 -4.24806176E-02 -8.85454910E-01 -7.65189342E-01 -4.65106786E-02
 -3.04181546E-03 -4.91388738E-03 -1.27027480E-02  8.29737056E-02 -6.58142423E-02
  7.04221869E-03  2.35514551E-02 -6.80880021E-02  1.09147214E-01 -8.21010949E-02
  4.29157181E-02 -6.90763109E-01  5.21948971E-01  4.18170188E-02 -8.39522077E-02
 -6.27123384E-03  1.31821562E-02 -9.32682672E-02 -7.82552362E-02 -9.85201295E-03
 -3.64441848E-02  1.09172573E-01  6.81287763E-03 -8.43715737E-06  2.20707464E-02
 -8.61078680E-02  1.02791907E-05  1.81082622E-02  1.35046515E-01 -8.70557235E-03
  1.33204413E-04  6.32825453E-02  9.18073971E-05  1.26310934E-02  4.65563911E-02
 -1.27245634E-01 -4.47390429E-02 -2.81101226E-05 -3.14544334E-02  2.93844982E-02
  2.37363608E-04  3.64740932E-03 -6.01015413E-02 -2.12310196E-02  7.82030478E-05
 -2.77951694E-02  5.17577645E-05  1.93232775E-02 -5.58517786E-02  3.44944984E-01
 -1.12290221E-01  1.45402580E-02  1.93583440E-02 -5.60057777E-02  3.45082618E-01
  1.12234524E-01  1.48606242E-02  7.53544935E-03  2.71917944E-02 -1.45527580E-01
 -4.16280610E-02 -3.00961562E-02 -1.06930479E-02 -3.44294571E-02 -5.21869116E-02
 -9.41015703E-03  3.70348378E-03  1.63321259E-03  4.06833836E-04 -1.99327167E-02
  1.35834543E-02  7.53677927E-03  2.71963462E-02 -1.45553083E-01 -4.17751070E-02
  3.00534903E-02 -1.08371889E-02 -3.45235211E-02  5.23217290E-02 -9.48107345E-03
  3.72285551E-03  1.63795806E-03 -3.97746678E-04 -1.98974812E-02 -1.35569650E-02
  4.48299684E-02 -6.72167061E-01 -2.11470030E-01 -3.88508616E-01  1.92622111E-02
 -3.81969894E-02  9.22683224E-01 -1.51587139E-01  4.70133067E-01 -2.22401900E-02
 -3.82454355E-02  9.23638894E-01 -1.52118277E-01 -4.70603655E-01 -2.22650163E-02
  4.48869677E-02 -6.73144243E-01 -2.11861127E-01  3.88846422E-01  1.98867362E-02
 -1.82894934E-05 -6.46634340E-05  2.32612444E-04  3.72794279E-04 -2.95780367E-02
  5.59284208E-05  4.82222047E-04 -5.08606983E-01 -3.04364126E-04 -1.54944741E-04
  1.30561261E-04 -3.34004987E-03  1.85697839E-04  4.67717388E-02  1.10043321E-02
  3.81564341E-02 -1.26849539E-01  3.05767672E-03  9.27962014E-02  2.37202884E-03
 -3.40693043E-01 -1.14513493E+00  1.09556732E-02 -6.81768839E-02 -8.91624647E-03
 -2.37828295E-03 -2.67231260E-02  8.27624263E-02 -1.63239334E-02 -5.65150229E-02
  1.77431346E-01  5.95543957E-02 -8.64756209E-02 -3.03074320E-02 -3.13045100E-01
  1.24817923E+00 -1.60670094E-02  6.72863856E-02  8.66701119E-03 -2.47526072E-03
  4.00041297E-02  6.70987467E-02 -3.89230372E-05 -1.43574894E-04  7.14516992E-04
  2.88149326E-04  1.49272126E-01 -6.59921348E-05  5.43926269E-04  6.43580137E-01
 -3.24357470E-04  2.52497493E-04 -2.28994017E-05 -4.54668244E-03 -8.72750344E-05
  1.21725245E-01  1.63472436E-02  5.65939922E-02 -1.77615581E-01 -5.92337486E-02
 -8.61022690E-02  3.04555342E-02  3.13966114E-01  1.24838122E+00  1.63495048E-02
 -6.71500445E-02 -8.77249513E-03 -2.43178536E-03 -4.02891279E-02  6.67396773E-02
 -1.09952110E-02 -3.81253984E-02  1.26792041E-01 -2.94930228E-03  9.28749157E-02
 -1.98679661E-03  3.40078849E-01 -1.14541707E+00 -1.19407675E-02  6.81977027E-02
  9.17892656E-03 -2.67537343E-03  2.63973321E-02  8.30095717E-02 -2.77191837E-05
 -1.01185102E-04  2.72485627E-04  9.82845660E-05 -1.77917011E-02  1.26183713E-04
  2.45394484E-04  1.37658625E-01 -1.47780409E-05 -3.20822764E-05  6.94828421E-05
 -1.25510678E-03  2.13210876E-05 -9.97814288E-03  2.12320840E-05  7.74986689E-05
 -1.97516824E-04  1.87527093E-04  1.55169254E-01  2.31773072E-04 -3.86575977E-04
 -5.47691757E-01  3.43213075E-05  1.63228903E-05 -1.79460934E-04 -4.77886222E-02
  7.42921483E-06 -1.57704003E-01  7.30130622E-02 -4.31397491E-01  2.87076409E-01
 -3.11430670E-01  1.09142797E-01 -7.31704140E-02  4.31287492E-01 -2.85535196E-01
 -3.11661264E-01 -1.09545658E-01  4.13871843E-03  1.47796547E-02 -7.39562741E-02
 -4.43849795E-02  5.73508081E-02 -3.33587085E-03 -6.00779844E-02  2.99415254E-02
 -1.28543377E-03  9.87859743E-03  4.95406307E-04 -7.01058874E-04 -1.60168476E-02
  2.83219210E-03 -4.13813267E-03 -1.47780717E-02  7.39651329E-02  4.43179224E-02
  5.76512005E-02  3.48984095E-03  5.99937101E-02  2.98340849E-02  1.36798151E-03
 -9.96456277E-03 -4.87790879E-04 -8.10300008E-04  1.59468315E-02  2.69919675E-03
  3.25852142E-02 -9.66967473E-01 -3.12699347E-01 -3.74800765E-01  1.24124861E-02
 -1.71632765E-02  1.10875644E+00 -2.42291455E-01  5.69220564E-01  2.33324675E-02
  1.70231053E-02 -1.10919702E+00  2.41704950E-01  5.69379837E-01 -2.33209178E-02
 -3.25380946E-02  9.67265526E-01  3.12982562E-01 -3.74535610E-01 -1.32722346E-02
 -1.57233969E-02 -5.50349240E-02  2.00356795E-01  3.11774167E-02  3.72346625E-05
 -1.00341369E-02  4.24377100E-01 -6.78649019E-04  1.14123871E-03 -1.35828629E-01
 -5.35364629E-03  9.55713454E-05 -1.25434097E-02  4.77259855E-05  4.64976091E-03
  1.68897400E-02 -6.71218062E-02 -2.95250089E-02  8.48166416E-03  1.14965359E-03
  2.88621233E-01  1.50424742E-01  1.82481788E-02 -3.24948233E-02 -4.63878762E-03
 -5.68286996E-03 -6.40584416E-02 -1.25081683E-01  4.85278024E-03  1.55619529E-02
 -1.73700287E-02 -1.63185831E-02 -8.43796310E-02 -1.81126379E-02  5.34347501E-01
 -1.61351147E-01 -2.43307069E-02  3.64970201E-02  2.00124996E-03 -8.57065968E-03
 -7.48886069E-02  4.54814212E-02 -1.74909997E-02 -6.56409155E-02  3.49244356E-01
  4.20725491E-02 -2.46421130E-04 -1.41889609E-03  1.99872507E-01 -6.45876217E-04
  7.11882548E-02  1.69453717E-01  1.27396934E-02 -4.30891473E-05  5.19239845E-02
 -2.96657655E-04  4.80089190E-03  1.53870427E-02 -1.69397858E-02 -1.61001366E-02
  8.45329258E-02 -1.81597306E-02  5.31481923E-01  1.56981600E-01 -2.44573924E-02
  3.65992466E-02  2.01607277E-03  8.53374041E-03 -7.47010298E-02 -4.56662234E-02
  4.67761107E-03  1.69899542E-02 -6.76003182E-02 -2.95648220E-02 -8.90399407E-03
  1.35683386E-03  2.85476139E-01 -1.48868715E-01  1.82348291E-02 -3.28446336E-02
 -4.49407786E-03  5.70549484E-03 -6.39656826E-02  1.24873311E-01  2.54445136E-03
  9.46568527E-03 -3.17207637E-02  5.57501086E-02  1.12780321E-05 -6.08199450E-04
  2.29504773E-01 -1.39222103E-04 -7.27163019E-04 -2.21899320E-01 -3.47725058E-03
 -2.02439047E-04 -5.37195695E-02 -9.24450089E-05  4.37831550E-03  1.58391230E-02
 -3.89846839E-02  6.63212574E-02 -2.77251819E-04 -2.14635718E-02  2.19980125E-02
  9.11017413E-04 -8.22744002E-02  5.65429543E-02 -1.91507030E-02  3.98328521E-05
  4.23777707E-02  2.39068591E-04 -6.33608871E-02 -1.52569454E-01  3.41766660E-01
  1.35547483E-01  8.72829826E-02 -6.30894093E-02 -1.53905574E-01  3.42652003E-01
 -1.34809111E-01  8.76568209E-02 -8.69719205E-03 -3.18889358E-02  1.81375251E-01
  3.12831833E-02  3.94231739E-02 -3.04987030E-03  3.53230149E-02  7.40075995E-02
 -1.49309459E-03 -2.27916725E-02  4.88775003E-04 -1.26689959E-03 -1.77713821E-03
  4.41358315E-03 -8.69098723E-03 -3.18670396E-02  1.81275399E-01  3.13129287E-02
 -3.95670267E-02 -2.96308508E-03  3.52827135E-02 -7.42728335E-02 -1.38743095E-03
 -2.27761214E-02  5.12833840E-04  1.24148280E-03 -1.82406400E-03 -4.46109593E-03
 -1.04703473E-02  2.75011595E-01  1.18584774E-01 -8.25796506E-02  7.26001285E-03
 -2.04446827E-02 -3.73364653E-01 -1.95646127E-01 -1.88997010E-01  1.14682130E-02
 -2.03352224E-02 -3.68287641E-01 -1.96685561E-01  1.86916278E-01  1.15074556E-02
 -1.02533587E-02  2.73081301E-01  1.18022737E-01  8.36964867E-02  7.02287329E-03
  8.10857150E-03  3.08169274E-02 -1.70307128E-01  1.59452542E-01 -1.32728538E-04
 -1.87265018E-02  4.04049026E-03 -1.64041147E-03  3.95277910E-02 -2.41510081E-01
 -2.36430043E-02  1.93807048E-05  1.18571318E-01  3.50051398E-04 -1.42376815E-03
 -4.64921132E-03  1.09226794E-02  1.53681470E-02  6.59944244E-02 -1.35426407E-02
  4.78113555E-01  2.18411706E-01  1.41681138E-02 -5.71003791E-03 -1.87585959E-02
 -1.98686767E-02 -9.67632562E-02  5.06115549E-02 -5.21804109E-04 -2.99724780E-03
  3.58281940E-02  8.50705888E-02 -1.86019869E-02 -4.54794042E-02  2.49027445E-01
  1.34589438E-01 -6.45081487E-03  1.63556336E-01  6.44513573E-03 -1.54612189E-02
  1.25445624E-01 -5.15850164E-02  1.97427766E-02  6.70669903E-02 -1.81337263E-01
  5.29291430E-02 -5.16273573E-05  5.77965568E-03  8.29063649E-01  1.50187406E-03
  8.63907059E-02  2.55228706E-01  3.52442686E-02 -4.51998813E-05  3.22456747E-02
  1.14086761E-04 -5.00194139E-04 -2.92162358E-03  3.55796452E-02  8.52511314E-02
  1.87402739E-02 -4.55822515E-02  2.46535245E-01 -1.32298366E-01 -6.63598166E-03
  1.63718966E-01  6.53154001E-03  1.54392571E-02  1.25650380E-01  5.16724854E-02
 -1.44863707E-03 -4.73917958E-03  1.12834141E-02  1.53438853E-02 -6.62525081E-02
 -1.38297826E-02  4.75201009E-01 -2.20244739E-01  1.40625712E-02 -5.41304988E-03
 -1.87267884E-02  2.00155255E-02 -9.68225231E-02 -5.05661967E-02 -1.87860355E-02
 -6.89819954E-02  1.92347397E-01  1.96183475E-01  3.15653617E-05 -1.16264114E-02
  1.67845264E-01  2.44377132E-04 -1.01706427E-02 -9.56178354E-02 -9.84363623E-03
 -4.45437453E-05 -4.07118145E-02 -1.00428158E-04  1.48596559E-03  5.50381713E-03
 -1.60262560E-02  9.58858077E-02  8.90057628E-05 -4.60373656E-02  7.09589122E-01
 -7.31540401E-04 -1.16821512E-01  7.94525739E-02  2.53561277E-02 -6.54832041E-05
 -1.14147669E-01 -4.79236086E-05 -2.47900209E-02 -4.67960070E-01 -2.15965957E-01
 -1.31733110E-01  1.22069250E-01 -2.48983094E-02 -4.67138441E-01 -2.16541715E-01
  1.31177841E-01  1.22591379E-01 -1.02123161E-03 -3.85920702E-03  2.41703471E-02
 -6.01024809E-02 -1.44761558E-02 -8.99223643E-03 -3.02230616E-02  4.02884675E-02
 -2.15382298E-03 -3.85942684E-02  1.28347406E-03 -5.65771341E-03 -1.47359661E-02
  3.53647147E-02 -1.03457520E-03 -3.90739709E-03  2.44241891E-02 -5.99214117E-02
  1.45002065E-02 -9.13488971E-03 -3.00034357E-02 -4.03105678E-02 -2.14899972E-03
 -3.86032009E-02  1.35345070E-03  5.62746979E-03 -1.46506925E-02 -3.53899452E-02
  7.26268566E-02  5.04652946E-01 -9.10932127E-02 -1.15789944E-02  3.54548131E-02
 -3.64426887E-02 -1.41623069E-02 -7.32409108E-02  1.67061807E-01  2.93047999E-02
 -3.65008344E-02 -1.47853726E-02 -7.29539917E-02 -1.67013053E-01  2.95412017E-02
  7.26003711E-02  5.04698192E-01 -9.08217273E-02  1.16669246E-02  3.53928109E-02
 -9.01736062E-04 -3.45086050E-03  1.92156300E-02 -4.04934788E-02 -1.05250819E-04
 -9.74275464E-02 -4.10792832E-02  1.05358564E-03  3.32523808E-01  5.54931708E-02
 -1.83867287E-01 -6.36750964E-06 -3.31611841E-02  4.11803843E-05  9.78228658E-05
  3.81070660E-04 -5.05094429E-03 -2.87231286E-03 -1.19614001E-02 -1.50827535E-01
 -1.39561462E-01 -7.61717486E-02  8.02504778E-02 -1.74827125E-02 -9.58691855E-02
 -1.22041293E-01  2.99597131E-02  1.23181662E-03 -4.49084215E-04 -1.06565542E-03
 -6.28655158E-03 -2.61809505E-02  9.10605661E-03 -2.27642336E-01 -1.45669450E-01
  4.66007675E-02 -5.75062621E-02 -4.06996777E-02  7.02776320E-02 -8.77823296E-02
 -2.65443502E-02  6.54632935E-03 -2.17818377E-03 -6.55627391E-03 -6.55192036E-03
 -3.45400551E-02  2.27820931E-05  7.71072117E-02 -5.60392779E-02 -1.92072503E-03
  5.56908436E-01 -6.78908940E-02  1.66170093E-01 -6.38049734E-05  3.34914592E-03
  1.38266740E-04 -4.30041770E-04 -9.94815049E-04 -6.66431779E-03 -2.65163880E-02
 -9.17094588E-03 -2.27389728E-01 -1.42199217E-01 -4.73455953E-02 -5.72953428E-02
 -4.09558410E-02  7.02211850E-02  8.77070397E-02 -2.65068321E-02 -6.42525197E-03
  8.08384744E-05  3.25846713E-04 -4.96222182E-03 -2.85110071E-03  1.22448466E-02
 -1.50881813E-01 -1.35285348E-01  7.56778069E-02  8.01087044E-02 -1.74427737E-02
 -9.58798414E-02  1.21989746E-01  3.02196941E-02 -1.10063109E-03  4.11430213E-03
  1.51213016E-02 -4.20716061E-02 -5.25978970E-02 -1.35505819E-04 -1.00319459E-01
 -5.79381453E-02  1.19692670E-04 -8.17628633E-02  4.20472089E-02 -6.69386456E-02
  8.58357848E-05  2.03611628E-02  1.17692706E-06 -3.07465821E-03 -1.14325545E-02
  3.10792296E-02 -1.10553708E-02  2.25334774E-04 -2.19913985E-01 -7.92981960E-02
  8.68247620E-05 -5.34606850E-01 -4.80270629E-02  2.66011016E-02 -4.39892397E-05
  2.66545612E-02 -1.63534989E-04 -6.37814421E-03  7.84123484E-02 -2.73063059E-02
  2.74663024E-02  2.32088957E-01 -6.63110646E-03  7.84716672E-02 -2.80573268E-02
 -2.77368470E-02  2.31452113E-01  1.21566592E-03  4.48289637E-03 -2.60120870E-02
  1.03961211E-02  7.03443399E-04 -5.93853108E-02  1.83888116E-03 -1.65410865E-02
 -8.77805959E-03  1.12918109E-02  8.28245736E-03 -4.27848111E-02  2.71910235E-03
 -8.97909639E-03  1.20481440E-03  4.44434630E-03 -2.58219861E-02  1.05466415E-02
 -6.00447027E-04 -5.92919228E-02  1.95752695E-03  1.65660465E-02 -8.77799255E-03
  1.12165196E-02  8.26010721E-03  4.28173064E-02  2.71113030E-03  8.98941272E-03
 -1.29132811E-02 -1.56371205E-01 -6.47785387E-04  5.55694334E-03  2.52837139E-01
  1.43308933E-02  9.96008357E-02  1.37807472E-02 -1.36184795E-02  1.94193154E-01
  1.44359485E-02  9.89368575E-02  1.42160359E-02  1.42224975E-02  1.93948162E-01
 -1.28430600E-02 -1.53982150E-01 -6.48981231E-04 -6.99653063E-03  2.52943138E-01
 -2.22953785E-05 -7.72584055E-05  2.89171429E-04 -3.31039581E-04  8.01140264E-02
 -3.32879442E-05  6.90288762E-04  5.31380917E-01  3.80993243E-04  5.28821282E-05
 -1.15426149E-04 -6.07163458E-03 -3.28162853E-04 -4.83362714E-02 -2.71784442E-03
 -9.03383936E-03  1.24278973E-02  2.14607105E-02  5.71234135E-02  1.16060638E-01
 -3.40084731E-01  3.03469104E-01 -3.12710143E-02 -5.29965712E-02  7.72010681E-02
  6.13942466E-02  7.83755144E-03  3.90423050E-02 -1.39397487E-03 -3.99254804E-03
 -1.14593131E-02 -7.43543652E-03  1.65780206E-02  2.43474656E-01 -4.63597149E-01
  1.05344122E-01  8.15422341E-02 -5.21657015E-02 -7.84392620E-02  6.23642475E-02
  3.82642900E-02 -2.41436996E-02 -6.85860083E-06 -2.22894266E-05  3.56575825E-05
 -1.19268959E-04  8.60690717E-02  4.03237128E-05  5.60470346E-04 -1.77860540E-01
  3.13458082E-04 -7.70570118E-05  1.06217740E-04  3.20668732E-03  1.36384496E-04
 -4.92045959E-03  1.37906314E-03  3.94464726E-03  1.15471124E-02  7.01766769E-03
  1.66850354E-02 -2.43749049E-01  4.63115764E-01  1.04403996E-01 -8.15968433E-02
  5.21024833E-02  7.86181002E-02  6.23513158E-02 -3.85424606E-02 -2.42794722E-02
  2.73693807E-03  9.10774462E-03 -1.29141408E-02 -2.16481135E-02  5.71965351E-02
 -1.16159654E-01  3.39609690E-01  3.03854694E-01  3.13332126E-02  5.25599668E-02
 -7.72301174E-02  6.13958833E-02 -7.37897834E-03  3.92293866E-02  3.76845992E-05
  1.38656516E-04 -3.96246499E-04 -1.84239704E-04  5.55968000E-02 -1.03933828E-04
  1.39417924E-04 -7.84420134E-03 -2.21094644E-04 -1.77661389E-04 -8.01584633E-05
  2.01803212E-02 -3.31120667E-05  4.10474544E-02 -5.57455637E-06 -2.19349649E-05
  7.57033869E-05 -8.25067824E-05  3.45849136E-03 -1.28020347E-04  3.69025681E-04
  1.06193600E-01 -2.27563195E-04 -1.10931732E-04  8.21333086E-05  2.89476891E-02
  3.86026655E-05  2.00770736E-02 -1.75267040E-02  6.84269310E-02 -1.88672561E-02
 -2.41571388E-02 -4.21770297E-01  1.76037572E-02 -6.88845484E-02  1.87089600E-02
 -2.42056774E-02  4.22082692E-01 -8.52386191E-04 -3.08285656E-03  1.53220484E-02
  1.69139282E-02  4.66921009E-02  4.27025836E-02  2.77927529E-02  2.01384456E-02
  8.59168112E-03  3.11849897E-03 -7.52121426E-03  1.36054813E-02 -7.82771694E-03
 -9.85806193E-03  8.33531532E-04  3.01387489E-03 -1.49251894E-02 -1.66770718E-02
  4.63427515E-02 -4.26408824E-02 -2.77615274E-02  1.98039915E-02 -8.45030059E-03
 -3.05462215E-03  7.55598886E-03  1.36041579E-02  7.90964173E-03 -9.74438837E-03
  3.90691060E-02  1.70703424E-01 -6.29800795E-02  4.80536401E-03 -2.46310348E-01
  3.50520402E-02  3.72999749E-01  9.03755718E-02  1.40166392E-01 -3.47078031E-01
 -3.49372057E-02 -3.72245090E-01 -9.08550172E-02  1.40172012E-01  3.47212556E-01
 -3.90971587E-02 -1.71697608E-01  6.32487133E-02  4.83571953E-03  2.46686995E-01
 -1.99032670E-02 -7.12171753E-02  3.43269177E-01 -4.29411745E-01  9.13944859E-04
 -9.08219806E-03  7.78537801E-01  6.30906054E-03 -2.31366206E-02  8.71943976E-02
  9.10113574E-03  7.24730751E-05 -2.85511876E-01 -1.89148766E-03  8.85850841E-03
  3.06510499E-02 -1.19891727E-01  8.09656251E-03  7.62611929E-02  1.21088342E-02
 -4.19250618E-01 -4.77901929E-01  1.27107145E-02 -1.32849409E-01 -3.72799793E-04
  2.98840705E-03  1.18038187E-01  1.88953486E-02 -1.10146381E-02 -4.00961231E-02
  1.92436288E-01 -1.33642317E-01  1.02876959E-02 -7.96121234E-03 -3.40309646E-01
  2.07783955E-01 -1.49088235E-02  8.71631843E-02 -4.07056063E-03  6.37918158E-03
  1.00159684E-02  1.17785768E-02  8.09735192E-03  2.82356954E-02 -1.08271512E-01
 -4.61246100E-02  5.94377836E-04  7.83312363E-03  3.01717516E-02  4.82926526E-03
  2.79432283E-02 -4.64724286E-02 -2.44832789E-03 -1.13637315E-05  4.70845429E-02
 -1.37469555E-04 -1.10186720E-02 -4.01661733E-02  1.94244472E-01 -1.33512625E-01
 -9.26422143E-03 -6.17119742E-03 -3.34296246E-01 -1.93492214E-01 -1.43536779E-02
  9.06568098E-02 -4.72119944E-03 -6.98318741E-03  8.60754310E-03 -1.20825052E-02
  8.99290855E-03  3.10920626E-02 -1.20418297E-01  7.26124485E-03 -7.34123771E-02
  1.33334209E-02 -4.15917573E-01  4.89214193E-01  1.31855610E-02 -1.29432665E-01
  1.53749155E-04 -3.39509195E-03  1.17467155E-01 -1.80863787E-02  3.56148853E-02
  1.30668020E-01 -3.64557281E-01 -1.00030866E-01  8.45206542E-04  7.87160257E-03
  3.11869947E-01 -2.90154393E-04  6.07739126E-03 -3.38489931E-01 -5.51106913E-04
 -3.92800713E-04  3.88267067E-02  7.12585572E-04 -1.06506801E-03 -3.79530726E-03
  9.00226648E-03 -7.97102500E-02 -2.32469968E-04 -1.64077453E-02 -4.03682434E-03
  4.06879861E-04 -3.71577630E-02  1.66312261E-02  8.31394835E-03 -6.09006975E-05
 -4.50175626E-02  3.96753263E-04  2.33386536E-02  9.62347318E-02 -8.63873269E-02
 -1.12623023E-01  2.62309452E-02  2.33703609E-02  9.39092254E-02 -8.31015128E-02
  1.13412002E-01  2.39462260E-02 -9.67902840E-03 -3.56313903E-02  2.07558334E-01
  8.31582467E-02  2.48127583E-01  1.96073677E-04  4.51093819E-02  1.54220196E-01
 -1.71839098E-03  1.47527793E-03  3.61969689E-05  1.76156148E-03  1.31779186E-02
 -6.66253599E-02 -9.61647725E-03 -3.54041178E-02  2.06360609E-01  8.24026752E-02
 -2.46757114E-01  6.47539453E-04  4.39110313E-02 -1.53685199E-01 -1.54887388E-03
  1.61251608E-03 -1.03827425E-04 -1.82001393E-03  1.32568683E-02  6.63124933E-02
 -3.02117131E-02 -6.64496815E-01 -2.39551916E-01 -3.58764239E-01 -9.17109472E-03
 -1.56968682E-02  2.97237996E-01 -1.53242832E-02  1.40398280E-01 -1.13783225E-02
 -1.72624830E-02  2.78749787E-01 -1.47150533E-02 -1.37658891E-01 -1.42394181E-02
 -3.19529434E-02 -6.76307010E-01 -2.39860835E-01  3.58201663E-01 -1.07973807E-02
 -1.60376086E-04 -5.73122801E-04  2.76400058E-03 -3.51291076E-03 -1.29485972E-01
  4.91617508E-05  6.80517525E-03 -5.45834599E-01  2.35246439E-04  6.69608347E-04
 -1.08024556E-04 -6.66064945E-03 -2.35287637E-03  1.54496644E-01  8.08524075E-03
  2.65742576E-02 -3.34654366E-02 -6.11070344E-02 -1.32388479E-01  6.25408068E-02
 -7.58630201E-02 -6.21196219E-01 -5.76013703E-03  1.86582488E-01  3.15902691E-02
  3.04493122E-02 -3.64496416E-02 -4.59932218E-02 -1.14981551E-03 -7.07513004E-03
  1.09879961E-01  4.00694844E-02 -6.56792660E-02  9.66522136E-02  1.99557905E-01
 -7.94124111E-01  2.77628137E-02  2.05763631E-01 -2.96645731E-02  3.05104443E-02
 -8.11714022E-02  3.63572189E-02  6.14669158E-05  2.13730997E-04 -8.09867811E-04
 -3.63182868E-04 -7.97008191E-02  9.10657765E-05 -2.67695545E-04 -6.75099806E-01
 -1.41469533E-03 -4.25848457E-04 -2.26127367E-04 -5.08753682E-03  2.61631431E-04
  3.93333100E-02  9.69258719E-04  6.41712536E-03 -1.06690462E-01 -4.21778237E-02
 -6.57176815E-02 -9.60175152E-02 -2.05087113E-01 -7.97066672E-01 -2.68592613E-02
 -2.04240554E-01  2.96424704E-02  3.05051295E-02  8.13041532E-02  3.61114637E-02
 -7.94748172E-03 -2.60997139E-02  3.16605890E-02  6.11003233E-02 -1.33571662E-01
 -6.28944025E-02  6.86468268E-02 -6.13077190E-01  4.40461884E-03 -1.88651626E-01
 -3.16220929E-02  3.06682279E-02  3.83455885E-02 -4.61646804E-02  3.01245477E-04
  1.10581961E-03 -3.09787067E-03 -5.82181040E-04 -1.16726599E-01  6.55327198E-05
  2.67380827E-03  2.93390020E-02 -1.74860770E-05 -2.90917385E-03  1.12093933E-04
  9.22217859E-03  2.76368439E-04 -8.91062548E-02 -1.59153530E-06 -4.99433664E-06
  1.15608049E-05 -6.56965837E-04  5.13996406E-02  4.79696318E-04 -1.64541496E-04
 -1.13445351E-01  1.36265782E-03  1.59454961E-04 -9.81161863E-05 -4.64438678E-03
 -3.67068237E-04 -6.53739886E-02  1.88468772E-02 -1.77717690E-01  2.60948387E-01
 -7.57966661E-02 -1.04917260E-01 -1.83077757E-02  1.79567901E-01 -2.62437691E-01
 -7.34497152E-02  1.02748412E-01  3.21630907E-03  1.16487742E-02 -6.04753863E-02
 -4.85179740E-02 -7.98618019E-02  1.93814952E-02 -7.72193484E-02 -2.61738309E-02
  3.21227884E-03  3.58178492E-03 -3.46694056E-03  6.51928603E-03  1.30213006E-02
  2.48280244E-02 -3.39784907E-03 -1.23159324E-02  6.43315916E-02  5.00824042E-02
 -8.39813663E-02 -1.94017504E-02  7.80868751E-02 -2.87625092E-02 -3.10885537E-03
 -3.55190365E-03  3.50448607E-03  6.57226399E-03 -1.27340681E-02  2.59292979E-02
 -9.41938408E-02 -7.69465633E-01  5.04683436E-02 -6.56930982E-02 -1.18048044E-01
 -9.52755172E-02 -9.68048815E-01 -4.12862174E-02 -1.15532120E-01 -1.48244901E-01
  9.48808413E-02  9.72142163E-01  4.13313229E-02 -1.17917160E-01  1.47943848E-01
  9.35886925E-02  7.58178387E-01 -5.45923862E-02 -6.00082218E-02  1.18178768E-01
  2.35285463E-05  8.23330106E-05 -3.27666160E-04  3.14022861E-04 -2.56013654E-01
  1.34131731E-04 -6.58271756E-04  3.44255208E-01  1.04168174E-04 -1.02954027E-04
 -8.01411908E-05 -5.05059588E-03  2.81149233E-04  9.83355308E-02  6.12894244E-03
  2.41671025E-02 -1.52011941E-01  1.51819861E-02 -4.17561381E-02  2.80134438E-02
  1.77534461E-01  6.18209624E-01  4.57735826E-03 -2.55375932E-01  9.54466156E-03
  1.23215547E-02  3.42171750E-02 -1.12498998E-01 -4.81473774E-03 -1.56813066E-02
  1.59808351E-02 -3.80385730E-02  3.25681119E-02  2.70324576E-02  1.27005806E-01
  4.86912090E-01  4.11646766E-04 -2.30509732E-01 -6.56178895E-03  1.25558966E-02
 -2.34255809E-02  1.07641866E-01 -2.33475719E-05 -8.14674673E-05  3.14293420E-04
  1.07508539E-04 -1.92361847E-01 -2.00136177E-04 -1.84379392E-03  3.73413024E-01
 -7.30822356E-04  7.42511807E-06 -1.32577385E-04 -5.19103746E-03 -1.05652682E-04
  1.10626498E-01  4.83754727E-03  1.57601459E-02 -1.63310607E-02  3.83529970E-02
  3.25881008E-02 -2.64444162E-02 -1.25813415E-01  4.89180873E-01  8.23373730E-05
  2.30198063E-01  6.68581358E-03  1.25613055E-02  2.34371241E-02  1.07661900E-01
 -6.15748964E-03 -2.42723844E-02  1.52569764E-01 -1.53592722E-02 -4.16160565E-02
 -2.83895376E-02 -1.76369691E-01  6.17528534E-01 -4.72362364E-03  2.55906604E-01
 -9.32779510E-03  1.20863176E-02 -3.44755038E-02 -1.12325562E-01 -3.26693906E-05
 -1.20870729E-04  3.49921284E-04  2.31814619E-04 -1.67226584E-01 -1.35302190E-06
 -2.57834384E-04 -1.76965937E-01  2.23478060E-04  1.56570070E-04  2.93882380E-05
  3.24109649E-03  2.96546447E-05 -1.56562993E-01  8.81799795E-07  3.33042940E-06
 -4.08019927E-06  9.42307217E-05  3.33013745E-02  3.97179734E-04 -1.28823382E-03
 -3.29148203E-01  6.28700357E-04 -9.34726327E-05 -1.47117978E-04 -4.33127062E-02
  2.41482250E-04 -2.72529795E-02  4.07487123E-02 -2.22145793E-01  2.55396310E-01
 -1.53042884E-01 -2.33356994E-02 -4.07680458E-02  2.23748107E-01 -2.55024675E-01
 -1.53819250E-01  2.19364054E-02  2.55044721E-03  9.34095650E-03 -5.30316914E-02
 -6.03395366E-02 -9.78612905E-02  6.92854043E-03 -7.03647247E-02 -7.29984735E-02
  6.91742207E-04 -3.35729892E-02 -1.23986754E-03  2.46558631E-03  1.07391322E-02
  1.77407240E-02 -2.54427735E-03 -9.31773857E-03  5.28811891E-02  6.02798185E-02
 -9.74018789E-02 -6.84219432E-03  7.04980775E-02 -7.25090574E-02 -7.84339230E-04
  3.35096636E-02  1.12938276E-03  2.53921693E-03 -1.08209594E-02  1.76121854E-02
  1.71294474E-02  6.13309689E-01  2.70091195E-01 -1.12463491E-01 -4.88089081E-02
  1.15330968E-02  3.57943354E-01 -2.62628298E-01 -1.64186126E-01 -4.67325137E-02
 -1.15942673E-02 -3.60152841E-01  2.62922906E-01 -1.63249929E-01  4.69103566E-02
 -1.72512820E-02 -6.12559214E-01 -2.69602426E-01 -1.12976913E-01  4.93743451E-02
 -3.17387355E-03 -1.15378162E-02  6.15380221E-02  1.23125927E-02  4.90568553E-04
  1.04838134E-01  2.92834519E-01 -1.65838852E-03  3.69461978E-01 -3.56814654E-03
 -1.48911079E-01  2.89031967E-05  4.11184693E-02 -3.01502963E-04 -6.89777790E-05
 -5.79638784E-04  1.29040734E-02  2.60230164E-02 -9.64572721E-03 -1.72125433E-01
 -4.07021074E-02 -4.60800474E-02 -2.52456704E-01  5.21973382E-02  3.44277355E-03
 -5.30384725E-02 -3.68317060E-02 -3.25144738E-02  7.13801065E-04  2.29362791E-03
 -6.94841416E-03  5.82819714E-02 -1.89628591E-03  1.52166457E-01  1.50952321E-01
 -2.21469848E-01  2.38447955E-01  2.55016065E-02  4.90890532E-02 -5.61094542E-02
  3.83116587E-02  1.73038492E-02 -2.15440069E-03 -7.61017170E-03  3.39681290E-02
  7.34071432E-02  2.21586814E-04  2.72613273E-02 -5.25048333E-01  3.24139840E-03
 -7.07580287E-01  1.08822039E-03 -1.02871372E-01  4.19558795E-05 -9.83606883E-02
 -9.89331556E-05  6.98415279E-04  2.23147168E-03 -6.53017735E-03  5.84387177E-02
  2.08080548E-03  1.52394661E-01  1.48466218E-01  2.25774261E-01  2.38396417E-01
  2.58824327E-02  4.89451402E-02  5.59980716E-02  3.81061690E-02 -1.76681433E-02
 -3.16713948E-05 -4.48762144E-04  1.24806328E-02  2.57968183E-02  1.02840588E-02
 -1.71927016E-01 -4.42294425E-02  4.45435816E-02 -2.52403841E-01  5.23209882E-02
  3.55904570E-03  5.29333657E-02 -3.68544677E-02  3.29966171E-02  1.58564502E-03
  5.72560594E-03 -1.57190041E-02  7.10787869E-02  3.26594045E-04 -1.11753979E-01
  1.23463355E-01  3.16953002E-04 -8.17790226E-02 -1.14426220E-01  8.53138613E-03
 -1.02849841E-04 -5.34927190E-02  2.50886666E-04  5.64734007E-03  2.10293156E-02
 -5.60104256E-02  2.25408806E-02 -2.62923953E-04  2.88924384E-01 -1.94230473E-01
 -1.68028191E-04  8.65395487E-01  1.63076159E-02 -1.00019778E-01  2.05567275E-05
  3.96722184E-02  1.29244660E-04  3.94580831E-02  1.91052364E-01 -7.21395950E-03
 -4.54436761E-02 -6.74181228E-01  3.96046891E-02  1.90374942E-01 -5.78169440E-03
  4.65176527E-02 -6.74847677E-01 -5.13432682E-03 -1.88457368E-02  1.08755096E-01
  1.70811163E-02  3.49396383E-02 -1.81340362E-02  1.31973163E-02  5.62133788E-02
  2.17892011E-02 -1.11387253E-02  2.95959479E-03 -3.14109008E-02  5.67151513E-03
  4.57559790E-03 -5.12574358E-03 -1.88139749E-02  1.08575675E-01  1.69723158E-02
 -3.43553824E-02 -1.79699574E-02  1.29143624E-02 -5.60684864E-02  2.19004517E-02
 -1.12491746E-02  2.95044785E-03  3.13939809E-02  5.72600849E-03 -4.74925587E-03
 -2.49037086E-03 -4.49659715E-02  7.24306356E-02 -7.56277011E-02  2.32960879E-01
 -3.72879853E-02 -2.97543906E-01  2.70114035E-02 -1.20206358E-02  9.35135023E-02
 -3.76307416E-02 -3.00771866E-01  2.66412017E-02  1.24464543E-02  9.32384171E-02
 -2.77774253E-03 -4.59246714E-02  7.36268485E-02  7.60434628E-02  2.32714822E-01
  1.29378178E-02  4.65854220E-02 -2.12133698E-01 -7.65937433E-02  4.84563210E-05
  5.81015507E-02 -6.22945842E-01  3.10671508E-03  1.02647717E-01 -8.69352217E-02
 -4.55111863E-02  5.84106795E-05 -1.12304491E-01 -8.39906251E-04 -7.65928451E-05
 -2.84543703E-04  2.88922231E-03 -7.96201066E-02  9.42617166E-02 -4.17898847E-02
  4.81742005E-01  2.51266389E-01 -1.21984937E-01 -6.12693922E-02  7.08846301E-03
 -1.35818824E-02  1.11649099E-01  1.06091710E-01 -3.04341396E-03 -1.19405506E-02
  7.76982547E-02 -1.55234432E-01 -1.51940514E-03  8.74711486E-02 -9.70384347E-02
  4.49579829E-01  7.93058163E-02  4.23251637E-02  1.16299417E-02 -2.22411888E-02
 -7.37236040E-02 -1.12873030E-01  5.48602699E-03  1.63272934E-02  9.09859936E-03
  7.40874009E-03  9.90474677E-05  2.10273879E-02  1.45398285E+00 -2.33281666E-03
 -3.58681944E-01  1.00214224E-01 -6.96301753E-02 -5.16881448E-06  2.16067233E-01
 -2.70821264E-04 -3.07656628E-03 -1.20646621E-02  7.83470775E-02 -1.55858068E-01
  1.25154126E-03  8.78851172E-02 -9.27433621E-02 -4.51602963E-01  7.97424295E-02
  4.22995868E-02  1.15937265E-02  2.23069456E-02 -7.41001865E-02  1.12950954E-01
 -2.75347670E-05 -1.09013713E-04  2.21594397E-03 -7.96513108E-02 -9.33525677E-02
 -4.24655072E-02  4.87318554E-01 -2.47827832E-01 -1.22813831E-01 -6.15764634E-02
  6.87344575E-03  1.36169945E-02  1.11986213E-01 -1.06018918E-01 -6.52078804E-03
 -2.37791371E-02  6.72549179E-02 -1.05096723E-01  3.29914289E-04 -3.61309343E-02
 -1.48796903E-01 -1.73395841E-04 -2.27518155E-02  1.57724553E-01  1.67130652E-02
  3.46467240E-04  1.08947136E-01  5.04253117E-04 -7.41414721E-03 -2.75069095E-02
  7.13060230E-02 -5.33060958E-02  5.27106496E-05  1.41712888E-01  4.62428988E-01
 -2.71921572E-04  3.81723975E-01  1.64989518E-01 -7.22862843E-02 -1.01389817E-04
 -4.96146408E-02  4.54647012E-05 -1.11482865E-01 -6.92471775E-01  3.68081870E-01
  1.57122394E-02 -1.56271058E-01 -1.11425110E-01 -6.92100590E-01  3.68083500E-01
 -1.60727568E-02 -1.56908194E-01  1.05250182E-02  3.85979304E-02 -2.22838481E-01
 -6.85420430E-02 -3.93964664E-02 -2.17503279E-03 -3.49626060E-02 -8.52717844E-02
  1.09340818E-02  1.72884565E-03  1.19285312E-03 -9.47060105E-03 -2.00395036E-02
 -9.29880888E-03  1.05679421E-02  3.87542034E-02 -2.23699240E-01 -6.92847574E-02
  3.95394882E-02 -2.58466571E-03 -3.57077587E-02  8.57356026E-02  1.06820641E-02
  1.72441528E-03  1.23114189E-03  9.55412633E-03 -2.00025807E-02  9.27158109E-03
  2.30197957E-02  4.86259367E-01 -3.25679217E-01  2.08421786E-01  9.19487626E-02
  8.45559642E-02  5.50115250E-01 -4.32795531E-03 -1.39411136E-02  2.84169640E-02
  8.45871416E-02  5.48938681E-01 -3.99312419E-03  1.50716916E-02  2.82101153E-02
  2.27992162E-02  4.85432368E-01 -3.27378596E-01 -2.09611478E-01  9.24348825E-02
  5.00646153E-05  1.78268006E-04 -6.62833870E-04  3.27253729E-04  4.78209214E-02
 -5.37463578E-05  1.28402416E-03 -2.40996645E-01 -4.73509580E-04 -7.97822219E-05
  1.37107491E-04 -8.27784563E-02  4.62884808E-04 -1.10751758E-01 -3.29653493E-03
 -1.15895212E-02  3.82816680E-02 -2.22089175E-02  4.50632762E-02  2.88343064E-01
  2.53302301E-01 -6.33536274E-02  1.54925445E-01  2.11126037E-02 -5.44649105E-03
  1.06178577E-01  1.27137929E-03  8.44465216E-03  1.94443793E-03  7.36190847E-03
 -4.09016435E-02  2.83760572E-02  1.75445558E-02 -4.13429865E-02  3.56154398E-01
  2.37299580E-01 -1.51356283E-01 -2.00689588E-05  3.56662980E-02  9.53118489E-02
  7.24777173E-03 -1.19286490E-02  9.41098591E-06  3.84991293E-05 -2.65881240E-04
  5.73226731E-04 -2.59160535E-03 -6.45746702E-07 -3.66474411E-03  4.70496938E-01
  9.85544614E-04 -2.71111793E-04  9.42645533E-05 -1.08808006E-01 -4.88762397E-04
  5.93814660E-03 -1.92472118E-03 -7.29153434E-03  4.05621179E-02 -2.74873032E-02
  1.70923013E-02  4.09884282E-02 -3.54364563E-01  2.40943968E-01  1.50496485E-01
  1.51027617E-04 -3.58969606E-02  9.51320852E-02 -6.67787008E-03 -1.13579836E-02
  3.26416771E-03  1.14726499E-02 -3.77397554E-02  2.23713658E-02  4.50647137E-02
 -2.87971182E-01 -2.53859477E-01 -6.27914322E-02 -1.54322469E-01 -1.99449606E-02
  5.40154867E-03  1.05993389E-01 -1.28233214E-03  8.11555807E-03  2.49349885E-05
  9.15543770E-05 -2.64160307E-04  1.18066193E-03  9.99786027E-02  5.39076814E-06
  5.98199518E-04  3.19874922E-02 -8.20986592E-05 -4.59445552E-04 -3.18411955E-05
  1.92737163E-02 -8.17527604E-04  8.61879506E-02 -3.64165237E-06 -1.25259498E-05
  3.28844598E-05  1.87636153E-04 -1.78580502E-03 -2.55492610E-04 -2.14085975E-03
 -4.72589650E-02 -9.84556214E-04 -2.72346459E-04 -7.44193880E-07 -4.42690164E-02
  2.39800200E-04 -1.47227935E-02  2.84795101E-02  6.52322740E-02 -1.01008105E-01
  8.62743309E-02  6.28631572E-01 -2.86010872E-02 -6.25393485E-02  1.01557579E-01
  8.44271701E-02 -6.27602378E-01 -3.98710659E-03 -1.45139773E-02  8.04015538E-02
  5.46022730E-02  2.95794062E-02  4.39849568E-02  7.00823851E-02  2.33263998E-02
 -7.20450285E-03  3.89327706E-03 -8.05254150E-03  2.20325104E-02 -4.95992419E-06
 -1.64150732E-02  3.91220369E-03  1.42407563E-02 -7.88767830E-02 -5.44108234E-02
  2.85645297E-02 -4.38325324E-02 -7.02692427E-02  2.20802175E-02  7.26413294E-03
 -3.84947192E-03  8.08608192E-03  2.19302701E-02  5.57907040E-04 -1.62903227E-02
  5.54479580E-03  1.23281838E-01  4.89279188E-02  3.83683317E-02 -4.40289008E-01
  1.18077991E-02  1.01211856E-01 -9.62677478E-02 -3.34981994E-02 -4.92584535E-02
 -1.18277538E-02 -1.04516019E-01  9.75995497E-02 -3.29208379E-02  4.95119322E-02
 -5.38848772E-03 -1.23099561E-01 -4.76244507E-02  3.78010037E-02  4.39877379E-01
 -2.84850365E-02 -1.02107711E-01  4.02122839E-01 -1.67367891E-02 -4.32860400E-05
  9.15555849E-02 -5.11970523E-01 -5.98373528E-04 -1.13051672E-01  4.96797191E-02
  2.55355324E-02 -1.26565050E-04 -1.69595502E-01 -1.58674803E-04  4.62146027E-03
  1.69824046E-02 -8.39791640E-02  6.06654459E-02 -8.68257136E-02  5.73315351E-02
  2.71313251E-01  2.87306788E-01 -7.98649361E-02 -2.49513353E-01  1.34960437E-03
 -1.68112620E-03 -4.66590779E-02 -1.45488701E-01 -5.43388249E-04 -2.34191128E-03
  2.60723783E-02 -1.16410146E-01 -8.48218275E-02  5.29661221E-02  2.82596276E-03
  4.35444189E-01 -4.77921848E-02 -8.76352218E-02 -7.66338274E-04 -8.48255116E-03
 -3.49340018E-02  1.67929260E-01 -1.00616362E-02 -3.86792408E-02  2.31050489E-01
 -1.98696910E-01 -2.33679957E-04  6.73662349E-02  1.22799615E+00  7.64306179E-04
 -2.09138959E-01  1.62197344E-01 -2.39584174E-02 -3.40148255E-04  6.48974694E-02
 -2.69669374E-04 -5.73758464E-04 -2.45387741E-03  2.66045750E-02 -1.16496862E-01
  8.45390715E-02  5.32872569E-02  1.49592078E-03 -4.34321808E-01 -4.68528321E-02
 -8.71407098E-02 -1.19808268E-03  8.93683212E-03 -3.53652106E-02 -1.67587154E-01
  4.65187186E-03  1.70902281E-02 -8.43661274E-02  6.04237604E-02  8.67271705E-02
  5.59792541E-02  2.69798398E-01 -2.88057806E-01 -8.09470504E-02 -2.49520181E-01
  1.26458613E-03  2.40335732E-03 -4.64262054E-02  1.45454051E-01 -8.44834969E-04
 -2.85520426E-03  1.73844797E-03 -3.93254246E-01 -6.15060223E-04  6.32205505E-03
 -2.61257658E-01 -4.33254736E-04  1.21114409E-02  1.71523094E-01  5.45900004E-02
  2.99906880E-04  1.99815272E-01 -4.65603783E-05  6.67113673E-03  2.45081567E-02
 -6.92657260E-02  5.50619422E-02  1.33705192E-05  3.54955254E-02  9.02530358E-01
 -9.70466926E-04  1.79165363E-01  1.34689894E-01 -3.10504056E-02 -1.83964103E-04
 -7.20929406E-02  3.46690682E-05  8.08137274E-03 -5.25525298E-01 -1.73923334E-01
 -4.19935411E-01 -2.14756750E-02  8.14617884E-03 -5.23937932E-01 -1.73485201E-01
  4.19433892E-01 -2.44045483E-02  8.40973204E-03  3.06230346E-02 -1.70753096E-01
  1.64613922E-02 -1.57894621E-01  1.60971225E-02  5.53360531E-02 -2.01015379E-01
  1.27113811E-02  1.66839231E-02  1.64525044E-03  4.97595063E-03 -5.78142682E-02
  5.01649399E-03  8.39720448E-03  3.05778893E-02 -1.70515108E-01  1.64357515E-02
  1.57571781E-01  1.57460672E-02  5.55357435E-02  2.00912544E-01  1.25737382E-02
  1.67906206E-02  1.67867767E-03 -4.89917325E-03 -5.77492761E-02 -4.95797372E-03
 -3.30769922E-02  1.94330065E-01  6.97406168E-03 -6.55844364E-02  5.50544098E-02
 -4.86594027E-02  1.83552997E-01 -1.83103702E-01  3.75729860E-02  8.42211426E-02
 -4.85911573E-02  1.83137172E-01 -1.82965921E-01 -3.76115857E-02  8.41361374E-02
 -3.29578338E-02  1.94461145E-01  7.12293276E-03  6.54308170E-02  5.69853446E-02
 -2.84415964E-05 -1.02758707E-04  3.56242106E-04  8.63514523E-04  1.31925105E-01
 -4.94817001E-04 -1.15276712E-03  1.07409718E+00  1.70294461E-03 -4.32497196E-05
 -3.34244792E-04  1.66387673E-02  4.77574303E-04 -4.32169114E-01 -1.12919450E-02
 -3.92667889E-02  1.11447160E-01 -1.28838249E-01  1.71546239E-01 -5.85065187E-02
 -8.97497051E-01  7.13890477E-01 -3.39054678E-02  8.85526174E-02  3.72510891E-03
 -1.95017728E-02 -3.03086245E-02  1.18450190E-02  3.34260727E-03  1.30095281E-02
 -8.26100650E-02  1.70967836E-01  3.30277747E-02  1.72136290E-02 -4.17134685E-01
 -2.04292299E-01  3.35125993E-02 -2.30790040E-02 -6.83113280E-03 -1.65270117E-02
  2.53370875E-02 -1.08233971E-02 -3.09391224E-05 -1.10650871E-04  4.98181248E-04
 -5.49386636E-05 -1.44420375E-02 -5.46395685E-04 -5.66483243E-04 -4.79938084E-01
 -2.80413451E-04  3.92630128E-04 -1.00845032E-04  1.85369107E-02 -2.46712472E-04
  1.18809473E-01 -3.30841288E-03 -1.28874956E-02  8.20496842E-02 -1.70562304E-01
  3.33985649E-02 -1.69008882E-02  4.19758704E-01 -2.02683811E-01 -3.19981147E-02
  2.24247855E-02  6.78846575E-03 -1.67141458E-02 -2.53187389E-02 -1.13482071E-02
  1.12974088E-02  3.92923331E-02 -1.11641937E-01  1.29527854E-01  1.71910536E-01
  5.76013814E-02  8.99827666E-01  7.10915967E-01  3.42062991E-02 -8.88473119E-02
 -3.77525963E-03 -1.95476404E-02  2.95966094E-02  1.26938983E-02 -1.39514611E-05
 -5.13103387E-05  1.38819498E-04 -1.71542168E-04  4.30413270E-01 -5.56877783E-04
 -7.16517874E-04 -1.25108881E-02 -2.41387611E-04  3.50527805E-04 -5.48239608E-04
 -3.94604765E-03 -4.90537427E-04  3.46789452E-01  2.60826794E-05  9.62198882E-05
 -2.59713810E-04  3.48823509E-04  2.14232512E-02  1.97830918E-04  6.69510121E-04
 -7.57840756E-03  2.05537469E-04 -9.91578143E-06  2.81064576E-04 -2.03920864E-02
  6.40536375E-05 -2.25556234E-02  5.88083631E-02  1.67557508E-01  2.25750982E-01
  9.51394064E-02 -1.57101808E-01 -5.85961878E-02 -1.67490246E-01 -2.26857387E-01
  9.58027981E-02  1.57103988E-01 -1.76367149E-02 -6.41207902E-02  3.52464193E-01
  2.38642600E-01  1.06024563E-01 -9.02432223E-03  3.07578634E-01  9.56848289E-02
  1.70687071E-03  1.69077853E-02  1.71061178E-03 -4.79656046E-03  5.96142767E-04
 -6.46035741E-02  1.76402012E-02  6.41342262E-02 -3.52568703E-01 -2.38789327E-01
  1.06174313E-01  8.50545350E-03 -3.07476515E-01  9.60142048E-02 -1.97957026E-03
 -1.68212055E-02 -1.69133493E-03 -4.59485006E-03 -3.81171391E-04 -6.45501243E-02
  4.84745727E-03  3.03757183E-01  4.15577678E-01 -8.49204678E-03  9.11136816E-02
  2.97640713E-02  2.31749092E-01 -2.73261310E-01  4.26209182E-04 -8.26943787E-03
 -3.01512816E-02 -2.35149849E-01  2.72769673E-01  1.06803470E-03  6.49086481E-03
 -4.83601494E-03 -3.00670621E-01 -4.13883778E-01 -8.94981597E-03 -9.16086190E-02
 -5.72502606E-03 -2.03429128E-02  7.26354849E-02 -1.89673823E-02 -3.44835774E-04
 -3.84168266E-01 -1.34694934E-01  2.37483984E-04  8.60389501E-01 -3.45678499E-02
 -2.37306483E-01 -3.36431958E-05 -5.66019266E-02  5.87784215E-04  7.61144883E-04
  2.81182179E-03 -1.09906750E-02 -9.80639576E-03 -1.10814467E-02 -3.42816935E-01
  1.17908141E-01  1.15700196E-01  6.46574585E-02 -5.01254767E-02  1.47426067E-02
 -6.54324853E-03 -6.94884949E-03 -3.01197941E-02 -7.51008767E-04 -3.04132741E-03
  1.95173388E-02 -3.51841747E-02 -2.17807870E-02 -7.48929670E-03  7.34085738E-02
 -6.96939610E-02  5.06948181E-01  3.83370497E-04 -1.33815513E-03  3.68997444E-02
 -6.89713763E-03  2.94501698E-02 -1.41578927E-03 -5.79090402E-03  4.51820805E-02
 -3.71606664E-02  1.88357016E-04 -2.68028198E-01  1.12183142E-02 -4.78252002E-04
 -8.25565558E-02  5.91642741E-02 -8.64139142E-02 -2.37280849E-05  2.10659783E-02
 -4.19277403E-04 -7.48769824E-04 -3.03157566E-03  1.94505019E-02 -3.47275111E-02
  2.14437712E-02 -7.18618722E-03  7.37191660E-02  6.65812727E-02  5.07329173E-01
 -2.04590977E-04 -1.52714548E-03 -3.66903428E-02 -6.92886600E-03 -2.93839913E-02
  7.24250731E-04  2.68252050E-03 -1.06209407E-02 -1.03864558E-02  1.10689417E-02
 -3.43539824E-01  1.16837209E-01 -1.12453777E-01  6.43353880E-02 -4.95475450E-02
  1.46214616E-02  6.73075704E-03 -6.94276105E-03  2.99078119E-02 -4.49784490E-03
 -1.65297829E-02  4.67667360E-02 -1.32137909E-01 -8.90047078E-04 -1.11273951E-01
 -5.98171635E-02 -1.32667662E-04 -9.61982931E-02  3.57423196E-02 -2.61040635E-01
  1.36434288E-04  6.73160967E-02 -5.28776270E-04  1.85982736E-03  6.97336467E-03
 -2.02838471E-02 -5.38249925E-03 -4.15693547E-05  1.09174737E-01  4.75186718E-02
 -3.01501816E-04  1.78191095E-01  3.19395763E-02  1.46515129E-01 -3.76211798E-05
 -1.47400682E-02 -4.99905663E-05  1.34439730E-02 -1.86290005E-02 -2.63161048E-02
 -5.08331610E-02 -1.24088721E-01  1.37925966E-02 -1.67809282E-02 -2.51638242E-02
  4.98984415E-02 -1.25668540E-01  3.34478461E-03  1.21975456E-02 -6.77952950E-02
 -1.43250387E-02 -6.52619596E-02 -9.60109460E-02  1.46251877E-02 -6.46021921E-02
 -4.40808711E-02 -8.62387346E-03 -7.70022732E-03 -4.82043030E-02 -3.05676968E-02
  1.41200738E-02  3.29273144E-03  1.20081828E-02 -6.67483798E-02 -1.36826450E-02
  6.47228821E-02 -9.63236508E-02  1.53498651E-02  6.40700577E-02 -4.42665042E-02
 -8.63538346E-03 -7.65358157E-03  4.82590786E-02 -3.05860635E-02 -1.39984841E-02
 -8.75666885E-03  8.20208162E-02 -4.23764969E-02  1.40317096E-04 -9.35799562E-02
 -1.16689974E-02 -9.58911460E-02 -2.30463863E-02 -8.19743837E-03 -5.01924515E-01
 -1.14104692E-02 -9.34998637E-02 -2.41145915E-02  9.00334433E-03 -5.02124604E-01
 -8.89287283E-03  7.89884247E-02 -4.23427479E-02 -6.54707781E-04 -9.27726469E-02
  2.41843968E-05  8.68841563E-05 -3.71998984E-04  4.41043281E-04 -1.39832770E-01
  1.60428902E-04  9.27806478E-04  3.81994040E-01 -3.12682818E-04 -2.90364288E-04
 -4.84270350E-06 -5.34869359E-04  3.97368740E-04 -1.74593513E-01 -1.20697640E-02
 -4.48265936E-02  2.22109267E-01  1.56769627E-01  3.18849875E-02  1.08447936E-02
 -7.05834730E-01  1.95323729E-01  4.76654460E-03 -6.76575382E-03  8.16030239E-04
  1.43872429E-03 -1.63635673E-01 -4.94838471E-02  1.70337584E-02  6.15694181E-02
 -2.53167052E-01  5.47788730E-02 -2.27734274E-01 -3.81309100E-03 -7.49456546E-01
 -4.67440689E-01 -1.36202210E-03 -9.72459691E-02 -3.49418915E-03  6.97571915E-04
  1.58810763E-01  1.39952519E-01 -6.57929921E-06 -1.82154728E-05 -2.77858711E-05
  1.24665504E-04 -2.12716008E-01  1.62735454E-04 -3.76884359E-03 -6.48617102E-01
  3.36112766E-04 -7.65465933E-05  1.07075857E-05  5.92622707E-03 -7.09055896E-04
 -3.58816419E-01 -1.70125699E-02 -6.14915768E-02  2.52770494E-01 -5.41853531E-02
 -2.27831747E-01  4.21549307E-03  7.49724089E-01 -4.64780866E-01  4.97685971E-04
  9.72801489E-02  3.67159230E-03  6.18446014E-04 -1.58446131E-01  1.40028077E-01
  1.20355291E-02  4.47012164E-02 -2.21510805E-01 -1.56763134E-01  3.20242410E-02
 -1.03477545E-02  7.04608355E-01  1.95878117E-01 -5.50234128E-03  7.49285113E-03
 -9.04503569E-04  1.21693264E-03  1.63272603E-01 -4.94719748E-02 -2.72382727E-05
 -1.01557872E-04  3.14466514E-04  4.66332721E-04  8.52760561E-03 -7.09279215E-05
  2.94455014E-04 -5.59091465E-02  6.65889685E-05 -2.64138586E-04  1.50076867E-04
  2.53886895E-03 -4.17472583E-04  4.81907718E-02  1.07941918E-05  4.02469516E-05
 -1.01469816E-04  1.38717986E-04  7.79107828E-02 -3.65171228E-04 -1.80772508E-03
 -5.70969680E-01 -1.28102826E-03 -3.59591529E-04 -3.80492849E-05 -7.57232152E-03
  1.94305470E-04  2.89666147E-02 -1.34836160E-01 -1.13592580E+00  1.54505811E-01
 -5.93178695E-01  8.03186557E-02  1.35148939E-01  1.13927923E+00 -1.55679949E-01
 -5.93953803E-01 -8.00460963E-02 -4.06278091E-03 -1.50027807E-02  8.81780959E-02
  7.01921865E-02 -2.00998917E-02  3.20785462E-03  5.06900868E-02 -1.85090451E-02
  3.10190010E-04 -5.35792451E-03 -7.55974344E-04  1.43848667E-03 -1.34435406E-02
  8.84694979E-03  4.03565223E-03  1.49032599E-02 -8.75953228E-02 -7.02587438E-02
 -2.02337467E-02 -3.19178984E-03 -5.07128682E-02 -1.88143926E-02 -2.58386108E-04
  5.20498427E-03  7.94598992E-04  1.50280437E-03  1.34185331E-02  8.67075302E-03
 -4.18369785E-02 -4.07315653E-01  1.66145724E-01 -3.67905899E-01 -2.05503263E-02
 -6.28510819E-02 -8.06217749E-02  1.82226407E-01  2.77743478E-01  9.47654247E-03
  6.26907166E-02  7.80714957E-02 -1.81656059E-01  2.77976338E-01 -9.10150088E-03
  4.16839969E-02  4.05845617E-01 -1.65817238E-01 -3.67908478E-01  2.06719049E-02
  2.14012072E-03  7.51988865E-03 -2.11613707E-02  1.82971236E-01 -2.85852854E-04
 -3.33048684E-02 -1.45866674E-01  2.12236540E-03  1.95230230E-01  2.66272520E-01
 -8.78905138E-02 -1.36565710E-04  1.48625385E-01  3.22896694E-04  7.29440925E-03
  2.78705905E-02 -1.77834519E-01  9.36587350E-02 -4.15776018E-02 -5.13921658E-02
 -7.60296604E-02  8.50891672E-03 -1.25281731E-01 -7.34233446E-02  3.69746450E-03
 -1.42939940E-04 -2.47352715E-02  3.87314254E-02  5.80987212E-03  2.29937529E-02
 -1.35344622E-01  4.40862910E-03 -3.86671583E-02  1.14393358E-01 -2.36436795E-01
  1.04682752E+00  1.02099053E-01 -4.79302627E-02 -1.14114175E-04  1.33258031E-02
 -6.11903548E-02  2.95123306E-02  2.50357475E-03  8.14862294E-03 -4.16799938E-02
 -1.29174570E-01 -9.80590019E-05  1.80872033E-02  1.98098237E+00 -3.22540653E-03
 -2.87497480E-01  1.16900788E-02 -9.28876450E-02  1.02148117E-04  2.03705642E-01
 -2.79728358E-04  5.81902439E-03  2.30274040E-02 -1.35527652E-01  4.83503674E-03
  3.84101447E-02  1.14810472E-01 -2.31064126E-01 -1.04746109E+00  1.02280729E-01
 -4.76126967E-02 -2.73092416E-04 -1.34197007E-02 -6.11461421E-02 -2.92625661E-02
  7.26806185E-03  2.77791325E-02 -1.77555491E-01  9.33135098E-02  4.12275369E-02
 -5.13892689E-02 -7.11198371E-02 -8.59486775E-03 -1.26092655E-01 -7.30533031E-02
  3.48490865E-03 -7.48825051E-05 -2.49610091E-02 -3.88792365E-02  3.10715961E-02
  1.14973239E-01 -3.42320706E-01  4.30474749E-01  3.55572731E-06 -4.60348407E-02
 -6.09667399E-02 -2.82595028E-04 -2.07473811E-02  8.04052848E-02 -2.54521558E-02
 -6.20643240E-05 -1.79144171E-01 -4.27622397E-04 -1.66112384E-03 -6.19318583E-03
  1.01905507E-02 -3.46918433E-02 -8.44813502E-06  4.06084852E-02  1.00531111E+00
 -2.95553549E-04  1.66734984E-01  1.24559626E-01  3.96482138E-03 -6.41083885E-06
 -1.70790814E-01  9.44811231E-05 -4.90758278E-02 -8.98232082E-01  1.30378278E-01
 -2.89608470E-01  9.91819003E-02 -4.88847192E-02 -8.97165722E-01  1.30635245E-01
  2.88500213E-01  1.00024231E-01 -8.89832017E-03 -3.22429402E-02  1.69305073E-01
  1.20050585E-01  2.36979145E-01 -2.46295909E-02 -4.47440961E-02  1.49991127E-01
  3.23823808E-03  1.06901516E-01  2.49525610E-03 -1.96279191E-02  1.61080402E-01
 -1.14560726E-01 -8.92160462E-03 -3.23277203E-02  1.69788055E-01  1.20695837E-01
 -2.36852445E-01 -2.42223905E-02 -4.42970668E-02 -1.50424509E-01  3.49573993E-03
  1.06905460E-01  2.36301998E-03  2.00045864E-02  1.60863184E-01  1.14871155E-01
  5.77334663E-02  2.46655275E-01  2.69824821E-01  3.88547483E-02  9.85355445E-02
  5.27505518E-02  9.69793530E-01 -1.62614059E-01  1.95772613E-01 -1.27702993E-01
  5.28542780E-02  9.68671650E-01 -1.63039745E-01 -1.95365839E-01 -1.28610136E-01
  5.78407126E-02  2.49338904E-01  2.69796126E-01 -3.99578608E-02  9.89152397E-02
 -2.89260252E-03 -1.08100164E-02  5.64779671E-02  3.83570650E-02 -1.65581331E-04
 -4.06767658E-02 -1.52218160E-01 -1.03976490E-03 -2.04432407E-01  4.40138319E-02
  2.11807513E-01 -1.22477114E-04 -3.51805308E-03 -8.63662468E-05 -1.18452531E-03
 -4.47637538E-03  2.88001206E-02  9.58962196E-02 -1.34355267E-03  2.24167403E-04
  1.85694430E-01  1.28303984E-01  4.43412324E-01 -6.03885141E-02  8.24625213E-03
 -1.44624826E-02  7.25833224E-03 -1.43979356E-02  1.35720857E-03  4.48125805E-03
 -7.14391728E-03 -2.05041925E-02 -1.22387859E-02 -4.02510776E-01  7.21678835E-02
  1.11434276E-01  7.56652154E-03 -5.72393962E-02 -5.80975485E-03 -5.38629048E-02
  2.57110592E-02  1.78265702E-03 -6.61189890E-03 -2.41700492E-02  1.20093066E-01
  9.31786826E-02 -3.94191346E-04 -2.05357736E-01  4.19080526E-01  6.05030444E-04
  4.59910284E-01  9.48161901E-02  2.09866559E-01 -6.03757521E-05 -1.16836262E-01
 -2.64203262E-04  1.32758098E-03  4.37722963E-03 -6.80343747E-03 -2.03441885E-02
  1.17779001E-02 -4.02535504E-01  7.01029600E-02 -1.12970575E-01  7.50832681E-03
 -5.71076856E-02 -5.79073364E-03  5.38576649E-02  2.55542191E-02 -1.61138893E-03
 -1.17715422E-03 -4.44618013E-03  2.85511984E-02  9.55747311E-02  1.26525625E-03
  4.02285943E-04  1.83532099E-01 -1.28641119E-01  4.43133797E-01 -6.00732479E-02
  8.40308112E-03  1.43871719E-02  7.43558045E-03  1.41395938E-02  1.13986844E-02
  4.22619568E-02 -1.26475669E-01  8.92745633E-02  1.88919145E-04  1.03993746E-01
 -5.87746382E-02  2.18130147E-07  2.33168514E-02  5.76981568E-02 -4.24294152E-02
 -1.01297954E-04 -9.58960006E-03  2.40714567E-05  4.79127065E-03  1.76613748E-02
 -5.01462481E-02  1.25824540E-01 -9.63917210E-05  9.49525036E-02  3.24085361E-01
 -1.91249033E-03  1.64797240E-01  4.58377187E-02  1.75448053E-02 -1.61664387E-04
  1.09513073E-01  1.90727964E-06 -3.84422371E-02 -2.61450074E-01  5.45303306E-03
 -6.62706414E-02 -4.16156624E-01 -3.81337550E-02 -2.57201498E-01  4.19866516E-03
  6.52842875E-02 -4.15846509E-01 -7.90954431E-04 -2.85255213E-03  1.16096364E-02
  4.03891634E-02  7.38293286E-02  4.78885221E-02 -1.24287183E-02  1.91484497E-02
 -3.61809942E-02  4.21714989E-02 -1.97055767E-02  5.32121830E-02  4.49339326E-02
 -4.65679430E-02 -7.83534557E-04 -2.82549134E-03  1.14561118E-02  4.02936420E-02
 -7.37809070E-02  4.79817405E-02 -1.24549112E-02 -1.91020925E-02 -3.60976220E-02
  4.21755255E-02 -1.97598377E-02 -5.31184967E-02  4.49153221E-02  4.67040615E-02
  1.18413419E-02  2.26912015E-01 -8.69454737E-03  2.87868845E-02 -4.45754934E-01
 -9.66986692E-03 -3.16520683E-02  7.03028350E-02 -6.44114277E-02  2.60197768E-01
 -9.55737150E-03 -2.94734885E-02  6.99986786E-02  6.40835095E-02  2.60167665E-01
  1.19248544E-02  2.26279811E-01 -8.30685975E-03 -2.84638090E-02 -4.45785297E-01
  7.55455429E-03  2.91447775E-02 -1.73331882E-01  4.13845493E-02 -7.71192209E-05
 -6.56999155E-04  8.69228821E-02 -2.91750518E-03 -9.39606556E-02  6.15025673E-02
  7.87775994E-02 -2.51249766E-04  8.93335194E-02 -1.47413514E-04  1.29325992E-02
  4.92964923E-02 -3.09697365E-01 -2.31128359E-01 -2.25085111E-02  4.04911819E-03
 -2.96428965E-01 -2.06326634E-01  1.37215105E-01  4.16557557E-02  5.02529329E-04
 -6.29630968E-03 -2.02378745E-02  4.27696160E-02  3.13461526E-03  1.51122829E-02
 -1.59900136E-01 -3.67731248E-02 -9.03572990E-02 -1.43432062E-01 -5.46041621E-01
  9.19657872E-01 -1.18283329E-02  1.81841002E-01  2.35651181E-03 -1.08921397E-02
 -2.17984217E-01  3.79030654E-02  1.23315530E-02  4.49927676E-02 -2.43150338E-01
 -3.18641988E-01 -1.17839147E-04 -2.71486166E-02  1.38868531E+00  2.19670340E-03
  8.13563114E-02 -1.09557425E-01  2.56256023E-02 -2.18929783E-04  5.25196284E-01
 -4.75149744E-04  3.12412165E-03  1.50753038E-02 -1.59760834E-01 -3.69139042E-02
  9.00285713E-02 -1.43686147E-01 -5.50822082E-01 -9.17464343E-01 -1.25829556E-02
  1.82160743E-01  2.32361903E-03  1.11384924E-02 -2.17972244E-01 -3.75059644E-02
  1.29523206E-02  4.93688582E-02 -3.10054303E-01 -2.31204713E-01  2.26103818E-02
  4.14555292E-03 -3.01314977E-01  2.03969718E-01  1.38087208E-01  4.19926896E-02
  8.34128177E-04  6.49027950E-03 -2.01633618E-02 -4.30522204E-02 -1.19187932E-02
 -4.41489289E-02  1.29472944E-01  8.90805677E-03  6.16345550E-04  3.90326409E-02
  6.10554633E-02  4.23385142E-04  7.30655941E-03 -6.75634395E-02 -3.86006274E-03
 -2.02625764E-04 -5.29054895E-02  3.60195978E-04 -1.29978472E-02 -4.88716652E-02
  1.44137151E-01 -3.45668063E-01  9.69612490E-05  3.23991322E-02  3.97560739E-01
 -1.27657342E-03  1.83129586E-01  2.20703769E-03  9.78018358E-03  1.79790809E-05
 -2.62783110E-01  1.01236555E-04  4.76528983E-02 -3.57253571E-01  1.29668035E-01
 -4.31616816E-01 -1.53046965E-01  4.76505265E-02 -3.55502004E-01  1.29229387E-01
  4.31232772E-01 -1.54412258E-01 -8.74279345E-04 -2.93188853E-03  1.58034730E-02
 -4.28964944E-02 -6.02347117E-02  1.91644453E-02  2.81731957E-03  1.28520925E-02
 -1.04245295E-02 -4.21431488E-02 -5.67353922E-03  1.91968803E-02 -1.90403941E-02
  4.44601968E-02 -8.41966834E-04 -2.81432920E-03  1.51460635E-02 -4.33282370E-02
  6.05483190E-02  1.92927800E-02  2.20296611E-03 -1.25985782E-02 -1.03439027E-02
 -4.22336586E-02 -5.64650551E-03 -1.93832735E-02 -1.89734327E-02 -4.47715989E-02
  2.64266939E-02 -1.70380628E-01  1.01275227E-01  6.40091984E-03 -1.27022559E-01
  8.36761152E-02  1.15139618E+00 -4.04937352E-01  3.52225808E-01  1.17727350E-01
  8.38140002E-02  1.15220211E+00 -4.04221581E-01 -3.52856161E-01  1.18538103E-01
  2.65421835E-02 -1.70219947E-01  1.01856370E-01 -5.96353137E-03 -1.27492820E-01
  7.82411461E-06  2.85238306E-05 -1.56197206E-04  4.42439025E-04 -1.62221431E-01
  2.78713010E-04 -3.23158328E-04  2.33165930E+00 -5.64247784E-04  1.92073583E-04
  3.34198564E-04 -4.18289249E-04  5.99146410E-04 -1.06136959E-01  6.17919164E-03
  2.34654449E-02 -1.08608724E-01 -7.17013192E-02  1.09530266E-01 -2.17634105E-02
 -4.93744455E-01  3.24835201E+00 -2.89366573E-02 -1.34715190E-01 -4.18884898E-03
  1.33914114E-03  4.66513228E-02 -3.45684276E-02 -7.33448089E-03 -2.60776492E-02
  6.66262645E-02  1.80121434E-02  1.54499367E-02  2.25402570E-02 -4.12440488E-01
 -2.86191718E+00  3.09829978E-02  2.26780143E-01  2.00451602E-03  2.90025227E-03
 -3.31204103E-02 -9.06142940E-02 -1.89248295E-05 -6.45410442E-05  1.74956198E-04
  1.05762104E-04  3.09284610E-01  2.57129865E-04  2.59867065E-04 -1.93389324E+00
  1.77641828E-04  1.42755229E-04  1.22757133E-04 -8.57761419E-03 -1.50565900E-04
  3.76535989E-02  7.37162443E-03  2.62208320E-02 -6.75701477E-02 -1.77133676E-02
  1.57393781E-02 -2.26386821E-02  4.11490454E-01 -2.86330549E+00 -3.30926442E-02
 -2.27170220E-01 -1.94705061E-03  2.83758625E-03  3.30030895E-02 -9.07497936E-02
 -6.17351209E-03 -2.34415494E-02  1.08438732E-01  7.20111275E-02  1.09737144E-01
  2.26954868E-02  4.95863015E-01  3.24759290E+00  3.06031552E-02  1.35000741E-01
  4.12041907E-03  1.05013757E-03 -4.71462722E-02 -3.41756941E-02 -7.11599211E-06
 -2.75997766E-05  1.00033646E-04  4.02966168E-04 -5.28816148E-02  4.28109876E-06
 -2.11718089E-04 -3.74552132E-01  4.79525452E-04 -7.24995546E-05 -5.63662917E-06
 -7.21108673E-03 -2.41658863E-04 -4.37971795E-02  1.30175301E-05  4.74002442E-05
 -1.25182964E-04  1.59577482E-04  3.53585364E-02 -9.87211814E-05  1.03387995E-03
  9.59759361E-01  4.43345253E-04 -7.82571815E-05  1.99159594E-05  7.74690728E-02
  1.57066648E-05 -3.42129034E-02  1.84674062E-02  8.67528251E-01 -3.40299370E-01
  3.08131458E-01 -5.80167681E-03 -1.83126149E-02 -8.68203286E-01  3.40003881E-01
  3.08744905E-01  6.06678706E-03 -4.79026751E-03 -1.71538678E-02  8.82393258E-02
  2.78334094E-02 -6.13026022E-02 -7.48931906E-03  6.96045755E-02 -4.88146300E-02
 -4.05060481E-04 -7.34483343E-02  2.06496606E-03 -4.02959827E-03  9.31424877E-03
  2.59377466E-03  4.77961548E-03  1.71158779E-02 -8.80446917E-02 -2.79056778E-02
 -6.15091722E-02  7.60779431E-03 -6.94088754E-02 -4.86520301E-02  1.29914230E-04
  7.33814912E-02 -2.29820037E-03 -4.00898760E-03 -9.24565415E-03  2.64370440E-03
  9.59354554E-02  2.38090361E+00  4.46639608E-01 -3.47954511E-02  4.58883381E-02
 -6.30159375E-02 -1.90408487E+00  1.38330256E-01  5.12660688E-02 -5.49419935E-02
  6.30393788E-02  1.90452810E+00 -1.38315346E-01  5.10865357E-02  5.60222231E-02
 -9.58972159E-02 -2.37983361E+00 -4.45534396E-01 -3.47600898E-02 -4.46344345E-02
  5.68339297E-05  1.91904871E-04 -4.84019017E-04  8.75752751E-04 -9.55973224E-03
  8.36668696E-05  1.47744732E-04  2.11123966E-01 -3.82729481E-04 -1.77246431E-03
  2.90658472E-05  8.38855352E-02 -1.10759703E-04 -5.03650835E-03  1.15429429E-03
  4.31429799E-03 -2.08899175E-02 -1.76046846E-02  1.15908551E-02  2.25552393E-01
 -5.04222281E-02  2.79111130E-01  2.62030770E-01 -1.24191170E-02  1.09012343E-01
 -7.88055298E-02  1.35282747E-02 -2.45050841E-03 -1.56131805E-03 -5.69395356E-03
  2.38956306E-02 -2.10959771E-03  1.48283146E-03 -2.71955014E-01 -3.86272775E-02
 -2.52418732E-01 -2.84273970E-01  2.64781015E-02 -1.24106947E-01 -1.03513577E-01
 -1.38672493E-02 -1.08326513E-02 -2.20598185E-05 -7.92771501E-05  3.72879156E-04
 -1.34130396E-04  2.84560977E-02  5.86766700E-05 -8.60263654E-03 -1.66170231E-01
  5.74818931E-04  4.75487702E-04  2.57477391E-04  2.02961662E-01 -6.85761366E-05
  2.03678641E-02  1.51704815E-03  5.52063523E-03 -2.30216219E-02  1.55952124E-03
  2.06356535E-03  2.71734085E-01  4.12477524E-02 -2.43635810E-01  2.83875312E-01
 -2.56617996E-02  1.23995757E-01 -1.03409761E-01  1.33324172E-02 -1.13873739E-02
 -1.19563139E-03 -4.48575312E-03  2.24480355E-02  1.57193444E-02  1.03829912E-02
 -2.25023339E-01  4.75960053E-02  2.79466834E-01 -2.61494474E-01  1.22082941E-02
 -1.09302994E-01 -7.87065821E-02 -1.30111183E-02 -2.72631632E-03  3.37058336E-06
  1.46230624E-05 -5.32002252E-05  9.34421109E-04  1.23192768E-02  6.02423940E-05
 -6.26894170E-04 -2.35022750E-02 -1.88202147E-04  9.12896335E-04  3.82107316E-05
  1.35433053E-01 -4.01581374E-04  4.19334188E-03  2.14374159E-05  8.06652112E-05
 -2.01541482E-04 -2.84188199E-04 -2.56718830E-02 -1.66058820E-04 -3.97360838E-03
 -6.71451334E-02 -4.27120084E-04 -2.01457056E-04 -2.18572538E-05  6.27276344E-02
  2.82627247E-04 -1.43940613E-02 -1.15551232E-02 -1.08479660E-01  5.41702294E-02
 -3.82342291E-02 -2.16572987E-01  1.25753017E-02  1.17681523E-01 -5.64019402E-02
 -3.86509058E-02  2.15554955E-01 -6.05589400E-04 -2.17390285E-03  1.12300752E-02
  4.09556459E-03  2.29344994E-03  1.20163292E-01  1.10524353E-02  1.98200038E-03
  1.98538374E-02 -4.06028855E-03 -3.69040948E-02  5.81523664E-02  1.57630476E-03
 -3.60469855E-03  6.30673540E-04  2.26417426E-03 -1.18022104E-02 -3.96916417E-03
  1.97893914E-03 -1.19848951E-01 -1.18165670E-02  1.35139456E-03 -1.97125611E-02
  4.58099163E-03  3.69159184E-02  5.80328397E-02 -9.97738110E-04 -3.46024742E-03
  8.21618384E-03  2.07332426E-01  2.81752407E-02  8.91834641E-03 -5.44590494E-01
 -4.60572900E-03 -1.68925414E-01  3.46964839E-04 -2.79157184E-03  6.96315642E-01
  4.03798820E-03  1.61478571E-01 -2.15957416E-03 -1.77451381E-03 -6.95985118E-01
 -8.75068456E-03 -2.10547386E-01 -2.85933102E-02  8.41812608E-03  5.44231921E-01
 -1.53584566E-02 -5.11760726E-02  1.16232486E-01 -2.14033709E-01 -2.36624920E-05
 -1.26138899E-02  1.95029608E-01 -9.43119720E-04  4.28930188E-02  4.80325586E-01
 -4.42852598E-03 -1.82692181E-04  2.90298144E-02 -2.50730294E-04  7.46735938E-03
  3.04176643E-02 -2.58343099E-01  2.01745584E-01 -1.99331535E-01 -6.69799105E-03
  4.16548392E-01 -8.13659633E-02  8.43680891E-03  4.79101743E-02  1.71090552E-03
 -3.79443319E-03 -1.44726265E-01 -7.46607302E-02  8.33447816E-03  3.24647106E-02
 -1.75765783E-01  8.43197093E-02  4.78118433E-02 -6.20064852E-03 -3.98283902E-01
  1.14815410E+00  3.49849327E-02 -1.04314901E-01 -1.13163878E-03 -4.74906723E-03
  2.87131034E-02 -3.00042344E-02  2.94391860E-03  1.07036932E-02 -5.10449088E-02
 -3.89766238E-02 -1.70232013E-04 -1.41354281E-02  2.19977371E+00  3.29455596E-04
 -8.69881642E-02 -1.24967093E-01 -9.69019783E-03  7.75184180E-04  9.25460129E-02
 -1.60656152E-04  8.33724067E-03  3.24769454E-02 -1.75852606E-01  8.45509491E-02
 -4.82702140E-02 -4.28920274E-03 -4.02618435E-01 -1.15123321E+00  3.66386875E-02
 -1.04490346E-01 -2.11007557E-04  4.24621720E-03  2.89166128E-02  3.01384512E-02
  7.46784380E-03  3.04181477E-02 -2.58352096E-01  2.02160417E-01  1.99284973E-01
 -8.43882846E-03  4.12470882E-01  8.35019047E-02  6.98335074E-03  4.82507374E-02
  1.35486513E-03  3.57110269E-03 -1.44957646E-01  7.45316342E-02 -5.42722924E-03
 -2.07699491E-02  6.33184855E-02 -2.46970831E-01  2.96293565E-04 -4.87579418E-03
  3.22059620E-01  3.51264292E-05  2.03973423E-05 -3.58976268E-01 -1.48708024E-02
 -8.55899627E-05  3.08292205E-02  2.13537476E-04 -6.12880997E-03 -2.31797058E-02
  6.14356223E-02  2.47261516E-02 -2.07865770E-04  3.06191894E-02  1.00065402E+00
 -2.15600805E-03  1.21161905E-01  2.20076287E-02 -3.44482457E-03  1.90072684E-04
 -9.48666418E-02 -9.25212834E-06 -1.00399169E-01 -1.14513648E+00  2.55976514E-01
 -1.09577451E-01  5.77277402E-02 -1.00047590E-01 -1.14041394E+00  2.54316677E-01
  1.07856663E-01  6.05145095E-02 -7.34453337E-03 -2.70002656E-02  1.73933847E-01
 -2.03258441E-02 -5.06729189E-02 -2.49514192E-03  9.44988046E-02 -2.59674522E-02
 -3.84834857E-03 -9.94858576E-02 -3.16972175E-03  2.97303758E-04 -1.00277196E-01
  6.31596763E-02 -7.32403462E-03 -2.69261367E-02  1.73539295E-01 -2.05602763E-02
  5.09877820E-02 -3.16322117E-03  9.40246808E-02  2.61443891E-02 -3.69433919E-03
 -9.95573713E-02 -2.93227265E-03 -1.73444411E-04 -1.00135221E-01 -6.36394504E-02
  6.69498456E-02  3.24567155E-01 -1.36895320E-02  1.92049364E-02 -3.15308721E-02
  8.33371285E-02  9.80629445E-01  1.87663233E-01  1.36658926E-01 -1.20900199E-03
  8.34561402E-02  9.84965887E-01  1.88354426E-01 -1.37661124E-01 -7.19455930E-03
  6.70582392E-02  3.21537231E-01 -1.33123367E-02 -1.85648979E-02 -2.70244405E-02
  1.07867595E-05  4.91470360E-05 -4.90062032E-04  5.74243718E-04  1.49713480E-01
 -2.16178873E-04  4.60058159E-04  4.77900717E-01 -6.59646535E-04  4.45542075E-04
  3.93804699E-05  2.46174239E-04  6.28701701E-04 -1.33822749E-01 -7.58965559E-03
 -2.63582629E-02  7.43875739E-02  3.71425187E-02  4.41589930E-02  9.61636431E-03
 -6.40063801E-01 -5.57414101E-01  1.69268757E-02  2.11407763E-01  7.78006137E-04
 -2.55402941E-03 -1.29150333E-01  1.25964646E-01  6.04970247E-03  2.45047152E-02
 -1.83746553E-01  1.94312946E-01  2.13398607E-01 -1.80311142E-02 -5.75406698E-01
  1.32067795E+00 -1.33622221E-02 -1.29378661E-02  2.25714218E-03 -4.51257080E-03
  1.27762731E-01 -4.70402717E-02 -5.41704626E-05 -1.85508991E-04  6.00024419E-04
  5.43820578E-05  2.07899676E-01 -3.41058381E-04  2.73127052E-03  4.57262864E-01
  4.99122068E-04  7.17378635E-04  3.16446915E-04 -3.53342776E-03  2.00794218E-05
  1.21000854E-01 -5.93344601E-03 -2.40575040E-02  1.81039455E-01 -1.94279966E-01
  2.14204413E-01  1.76126564E-02  5.71268394E-01  1.31551191E+00  1.41602710E-02
  1.25140189E-02 -2.31094846E-03 -4.37041383E-03 -1.28382713E-01 -4.75432085E-02
  7.60987185E-03  2.64469740E-02 -7.53667287E-02 -3.67530608E-02  4.51084351E-02
 -9.17318332E-03  6.39554754E-01 -5.55165132E-01 -1.66075503E-02 -2.11151606E-01
 -8.89403215E-04 -2.50324298E-03  1.28093073E-01  1.26429666E-01 -3.01457416E-05
 -1.13939896E-04  3.72732200E-04  7.31160406E-04 -5.08874117E-01  2.99699242E-04
  6.39730400E-04 -2.82460068E-01  1.63458126E-04 -5.23173546E-04  2.29495956E-04
  4.19631116E-03 -1.79524763E-04 -2.23282735E-01  1.48035276E-05  5.21003626E-05
 -1.27376390E-04  3.08146913E-04  1.10078394E-01  7.00134215E-05  1.47994967E-03
  1.00350545E+00  8.35627769E-04 -5.39282407E-04  1.59507996E-04  9.51355023E-03
  3.01802446E-04  4.40964752E-02  8.85765729E-02  1.44885877E+00 -4.48446205E-01
  4.18377458E-01 -1.50747711E-01 -8.83522578E-02 -1.45037755E+00  4.48161821E-01
  4.19297877E-01  1.50604229E-01  6.20231641E-03  2.24985856E-02 -1.21272269E-01
 -5.40014926E-02 -2.17698680E-01  4.11839294E-03 -1.58673668E-01 -1.48879832E-01
 -1.08947764E-04 -7.06698804E-02 -1.17161855E-03  2.26016087E-03 -4.84748275E-03
  1.20733581E-01 -6.23365051E-03 -2.26121407E-02  1.21948919E-01  5.38686773E-02
 -2.17906037E-01 -4.00424076E-03  1.58934872E-01 -1.48796665E-01  3.07709187E-04
  7.03432670E-02  1.13138204E-03  2.48870403E-03  4.44152726E-03  1.20582923E-01
  2.66701048E-02 -4.89234379E-01  4.34488672E-01 -1.98095942E-01 -2.26210750E-02
  7.76145165E-02  1.54856315E+00 -1.98426600E-02  3.10640582E-01  2.28632314E-02
 -7.70961809E-02 -1.54268140E+00  1.97699198E-02  3.09992568E-01 -2.28158671E-02
 -2.66169193E-02  4.87530942E-01 -4.35889630E-01 -1.99003374E-01  2.16957899E-02
  7.25076142E-03  2.46530332E-02 -5.41277643E-02  2.14580478E-02 -6.69772110E-05
 -3.35089608E-01  2.50703151E-01 -3.42706376E-04  9.12023012E-01 -7.15736589E-02
 -2.56084214E-01  2.60646599E-04 -1.22225288E-02  3.70825381E-04 -7.69512481E-03
 -2.99690621E-02  1.86739465E-01 -2.74239345E-02  3.37778276E-02  2.30867155E-01
 -5.17084821E-01 -5.65093755E-01  2.09025728E-01  5.67800307E-02 -4.15743640E-02
 -9.96539013E-02 -1.76124739E-02  3.45868387E-02  2.45021418E-03  8.17706753E-03
 -3.50673080E-03 -5.92653624E-03 -6.75070746E-03  7.00498154E-02 -5.37447866E-01
  5.61577560E-01 -3.73304157E-01 -4.50183271E-02  4.53675474E-02  5.47669394E-02
  3.21303233E-02  5.73518748E-02 -6.80033902E-03 -2.55710302E-02  1.41839230E-01
 -4.15343521E-02 -1.52749706E-05  1.95889006E-01  5.05963194E-01 -8.79221990E-05
 -3.44704387E-01  8.59415471E-04  5.94034279E-02 -8.17678601E-05 -2.17373350E-02
  1.13863034E-04  2.45993126E-03  8.21308018E-03 -3.73514195E-03 -5.79883827E-03
  6.86089880E-03  6.98406377E-02 -5.36839480E-01 -5.61232232E-01 -3.73136207E-01
 -4.49498688E-02  4.55234299E-02 -5.49154464E-02  3.20877101E-02 -5.71578557E-02
 -7.71533923E-03 -3.00455448E-02  1.87215465E-01 -2.75619975E-02 -3.41306288E-02
  2.30911478E-01 -5.16122668E-01  5.65333822E-01  2.09848897E-01  5.70008501E-02
 -4.18856454E-02  9.95289950E-02 -1.77974028E-02 -3.44428153E-02 -4.53449278E-03
 -1.72255496E-02  6.14909187E-02  5.34630427E-02  2.20990033E-04 -2.60993327E-01
  9.79196309E-02  6.13286686E-04  2.94412483E-01 -1.30361859E-02 -4.73890041E-01
 -4.40987947E-05 -4.42841354E-02 -1.64671179E-04  2.15604067E-03  8.27138065E-03
 -3.07616336E-02  4.37771508E-02  5.55499162E-05 -8.42409739E-03  2.40790292E-01
  5.17644537E-04 -2.17860852E-02  4.73426103E-02 -1.31732505E-01  3.00016996E-05
  2.01925830E-02  8.07989168E-05 -1.54739085E-02 -1.27254231E-01 -3.14192353E-02
 -1.22601848E-01  8.21719678E-02 -1.55881345E-02 -1.29060412E-01 -3.09818971E-02
  1.23339210E-01  8.18494533E-02 -3.53358655E-04 -1.58619670E-03  1.54220089E-02
 -2.24770154E-02  2.07069623E-02 -1.88416017E-01 -3.17302855E-02  3.70531924E-02
 -1.05311209E-01 -9.76831453E-03 -1.17310500E-01 -4.55427460E-02 -1.32438520E-02
  2.60601382E-02 -3.54420247E-04 -1.59119023E-03  1.54804982E-02 -2.24723465E-02
 -2.08934677E-02 -1.88768227E-01 -3.18749434E-02 -3.69750695E-02 -1.05421326E-01
 -1.02862938E-02 -1.17322490E-01  4.55023548E-02 -1.34522299E-02 -2.63450651E-02
 -5.57234801E-02 -7.86125032E-01 -4.86587342E-02 -1.23502240E-01 -5.75674501E-01
  1.18571483E-02  6.73726619E-01 -4.46941676E-02  8.02614423E-02  4.01635797E-01
  1.18233778E-02  6.72974263E-01 -4.50331081E-02 -8.02537052E-02  4.02235870E-01
 -5.57356815E-02 -7.85908719E-01 -4.88280720E-02  1.23659976E-01 -5.76210861E-01
  1.16152866E-02  4.24160216E-02 -1.74936053E-01  1.26879249E-01 -2.85095888E-04
  6.78907571E-02  5.06532881E-01 -3.65654579E-03 -1.95812022E-01 -3.40601909E-02
  2.69219710E-02  2.83787926E-04  2.16177276E-02  6.00010494E-04 -8.66410282E-03
 -3.23227723E-02  1.62882407E-01 -8.45507414E-04 -2.20545963E-02 -2.56281181E-02
 -9.76595936E-01 -1.15497233E+00 -9.43857528E-02  3.47378771E-02 -2.10783449E-03
  2.96193325E-02 -1.20336059E-01  3.06089032E-02  2.06408148E-02  7.83958664E-02
 -4.39911954E-01 -1.47025018E-01 -2.30940011E-01  2.82390505E-02 -1.51333408E+00
  1.35373774E+00  1.14409065E-01 -1.59879919E-01  2.50569354E-03 -6.94731492E-03
 -4.11838049E-02  2.47457613E-01 -3.68722834E-02 -1.28806814E-01  4.71768801E-01
  3.87453952E-02 -1.95649538E-04 -8.24501170E-02  8.12747643E-01  9.45245261E-04
  1.48269793E-01  4.13839066E-01  3.83716853E-02 -4.65593997E-05 -1.41373383E-01
  6.74904011E-05  2.06823865E-02  7.85557624E-02 -4.40969127E-01 -1.46285742E-01
  2.30559094E-01  2.77576935E-02 -1.51643344E+00 -1.35141352E+00  1.14365072E-01
 -1.59880491E-01  2.71696096E-03  6.89524641E-03 -4.09394622E-02 -2.47186892E-01
 -8.69496960E-03 -3.24275125E-02  1.63191288E-01 -7.33443198E-04  2.15163264E-02
 -2.56861297E-02 -9.78987913E-01  1.15077502E+00 -9.16826473E-02  3.55896626E-02
 -2.79095332E-03 -2.97161832E-02 -1.20908234E-01 -3.06864508E-02 -9.57674769E-03
 -3.65727898E-02  1.33788292E-01  1.54457189E-01  1.18675947E-03  4.65909787E-02
  2.33411991E-01  1.45157303E-03 -6.54776742E-02 -9.52684578E-02  1.08377886E-01
  1.60075052E-04 -7.42555849E-02  4.43863755E-04  1.40929510E-02  5.13925276E-02
 -1.41165255E-01  2.42888641E-01 -1.85635990E-04 -4.30801419E-02  5.03498937E-01
 -1.30241309E-03  3.86509811E-02 -2.47539091E-01  1.06233098E-01  1.66266924E-04
  2.21645105E-01 -2.43317140E-04  7.40915234E-02 -1.37175010E-01 -2.66278343E-01
 -3.35944947E-01 -2.90345990E-02  7.41304171E-02 -1.34600620E-01 -2.66614176E-01
  3.35484313E-01 -3.08496238E-02  6.71484552E-05  4.06119912E-05  7.10490401E-03
 -6.13188399E-02  9.16267777E-02  3.42423429E-02 -7.93983604E-02  7.35437477E-02
  2.87603517E-02 -3.67563335E-02  2.98039568E-02  2.37728355E-03 -3.58951851E-02
  5.00623060E-02  8.20071376E-05  9.55451937E-05  6.78033049E-03 -6.15159410E-02
 -9.07219844E-02  3.40397937E-02 -7.96511400E-02 -7.25870903E-02  2.86159536E-02
 -3.72412430E-02  2.99247612E-02 -2.45335276E-03 -3.58067422E-02 -5.04770243E-02
 -6.02196385E-02 -1.58583288E+00 -4.01181902E-01 -1.05234383E-01  1.61644389E-01
  9.06769586E-02  1.75619535E+00  6.09833954E-02  2.10205373E-01 -1.62447371E-01
  9.09012316E-02  1.75706438E+00  6.14291700E-02 -2.11298803E-01 -1.61867902E-01
 -6.00832802E-02 -1.58248423E+00 -3.98836413E-01  1.05657526E-01  1.60525864E-01
 -1.35654152E-02 -4.32212905E-02  8.51951303E-03  3.08675326E-02  3.43345677E-05
 -8.12096734E-02 -4.75595578E-01 -3.61589045E-03  2.13227626E-01  2.06565671E-01
 -1.03738079E-01  4.61378646E-04  8.53207322E-02 -5.62695069E-05  2.11276903E-02
  8.33364865E-02 -5.52394149E-01  6.83909338E-02 -1.09915687E-01  1.19080659E-01
  1.06932938E+00  1.08919497E+00 -1.04856503E-02 -1.54304019E-01 -3.69423213E-02
 -1.95384630E-02 -1.59045373E-04 -1.04476965E-01  5.53285697E-03  2.56184502E-02
 -3.12959915E-01 -8.32505340E-02 -1.54772475E-01  5.69131146E-02  7.10546827E-01
 -9.37210558E-01 -1.15630582E-01  6.22929847E-02  3.35196639E-02  2.00292038E-02
 -1.69985944E-01 -3.26185408E-02 -5.79826804E-03 -1.31863752E-02 -1.31452086E-01
  2.48504413E-01 -3.21886857E-04  2.30262900E-02 -1.20790046E+00  3.79569903E-03
  1.44496521E-01  2.51422574E-01  8.53836579E-02  3.11790632E-04 -9.04121668E-02
 -2.73630129E-05  5.53681741E-03  2.56382585E-02 -3.13212455E-01 -8.28454649E-02
  1.54318662E-01  5.67437671E-02  7.04060494E-01  9.39217910E-01 -1.15922622E-01
  6.24790722E-02  3.44386425E-02 -2.01895182E-02 -1.70125480E-01  3.28848993E-02
  2.11211648E-02  8.33134061E-02 -5.52353164E-01  6.83891264E-02  1.09687797E-01
  1.19001321E-01  1.06278508E+00 -1.09264587E+00 -1.04154436E-02 -1.54288314E-01
 -3.78682779E-02  1.94945558E-02 -4.73533756E-04  1.04615312E-01  7.30645283E-03
  2.78208811E-02 -1.00484468E-01 -5.30528571E-02 -3.93313624E-05 -8.77668768E-02
 -1.70924248E-01  1.78193971E-04  9.99183968E-02 -2.33426299E-02 -1.24141786E-01
  3.72149349E-04  9.36086939E-02  2.51049163E-05  1.87313109E-03  4.20911507E-03
  3.51527381E-02  5.89804318E-02 -1.47830992E-04 -9.58608000E-02 -4.07246750E-01
 -2.25604432E-03 -1.02656657E-01 -4.27257045E-01  5.20486566E-02  4.75725381E-04
  1.95274970E-01 -1.88875621E-04  1.25746968E-01  4.44177969E-01 -1.82871548E-01
  1.06883403E-01 -1.30539597E-02  1.25917226E-01  4.49246762E-01 -1.84442813E-01
 -1.07885785E-01 -1.61010556E-02  1.87961557E-03  7.82997533E-03 -6.37270113E-02
  2.23082044E-02 -4.48563923E-03 -6.42789426E-02  4.65300925E-02 -6.85899016E-02
 -2.12231271E-02  3.02187587E-03 -3.07577342E-02 -2.20849021E-02  2.24025381E-02
 -5.56022410E-02  1.86679645E-03  7.78312990E-03 -6.34583420E-02  2.25076490E-02
  4.64209123E-03 -6.48147382E-02  4.66010003E-02  6.86545298E-02 -2.14413950E-02
  2.91954578E-03 -3.05903031E-02  2.23460990E-02  2.23071211E-02  5.55154443E-02
  1.50449202E-01  1.57552832E+00 -1.62914279E-01  3.81745889E-01 -1.12767542E-01
  1.66749106E-02 -1.10158043E+00  1.27832050E-01 -1.83022725E-01  6.32412607E-02
  1.67344725E-02 -1.10032475E+00  1.28138915E-01  1.82278693E-01  6.43402056E-02
  1.50531727E-01  1.57538646E+00 -1.62391958E-01 -3.81494549E-01 -1.15033414E-01
 -1.55108655E-05 -6.21936506E-05  5.00474669E-04 -3.09029995E-04  2.78227904E-02
 -3.60829322E-05  8.23041282E-04 -2.71276270E-01 -1.01361001E-03  4.36941614E-04
  9.75055548E-05  4.26367872E-01  8.70837810E-06 -1.95507737E-02 -1.39839795E-03
 -5.09376095E-03  2.50307903E-02  1.42174259E-02  1.34062462E-02  5.08691279E-02
  3.01275731E-01 -5.31063586E-02 -2.48314137E-01  1.69197614E-02  3.75432377E-01
 -1.54350707E-01 -1.42754786E-02  1.11534771E-02  1.67241374E-03  6.07801021E-03
 -2.52454396E-02  2.77974572E-03 -5.89515747E-03  4.50058378E-02  3.11917317E-01
  7.68263116E-02  1.82614488E-02 -4.24892310E-03 -2.04804023E-01 -1.31608676E-01
  1.81774298E-02 -9.14397625E-03  5.41909769E-05  1.77330938E-04 -3.48222680E-04
 -5.76007703E-04 -1.76556849E-02 -2.31251661E-04  3.68369391E-03  3.76000800E-01
  1.52489789E-04 -9.42644527E-04  1.14771745E-04  1.31251090E-01  3.51578424E-04
  5.77938094E-04 -1.72053048E-03 -6.27800507E-03  2.70241883E-02 -1.88547424E-03
 -6.91960508E-03 -4.53575674E-02 -3.11445161E-01  7.47173640E-02 -1.70826973E-02
  4.30455699E-03  2.04709262E-01 -1.31449316E-01 -1.76751407E-02 -8.71396908E-03
  1.38203751E-03  5.02319741E-03 -2.45392692E-02 -1.40149823E-02  1.35955474E-02
 -5.08015992E-02 -3.00619394E-01 -5.19023773E-02  2.49079596E-01 -1.62888219E-02
 -3.75627880E-01 -1.54147436E-01  1.37725785E-02  1.15967986E-02  1.59372212E-05
  5.89975705E-05 -1.94223269E-04  1.00821033E-06 -4.27585487E-02  4.34543703E-04
  6.88899734E-04  4.61743704E-03 -6.76589153E-04 -5.01836117E-04  6.44574175E-04
  3.19715170E-01 -3.59670712E-04 -1.07391807E-02 -2.89261707E-05 -1.02486558E-04
  2.04925046E-04 -3.53666220E-04 -1.17451968E-02  1.96313294E-04  1.06357547E-03
 -3.51775431E-01 -1.43406507E-04  1.10748347E-03 -1.23507786E-04  8.34623343E-02
 -6.25156758E-04 -1.66836857E-03  5.93921644E-03 -2.80082043E-01  1.14798635E-01
  5.63518974E-04  5.75930115E-01 -6.88924948E-03  2.76502396E-01 -1.13031543E-01
  1.01380710E-03 -5.75863980E-01  8.52752695E-04  3.08926071E-03 -1.67164529E-02
 -7.05657565E-03 -7.11917573E-03  1.49299619E-01 -1.44067893E-02 -1.71391465E-02
  1.01854943E-01 -7.25967533E-03 -7.64541042E-02  3.51723032E-02 -3.85933139E-03
  8.23959268E-03 -9.07498003E-04 -3.29730798E-03  1.81101984E-02  7.44679202E-03
 -7.30504043E-03 -1.48604640E-01  1.44852794E-02 -1.76973821E-02 -1.01471940E-01
  7.20603738E-03  7.69618069E-02  3.52090590E-02  3.72335200E-03  8.09621868E-03
  3.86513139E-03  9.38678093E-02 -4.17238506E-02  3.78651428E-02  4.81579691E-01
  9.62774432E-03 -7.80428986E-03 -2.62493443E-02 -2.33296299E-02 -3.89430471E-01
 -9.87384277E-03  8.69453848E-03  2.61895468E-02 -2.37460369E-02  3.88597997E-01
 -4.15151829E-03 -9.43357622E-02  4.25341095E-02  3.88619788E-02 -4.82052811E-01
 -3.65980316E-05 -1.29367985E-04  4.92697565E-04 -2.44134709E-04 -2.18325903E-01
 -3.48203759E-04  3.56292202E-05  1.50612826E-01  2.42907012E-04  3.80683876E-04
  4.10012255E-04  6.14182046E-02 -1.70750787E-05  2.06788867E-01  8.29011082E-03
  2.95938487E-02 -1.33010692E-01 -1.85371857E-02 -1.66548117E-01  1.52370735E-02
 -1.37578555E+00 -1.04860763E+00 -2.55427245E-03 -1.41925768E-01  4.53787019E-02
 -2.42187259E-02  9.01878482E-02 -3.96772256E-02 -8.89189783E-03 -3.14343027E-02
  1.05179663E-01 -4.60234948E-02  1.41950139E-01 -3.54832691E-02 -1.09153167E+00
  9.39938185E-01  4.16276622E-02 -7.25247869E-02 -8.14788412E-03 -2.52639467E-02
 -7.75835422E-02  9.94419481E-02  7.94320903E-06  2.78743259E-05 -7.74286857E-05
  1.21196238E-04  1.36766824E-01  8.97438263E-04 -1.95300660E-03 -1.00279495E+00
 -2.35487090E-03 -6.74951449E-05 -7.96850918E-04 -5.27204444E-03 -1.67741900E-04
 -7.24950221E-03  8.86951359E-03  3.13503304E-02 -1.04739668E-01  4.60984070E-02
  1.41872775E-01  3.48288302E-02  1.09458381E+00  9.42978282E-01 -4.26156962E-02
  7.26677838E-02  7.77641485E-03 -2.58995646E-02  7.73623642E-02  9.96149554E-02
 -8.25200861E-03 -2.94486575E-02  1.32179220E-01  1.88185822E-02 -1.66278107E-01
 -1.62206988E-02  1.37788649E+00 -1.05106065E+00  3.17066419E-03  1.41432556E-01
 -4.50428597E-02 -2.39418093E-02 -9.01994989E-02 -3.90424644E-02  1.43048168E-05
  5.33076647E-05 -1.72219912E-04 -5.40439197E-04  3.72592009E-01  2.98511263E-04
 -2.00972062E-04  1.39059851E-01 -8.33517170E-04 -9.98661961E-05  5.55764699E-04
  5.22246256E-02  1.08131999E-04  1.00890522E-01 -2.82672178E-06 -1.11747196E-05
  4.85587119E-05  6.12883044E-05  3.42959572E-01  3.76789886E-04  1.18673629E-04
  3.37049308E+00  2.13201321E-03  5.79834527E-05 -8.02038842E-05  9.28503930E-02
  7.64313024E-05  9.66178327E-02  1.31672528E-01  3.78228037E+00 -1.46279707E+00
  6.84985684E-01 -3.02344111E-01 -1.31557591E-01 -3.78117229E+00  1.46317959E+00
  6.83154453E-01  3.04050844E-01 -6.09671067E-03 -2.21592281E-02  1.22846371E-01
  4.73022088E-02  4.52508052E-02  2.66791296E-02  1.00023646E-01  1.62516714E-01
  1.29622792E-02  1.03625641E-01 -1.26715830E-02  8.40457902E-03  4.85605590E-02
 -7.60164499E-02  6.09130376E-03  2.21390518E-02 -1.22717267E-01 -4.72121845E-02
  4.53184074E-02 -2.61062497E-02 -9.98778535E-02  1.62794463E-01 -1.29183857E-02
 -1.03675659E-01  1.33656715E-02  8.05671201E-03 -4.84772350E-02 -7.59845927E-02
 -5.27601266E-02 -1.43162368E+00  3.75447838E-01 -3.57869640E-01  3.81180532E-02
 -4.48269316E-02  8.30730388E-01  8.51508545E-02  2.41778192E-01 -7.72842592E-02
  4.46857553E-02 -8.34980894E-01 -8.49089739E-02  2.42452860E-01  8.01450359E-02
  5.29267476E-02  1.43454568E+00 -3.76481480E-01 -3.58621801E-01 -3.99138208E-02
  9.38198736E-04  2.65914457E-03  1.25852374E-02 -3.45585061E-02 -3.72009785E-04
  5.26875030E-02 -1.87611961E-02 -1.21816343E-04 -9.05475912E-02 -2.29913862E-02
 -2.39301398E-01 -6.29217492E-05 -2.48091181E-02  4.53404448E-04 -1.40244842E-03
 -5.71637431E-03  3.91513046E-02 -2.68267429E-02  2.22975055E-02  2.65470041E-01
 -5.91883407E-02 -3.73110843E-02 -2.67815036E-01  7.11947750E-03 -1.48178700E-01
  5.01142147E-04  2.76783385E-02  2.12168394E-02 -2.52926813E-03 -9.88915535E-03
  7.21619546E-02  1.60667189E-02  4.24552686E-02  1.50662425E-01 -7.89495736E-02
  1.96985762E-01  4.57655103E-01  3.05322231E-02  1.27363308E-01 -2.20972304E-01
  2.92942957E-03 -2.43362792E-02  4.99657520E-03  1.68891035E-02 -4.75896792E-02
 -4.01130401E-02  3.80901411E-04 -5.90127536E-01  5.07536526E-01 -1.67323060E-03
  1.28134743E+00 -7.33813296E-02  5.10630580E-01 -3.59582798E-04  5.27327272E-02
  7.56892433E-05 -2.49450269E-03 -9.76571822E-03  7.16994280E-02  1.63979583E-02
 -4.20036553E-02  1.50443407E-01 -7.61673589E-02 -1.94691943E-01  4.58830824E-01
  3.08114450E-02  1.27214113E-01  2.21233860E-01  3.11596532E-03  2.46490680E-02
 -1.43470604E-03 -5.83402773E-03  3.97625272E-02 -2.68218520E-02 -2.30848418E-02
  2.65194695E-01 -5.44460519E-02  3.45582393E-02 -2.67263426E-01  7.83950197E-03
 -1.48150155E-01 -8.76804704E-05  2.70813298E-02 -2.10848476E-02  1.91120734E-04
  7.32325367E-04 -3.34058677E-03 -1.47876628E-02  7.33012613E-04 -1.09356973E-01
 -1.86427712E-02  3.25311881E-04  7.90076006E-02  1.54227108E-02  4.35060537E-04
 -6.65204612E-06  1.84225717E-03  2.17579747E-04 -2.91357053E-03 -1.04909740E-02
  2.24857865E-02 -3.95143592E-02  5.39256121E-04 -7.30915984E-02  2.08523557E-01
  4.79831934E-03 -1.92680714E-01  7.45280483E-02  8.43918931E-02 -1.58464871E-04
  1.70156580E-03  2.05316751E-04 -5.50325964E-02 -1.80764805E-01  4.59219138E-02
 -8.77419655E-02 -3.15538076E-01 -5.55310268E-02 -1.92102886E-01  5.01059782E-02
  9.03659983E-02 -3.14124526E-01 -3.17236141E-04 -1.24777306E-03  8.39141750E-03
  1.02186876E-02 -1.86888493E-02 -6.37916231E-02  5.71000630E-03  1.74009218E-03
  3.18945872E-02  5.82536281E-03  6.40742456E-04 -5.15190872E-02  5.30569111E-03
  2.30112323E-03 -2.94409901E-04 -1.16534170E-03  7.94919137E-03  1.01645357E-02
  1.88722209E-02 -6.37213499E-02  5.14933559E-03 -1.17368586E-03  3.18999975E-02
  5.34501738E-03  5.37774030E-04  5.14965746E-02  4.96985555E-03 -2.76749426E-03
 -1.18396099E-02 -5.72283326E-02  1.10664229E-01 -7.64186081E-02 -1.25286181E-02
 -3.77580940E-03  1.70326843E-01 -3.85212332E-02  4.82348089E-02 -7.03904891E-01
 -3.65622252E-03  1.67886065E-01 -3.91251474E-02 -4.72166718E-02 -7.04722021E-01
 -1.16308413E-02 -5.26360604E-02  1.08809589E-01  7.48810750E-02 -1.29914332E-02
 -3.40858145E-04 -1.35929631E-03  1.02513175E-02 -4.65248225E-03 -1.56388427E-04
  5.08413632E-01  4.72488850E-03  3.60777620E-03 -2.33134912E-01 -1.28814205E-02
  1.88024530E-01  6.81713599E-04 -8.13270494E-03 -3.08886796E-04 -6.12247403E-04
 -2.34925572E-03  1.60228033E-02  1.16959683E-03 -4.44946978E-03 -9.97959818E-02
 -4.78973001E-02 -1.52286621E-02 -5.21421552E-01 -1.41472265E-03  1.58790601E-01
  1.12379711E-01 -8.04105652E-03  8.40218627E-03  9.20884963E-04  3.46014312E-03
 -2.04561692E-02 -6.56137094E-03 -5.85477556E-04 -6.80410882E-02 -1.51287512E-02
 -3.81738833E-02  1.88823649E-01 -5.13747997E-03 -4.27781679E-02 -6.01501259E-02
  7.10265828E-03  1.02798466E-02 -3.63819881E-05 -2.84899815E-06 -6.91675412E-03
 -1.37747447E-02 -1.65985808E-04 -3.16069156E-02 -1.18154432E-01 -5.48946754E-03
  1.01823730E-01  2.58861389E-02 -9.48964509E-02  5.11831193E-04  9.63740970E-03
 -2.60330191E-04  9.12803247E-04  3.42913812E-03 -2.01634084E-02 -6.80809234E-03
  6.41477744E-04 -6.66076382E-02 -5.71783204E-03  3.75046268E-02  1.84380254E-01
 -4.55268137E-03 -4.27187953E-02  5.93474074E-02  7.01802360E-03 -1.00465824E-02
 -5.91461987E-04 -2.27056180E-03  1.55986666E-02  1.32750487E-03  4.09836483E-03
 -9.87715034E-02 -3.95183797E-02  1.27616650E-02 -5.25220062E-01 -1.76001425E-03
  1.58125868E-01 -1.13389994E-01 -7.81077498E-03 -8.80528930E-03  9.17404576E-05
  2.98557638E-04  5.01183014E-05 -1.57242474E-03  4.30222348E-05 -8.18441545E-02
 -9.85326322E-03  1.48670006E-04  6.33798554E-01  2.54797542E-03 -5.00991287E-01
  5.36265302E-05  6.18299155E-03 -2.91981434E-04  5.48622397E-04  2.34080182E-03
 -1.12615905E-02 -4.93295869E-03  7.18313552E-04 -4.80488257E-04 -8.39743321E-02
  6.86940849E-03  5.39973176E-02  5.57411138E-04  5.47439746E-02  1.87144156E-04
 -2.37633196E-02  2.94659073E-04  3.15929197E-03  4.74513632E-02  1.15429021E-02
  4.38641578E-02 -1.43077072E-02  2.61629831E-03  3.23401994E-02  1.62957263E-02
 -4.07328813E-02 -1.41705110E-02  1.04141571E-04  3.59640605E-04 -2.00110019E-03
  5.02120612E-03 -1.45980066E-03 -2.55909305E-01 -8.24810138E-04 -2.24442472E-03
 -5.55544177E-02  1.37703129E-03 -2.79669928E-01  1.96318852E-02  3.95687335E-04
  5.05884976E-04  1.11604884E-04  3.88888462E-04 -2.20609270E-03  4.77549209E-03
  1.52960798E-03 -2.56232935E-01 -6.71969959E-04  2.19695192E-03 -5.57097320E-02
  1.61536858E-03 -2.79408201E-01 -1.98231546E-02  7.29189377E-04 -7.17568151E-04
 -2.84475109E-03 -6.02871801E-02  7.27687778E-03 -1.75770518E-02  6.63344953E-01
  3.89650778E-03  2.27799481E-02  2.94322389E-02  2.39740831E-02 -1.78921628E-01
  4.02917372E-03  2.10947916E-02  2.91849820E-02 -2.38626877E-02 -1.75154187E-01
 -2.46562775E-03 -5.35120449E-02  8.37934904E-03  1.67104721E-02  6.65690467E-01
 -2.78392587E-05 -1.02862058E-04  4.21804665E-04  2.39623460E-03  1.21692198E-02
 -8.11782869E-04  2.89696805E-03  1.90662014E-01  5.53146058E-04  1.65785290E-03
 -5.81343573E-04  1.94469774E-01  1.35160940E-03 -1.30606512E-02 -1.84942688E-03
 -7.04362933E-03  4.44582559E-02  5.25720201E-03  5.23181704E-04 -3.36522867E-01
 -6.46519823E-02  2.03045273E-01  1.15429109E+00  2.66871658E-03 -8.18318398E-02
 -1.04843724E-01 -2.31579873E-02 -1.04060769E-02  8.75006145E-04  2.83725342E-03
 -5.05741720E-03  1.06624010E-02 -2.99659540E-02 -3.74333450E-01 -1.13859463E-01
 -3.12522053E-01  1.18469042E+00 -2.01813938E-02  1.24918246E-01 -1.03639784E-01
  1.61999738E-02 -2.61157053E-03 -5.76656255E-05 -2.41912679E-04  2.30951837E-03
 -1.27145683E-03 -3.13169620E-02 -3.42780222E-04 -3.04206046E-03 -3.35275422E-01
  1.04837895E-03 -1.38514450E-03  6.27879110E-04  1.14849861E-01 -4.21472696E-04
 -2.47689582E-02 -9.89332910E-04 -3.32018725E-03  9.44347378E-03 -1.01807709E-02
 -2.86858214E-02  3.74847412E-01  1.22119409E-01 -3.01380288E-01 -1.18455864E+00
  1.92412880E-02 -1.24543413E-01 -1.03226081E-01 -1.82640093E-02 -2.06908273E-03
  1.94527897E-03  7.36717211E-03 -4.50635159E-02 -4.28722672E-03  1.30433286E-03
  3.37193229E-01  7.38033764E-02  2.04814777E-01 -1.15248765E+00 -2.69735681E-03
  8.09732445E-02 -1.04284045E-01  2.20255285E-02 -7.31472374E-03 -2.81842092E-05
 -1.02861175E-04  2.93672779E-04  8.76513644E-04 -2.57989522E-02  5.40584979E-07
  3.68902769E-03 -7.14911096E-03 -1.19510589E-03 -5.97700572E-04  8.94205754E-04
  8.83928582E-03 -1.77510588E-03 -1.54467160E-03 -3.21082655E-05 -1.22392177E-04
  4.32786601E-04 -1.75860025E-04  2.55507513E-02 -3.19265584E-05 -1.43202224E-03
  2.44954593E-01 -5.49747050E-04  9.44199419E-04 -1.43053918E-04 -5.07093505E-02
  3.02947437E-04  2.71698186E-02  7.77001278E-03  2.78501715E-01  1.85411049E-03
  1.18807440E-01 -2.90012153E-02 -7.98567953E-03 -2.76243860E-01 -2.17514832E-03
  1.18540850E-01  2.89604098E-02  6.02549331E-04  2.16693293E-03 -1.17842569E-02
 -2.17117736E-03  9.20396666E-03  5.20781347E-02 -9.08376181E-03 -1.88432503E-02
 -3.50211535E-02 -8.89009992E-03 -8.25336320E-03  4.89954560E-02 -1.08744577E-02
  6.95715051E-03 -6.69191842E-04 -2.41540620E-03  1.34893577E-02 -2.18218022E-05
  6.82773888E-03 -5.10123157E-02  8.26804104E-03 -2.00297603E-02  3.51995037E-02
  8.63508459E-03  9.21305044E-03  4.90448079E-02  9.75850821E-03  6.28873433E-03
 -1.63502914E-03  6.78538394E-02 -7.67677469E-02  2.93479304E-02 -7.46120691E-01
 -3.28892600E-03 -2.22612178E-01  2.44745594E-02 -5.06459883E-02 -8.73611017E-01
  2.28568536E-03  2.04435173E-01 -2.34752416E-02 -4.73487970E-02  8.72444379E-01
  1.86478696E-03 -6.09402197E-02  6.84677112E-02  2.24504874E-02  7.43366762E-01
  5.45661208E-03  2.04929766E-02 -8.97793714E-02 -4.73938595E-01  2.27915883E-04
 -1.54500760E-02 -5.24953848E-01  5.59976301E-03  1.97184062E-02 -3.07365430E-01
  7.71448268E-03  1.22773907E-03 -2.73351568E-01 -1.53627344E-04 -9.39812585E-03
 -3.16816803E-02  5.67050474E-02 -9.25895782E-02  9.53021201E-02 -9.37260125E-03
 -8.29325955E-01  9.54485502E-02  1.94025285E-02 -1.64037626E-02  3.19574091E-03
 -1.47552300E-03  1.02451312E-01  3.00235204E-01  1.28227836E-02  5.38755695E-02
 -4.79801901E-01 -5.26781222E-02  1.21177814E-01 -2.73859094E-03 -9.46078016E-01
  1.23589971E+00 -3.07605312E-02  8.20558751E-02 -4.02735864E-03  2.18687366E-02
  1.63483197E-01  7.02026381E-02  7.75243701E-03  3.45544175E-02 -3.83264257E-01
  2.45928075E-01 -3.18931613E-04  3.66828974E-02  1.01460728E+00 -7.93288126E-03
 -7.32607660E-02  2.54070598E-01 -1.94805082E-02  7.55138878E-04  7.99599523E-02
 -3.48710489E-04  1.27862217E-02  5.37435847E-02 -4.79110758E-01 -5.33683170E-02
 -1.21478246E-01  1.38135368E-03 -9.38113623E-01 -1.24710673E+00 -4.38525576E-02
  8.27047373E-02 -5.12393906E-03 -2.31153327E-02  1.62949519E-01 -7.04306821E-02
 -9.33035907E-03 -3.14295631E-02  5.54219105E-02 -9.27504586E-02 -9.50454227E-02
 -6.20428507E-03 -8.21834167E-01 -8.69219864E-02  8.72500923E-03 -1.61156167E-02
  3.50617441E-03  2.62403438E-04  1.03155715E-01 -3.00866738E-01  3.71144461E-03
  1.33136508E-02 -3.56845303E-02 -1.82746855E-01 -4.87398627E-04  5.49734779E-03
 -6.70701972E-01 -7.44356901E-04 -1.50063225E-02  8.09224253E-02  6.34900118E-03
  5.62685014E-04  3.34918529E-01  5.13125096E-04  5.94493076E-03  2.22714322E-02
 -7.55722102E-02  6.74109069E-02  6.25315875E-04 -1.71822612E-02  5.06470736E-01
  5.57417401E-03  8.91478359E-02 -2.17032234E-01  4.46278315E-02  1.11741379E-04
 -2.56363440E-02  3.53290926E-04  1.52396745E-02 -3.89436697E-01  2.72150150E-02
 -1.12972081E-01  1.55706204E-02  1.48230527E-02 -4.02383271E-01  2.92238007E-02
  1.17186113E-01  1.65842079E-02  5.97792176E-03  2.22940359E-02 -1.52974973E-01
  2.12854914E-01 -2.42141694E-01  6.87619926E-03  6.98792740E-02 -9.88613783E-02
 -7.87745530E-04  2.28792316E-02  4.85252091E-03  2.03157106E-03  9.90586713E-02
 -4.69718219E-02  5.98020219E-03  2.23036093E-02 -1.53066001E-01  2.12675070E-01
  2.42403046E-01  6.20107173E-03  6.94745505E-02  9.79530378E-02 -8.45772328E-04
  2.33302609E-02  5.06127590E-03 -1.51043537E-03  9.91438358E-02  4.71466759E-02
 -1.85187114E-02 -6.30296813E-01  7.92271920E-01 -6.16070872E-01 -7.64286802E-03
  1.07782027E-01  1.90911238E+00 -7.99423730E-02  3.68476206E-01  4.67737754E-02
  1.07871720E-01  1.91493222E+00 -7.99279512E-02 -3.69485258E-01  5.52320553E-02
 -1.83086169E-02 -6.31307002E-01  7.93208989E-01  6.16437636E-01  8.03006057E-05
 -1.56019105E-05 -6.01489134E-05  4.55617115E-04 -5.20303212E-04 -4.49380747E-02
  5.28072972E-04 -9.25016518E-04 -1.46770925E+00 -1.68610452E-03 -3.44479602E-04
  3.25815809E-04  5.10188992E-03  4.68209198E-05  8.79657306E-02  1.98992761E-02
  7.75106237E-02 -5.37203035E-01  5.43329090E-02  1.15489556E-01 -8.63177052E-02
  8.51324346E-01 -1.12727837E+00  2.11331269E-01  8.67819594E-02 -1.95973213E-02
 -7.81954792E-03  2.22796375E-01  1.16268428E-01 -1.62499591E-03 -2.81154172E-03
 -5.01593394E-02 -1.45494748E-01  2.10370104E-01  2.36389576E-02  1.42475753E+00
  2.24498821E+00  5.94382507E-02  2.47923546E-01 -2.90096629E-02  2.69733742E-03
 -1.29617655E-01 -2.32860377E-02  1.16101022E-05  4.88405474E-05 -4.68568741E-04
 -1.13385018E-05  2.14055639E-01  2.07580311E-04  4.94548818E-05  3.29063741E+00
  1.90974218E-04  4.93237453E-04 -1.35298822E-04  9.22879497E-02  1.21973104E-04
  1.84903782E-01  1.66384751E-03  2.96591172E-03  4.89707741E-02  1.45545816E-01
  2.10092821E-01 -2.40874717E-02 -1.42568000E+00  2.24535049E+00 -5.86880086E-02
 -2.47973612E-01  2.87066861E-02  2.75960087E-03  1.29680860E-01 -2.35528509E-02
 -1.99135531E-02 -7.75614895E-02  5.37422589E-01 -5.41706990E-02  1.15496532E-01
  8.63214458E-02 -8.53369389E-01 -1.12658374E+00 -2.11575253E-01 -8.69281428E-02
  1.99573162E-02 -7.67387444E-03 -2.23044637E-01  1.16164035E-01 -2.02055092E-06
 -1.01500974E-05  7.38611995E-05 -2.69759940E-04  1.79799797E-01  9.23937762E-05
 -1.19655254E-03 -8.91853808E-02  6.85404212E-04  6.40864416E-05 -1.37999919E-04
 -4.17023390E-02  6.42138368E-04 -5.20934664E-02  1.33636144E-05  5.46484272E-05
 -2.34209671E-04 -2.36510968E-04 -3.99106264E-01 -1.69412521E-04 -2.06645226E-03
 -3.97124829E+00 -1.93711874E-03 -9.07891720E-06 -1.56405533E-04 -1.97596933E-02
 -3.49087388E-04 -2.23382524E-01 -1.62341319E-01 -4.48528058E+00  8.35462392E-01
 -1.40753532E+00  4.68649226E-01  1.62388928E-01  4.48659725E+00 -8.35957107E-01
 -1.40764122E+00 -4.70307751E-01 -5.01425333E-03 -1.77125218E-02  9.02645636E-02
 -3.83914269E-02 -1.27100826E-01 -1.14461450E-02  8.69747943E-02  2.04916878E-01
 -1.31358882E-02  6.97783922E-02  9.78406638E-03  2.00099086E-03  1.22528990E-01
 -7.01970201E-02  5.03063246E-03  1.77733930E-02 -9.06901550E-02  3.87772845E-02
 -1.26448752E-01  1.09103797E-02 -8.63426542E-02  2.05836662E-01  1.31208346E-02
 -6.98290898E-02 -1.00611996E-02  1.90346832E-03 -1.22300366E-01 -6.99666746E-02
  5.20882628E-02  3.00671851E-01  7.48148804E-01 -1.04875630E-01 -1.35779043E-01
  5.46182665E-02  1.68679316E+00 -2.11753760E-01  4.21331311E-01 -5.30816762E-02
 -5.44234180E-02 -1.68452912E+00  2.11844757E-01  4.20409329E-01  5.36523181E-02
 -5.21823328E-02 -3.02669917E-01 -7.47022270E-01 -1.03904872E-01  1.36911730E-01
  2.73008573E-02  1.07291116E-01 -8.25726775E-01 -1.89410766E-01 -6.10201142E-04
 -1.86797534E-03  3.49659327E-01 -5.82823801E-03  1.76118462E-03  3.14611502E-01
  2.12359888E-02  6.70597564E-05  1.09114757E-01 -1.78540071E-04  4.48539085E-03
  2.28891997E-02 -3.42983172E-01  4.81023708E-02  2.66422491E-01 -1.32442246E-02
  3.99408940E-02  3.57431542E-01 -5.21505960E-02  2.43455852E-02  1.55495389E-02
  3.46407669E-02  3.67311264E-01 -4.35578124E-02 -8.78958131E-03 -3.02246548E-02
  1.04679022E-01  8.09936481E-02  9.75756961E-02  1.08625943E-02  6.12990682E-01
  1.59227727E+00  1.46546451E-02 -1.10096516E-01  8.33939145E-03  2.72602796E-02
  2.50734343E-01 -2.12980253E-01  8.50267124E-03  3.24652640E-02 -2.40085675E-01
  4.29036653E-01 -4.59385270E-05 -3.78410040E-02  2.25699363E+00  5.22006094E-03
 -1.24009020E-01 -9.06484763E-02 -1.48327860E-02 -5.61307895E-06 -2.01068977E-01
  4.71787362E-04 -8.73814300E-03 -3.00282433E-02  1.03462472E-01  8.08744160E-02
 -9.75117995E-02  1.13748900E-02  6.08061866E-01 -1.58451349E+00  1.33652024E-02
 -1.10070658E-01  8.36695628E-03 -2.72300907E-02  2.51515119E-01  2.13266405E-01
  4.47764367E-03  2.28775931E-02 -3.43464602E-01  4.87997852E-02 -2.67409701E-01
 -1.37380628E-02  3.13481529E-02 -3.69903398E-01 -5.22085851E-02  2.46367612E-02
  1.51235907E-02 -3.48839790E-02  3.67131142E-01  4.32559913E-02  1.77656734E-04
  2.26299881E-03 -4.74595559E-02 -9.80012781E-02 -3.44596112E-05  1.11353918E-02
  2.51421661E-01  5.41042007E-04 -1.64177283E-03 -4.55207278E-02 -1.10130876E-02
  6.17773052E-05 -2.78017819E-01 -2.20228140E-04  1.47311513E-02  5.36530398E-02
 -1.46696531E-01  1.58055010E-01 -6.64816427E-04  7.77509732E-03  1.66535038E+00
 -4.68909087E-03  1.29887179E-01 -1.16541695E-02  9.48258493E-03 -2.69627761E-04
 -6.53454739E-02 -2.95062843E-04  6.62475958E-02 -9.91869691E-01 -1.20663349E-01
 -6.54303887E-01  5.84474392E-02  6.62742902E-02 -9.82740444E-01 -1.21964170E-01
  6.51867750E-01  5.82306435E-02 -7.01030825E-03 -2.49589986E-02  1.50616965E-01
 -2.27197728E-01 -1.87898650E-02 -7.23478293E-03  1.39396393E-01  1.08524945E-01
  5.21641807E-03 -3.42102439E-02 -2.46713073E-03 -4.00407106E-04 -2.98577880E-02
 -3.34929109E-04 -7.00086842E-03 -2.49215527E-02  1.50322333E-01 -2.27349506E-01
  1.85789296E-02 -7.17451030E-03  1.39580833E-01 -1.08514590E-01  4.99739217E-03
 -3.41655370E-02 -2.18535917E-03  1.72532254E-04 -2.96965239E-02  2.24601141E-04
  4.54120318E-02  1.10773884E+00  4.69218862E-01  1.55219995E-01  8.02708600E-02
 -1.12174182E-02  5.16668377E-01 -1.27546993E+00 -6.00374589E-01 -3.77266877E-03
 -1.11608935E-02  5.15288602E-01 -1.27795254E+00  6.01457550E-01 -3.22559914E-03
  4.54449707E-02  1.11528463E+00  4.70035123E-01 -1.57105454E-01  7.95273305E-02
 -1.18101966E-03 -6.00136213E-03  5.11926053E-02 -6.47320132E-02  1.23011341E-03
  6.64515830E-02  1.24599442E+00  8.71411510E-03 -4.97168544E-02  7.73825508E-02
 -6.57696614E-02 -1.11465194E-03 -2.14624718E-02  4.33767014E-04 -3.39065791E-03
 -1.59452600E-02  2.06828401E-01 -1.39754524E-01 -4.34376736E-02 -2.58429292E-02
 -9.27076718E-01 -2.80413745E-01  3.00265822E-01 -2.24643056E-01 -1.29069277E-02
 -1.42465251E-01  2.52736761E-01  3.77757825E-02  3.93763371E-03  1.90293401E-02
 -2.45789701E-01 -2.12449886E-01  6.54542871E-02 -7.46067196E-03  8.03449208E-02
 -3.88289124E-01  1.38652828E-01  7.03827772E-02  1.05215320E-02 -1.23419977E-01
 -6.53945867E-02 -2.13580672E-04  7.38585414E-03  3.23133902E-02 -3.59301479E-01
  2.09551090E-02 -5.18885811E-04  1.14697997E-01 -1.15699551E+00 -1.21635182E-02
  1.50987708E-02  1.90583578E-01  6.48344058E-02  3.77873584E-03  8.45186398E-02
 -1.25435323E-03  3.72402967E-03  1.82383286E-02 -2.41381255E-01 -2.13067511E-01
 -6.56159840E-02 -1.36223387E-02  7.40030955E-02  3.61239359E-01  1.53694351E-01
  7.31486691E-02  1.67139965E-02  1.21905846E-01 -6.94006894E-02 -1.35300421E-03
 -3.35380193E-03 -1.58641062E-02  2.07973059E-01 -1.45146844E-01  4.64712627E-02
 -1.98285046E-02 -9.16499732E-01  3.07449246E-01  2.85202151E-01 -2.26370374E-01
 -1.30426563E-02  1.40628794E-01  2.54874560E-01 -3.77928787E-02  1.09067620E-02
  4.20492421E-02 -1.62708831E-01 -6.45417492E-02  5.46471497E-05 -2.60775070E-02
  6.08542521E-01 -1.89431946E-03 -4.10550061E-03  1.33397731E-01  8.27148049E-03
 -2.97372734E-03 -4.56069482E-01 -1.18022632E-03  1.73744954E-03  8.12632322E-03
 -4.73673808E-02 -5.61547192E-02  3.41519402E-03 -5.52823971E-02 -6.27053067E-01
  2.07281834E-02 -4.46376497E-02 -1.34795206E-01  3.88501475E-02  5.04114792E-03
 -4.21131007E-02  1.71405998E-03  5.20415141E-04  4.17096747E-01  6.05163283E-02
  3.98063975E-01 -2.16312889E-02 -9.17739516E-04  3.62381835E-01  6.76526965E-02
 -3.78423342E-01 -3.29064916E-02 -1.51591847E-02 -5.66747871E-02  3.81220105E-01
 -2.29305014E-01  1.87901425E-01  3.16654564E-02  7.57022944E-02  1.13610923E-01
 -3.42649674E-02  1.53657301E-01 -1.38696248E-02  2.19304741E-02 -1.42812492E-01
  1.65761252E-01 -1.51895158E-02 -5.68007701E-02  3.82325754E-01 -2.27180804E-01
 -1.89240056E-01  3.37292960E-02  7.47212443E-02 -1.12783807E-01 -3.26968420E-02
  1.53003549E-01 -1.51555222E-02 -2.18408050E-02 -1.43538426E-01 -1.67220572E-01
  1.46835629E-02 -6.80468410E-01  5.37205208E-01 -4.69941553E-01 -2.90632166E-01
  3.18976882E-02  9.85768505E-02  4.05977529E-01  4.23874149E-01 -2.11961932E-01
  3.17752742E-02  1.15887115E-01  4.13426536E-01 -4.27942849E-01 -2.20711421E-01
  1.43889121E-02 -7.00209327E-01  5.34249524E-01  4.75327220E-01 -2.78479222E-01
 -2.36974557E-06 -1.06789909E-05 -2.40231117E-04 -5.97919044E-04  4.81216463E-02
  3.63329809E-03  8.51532446E-03  9.40842958E-01 -3.19889082E-03  2.28266083E-04
 -2.99633990E-03  1.15493971E-01  5.65017611E-04 -5.27915539E-03  7.13893887E-03
  2.95451032E-02 -2.58541976E-01  5.64715886E-02  1.46777273E-01  3.24231000E-01
 -3.75622878E-01  7.51402459E-01 -8.43493815E-01  1.07551805E-01  8.09018594E-03
  9.14515422E-02  4.80742897E-02 -5.66816125E-03  4.00071335E-03  1.57277587E-02
 -1.11845775E-01 -4.53463565E-02 -1.81075213E-02 -3.24942381E-01 -3.04117646E-01
 -2.56567502E-01  7.86915916E-01  6.06216060E-02  3.22468033E-01  6.21643537E-02
 -2.85504887E-02  1.31791175E-02  5.31288293E-05  2.37692910E-04 -2.91714611E-03
 -2.32892722E-04 -7.47817748E-02  4.49554268E-03 -2.17177553E-02 -3.11869802E-01
 -1.19818634E-03  2.22125815E-03  3.02489614E-03 -4.02347994E-01  5.21603027E-04
 -7.93408948E-02 -3.83738538E-03 -1.50517011E-02  1.05618658E-01  4.28153081E-02
 -1.92720463E-02  3.24048069E-01  3.11543822E-01 -2.42257203E-01 -7.70396513E-01
 -6.09130853E-02 -3.21039703E-01  7.42183124E-02  3.02021561E-02  1.32253888E-02
 -7.17684150E-03 -2.97008751E-02  2.60117523E-01 -5.69560788E-02  1.47753641E-01
 -3.26724899E-01  3.60824236E-01  7.54387997E-01  8.71110395E-01 -1.09198079E-01
 -8.56115828E-03  1.04303463E-01 -4.66037386E-02 -6.06612758E-03  6.77760351E-05
  2.59707299E-04 -9.48207958E-04 -2.70558361E-04 -4.47725987E-03 -9.65832882E-04
  2.95111575E-03 -1.90591467E-01 -8.28744978E-05  5.90463905E-04  1.65829385E-04
  2.82470020E-01 -2.52162161E-03 -5.52314256E-02  8.24185300E-05  3.41568379E-04
 -1.49846608E-03 -7.75735119E-04 -4.95891190E-02 -1.95376406E-03 -1.14037992E-02
 -2.60243573E-01 -2.00239756E-03 -1.11018617E-03  3.59907219E-04 -4.39738387E-01
 -1.82508277E-03  1.08279238E-02 -5.02483227E-02 -5.46166670E-01  8.92081836E-02
 -3.20065538E-01 -7.37524513E-01  5.10939014E-02  5.63769040E-01 -8.90904798E-02
 -3.31194520E-01  7.37658098E-01 -6.80483006E-04 -2.10758818E-03  3.50297600E-03
 -4.98745826E-02 -4.33051582E-02  7.27825086E-02  4.23790957E-02  4.50936326E-02
  9.19139011E-02 -1.12149660E-02 -7.74428849E-02 -1.45033022E-02  3.04929702E-02
 -2.52613436E-02  5.19757330E-04  1.50491448E-03  5.89211436E-04  4.71681073E-02
 -4.56819709E-02 -7.01201665E-02 -4.11745080E-02  4.39750151E-02 -9.47072559E-02
  1.27276885E-02  7.57908748E-02 -1.63730512E-02 -3.22362964E-02 -2.67187472E-02
  2.99880070E-02  8.01446404E-01  1.73304089E-01  1.47424665E-01  6.22654351E-01
  3.32337478E-03  1.22388398E-01 -1.52053313E-01  2.09008067E-02 -4.36244067E-01
 -2.80251093E-03 -1.25278783E-01  1.54360075E-01  1.64176238E-02  4.12678012E-01
 -3.00175584E-02 -8.11566242E-01 -1.68098574E-01  1.51833912E-01 -6.47635447E-01
  1.70453502E-03  7.36022574E-03 -8.18019997E-02 -3.93782715E-05  4.07203205E-03
  2.84097645E-01 -2.16891736E-01  3.05162164E-02 -2.38339885E-01 -3.56304429E-02
 -2.34576647E-01 -2.34023496E-03  4.27054667E-02  2.18153032E-03  1.29129905E-03
  6.74951798E-03 -9.59794659E-02  8.31982546E-02  3.36489755E-02 -1.35895248E-01
  6.97810804E-02  1.91878902E-01  1.16874540E+00  9.31775458E-02 -1.21487502E-02
 -5.10388464E-01 -8.91646286E-02  2.03808237E-03  3.47152445E-03  1.26011987E-02
 -7.16776342E-02  2.90348581E-02 -3.42046918E-03 -3.16185187E-03  3.20578745E-01
 -3.86181339E-01  6.79942692E-01 -7.33351120E-02  9.66623482E-02 -4.89169630E-01
  9.37222364E-02 -2.13816783E-03 -1.38980310E-03 -5.38267787E-03  2.89428489E-02
 -3.09338547E-02 -2.94207179E-03  3.39426683E-01 -8.00653837E-01 -3.67325396E-02
 -2.14395020E-01  4.51442034E-02  2.68201259E-01  5.10302077E-03 -7.20079396E-03
 -4.78346503E-03  2.77866135E-03  1.00426544E-02 -5.78661937E-02  2.83396422E-02
  9.21919188E-04 -1.31604683E-02  3.01616587E-01  3.04352154E-01  7.05496485E-01
 -6.60818745E-02  1.06064775E-01  4.86652108E-01  8.26921019E-02 -1.71137623E-03
  1.20487612E-03  6.19629195E-03 -8.59971398E-02  6.52839060E-02 -2.14515188E-02
 -1.27009932E-01  1.00919260E-01 -9.91475463E-02  1.14591565E+00  8.47591874E-02
 -1.13431111E-02  5.07408572E-01 -8.35751288E-02 -1.64995701E-03 -2.86409797E-03
 -1.09359590E-02  4.15222928E-02  4.78642570E-03  1.24115658E-04 -7.68437841E-02
 -1.70137630E-01 -7.78912512E-03 -3.66812065E-02 -3.53457056E-02  7.92272222E-03
 -4.56172342E-03  1.11206628E-01 -2.29660739E-03  5.45119414E-03  2.20116479E-02
 -9.02446662E-02 -9.45033175E-03  9.29287766E-03 -1.36003385E-01 -4.03790484E-01
  5.82916606E-02 -1.31868375E-01  3.67974206E-02 -5.91119632E-03  8.19235176E-03
 -1.05445264E-01  5.35767022E-03  2.23274652E-02  4.33085272E-01 -2.84936678E-02
  1.71698557E-01  7.02212416E-02  1.90510538E-02  2.83147182E-01 -9.83256492E-03
 -1.20223852E-01  5.79587999E-02  4.21606137E-03  1.58441799E-02 -1.07435444E-01
  3.67242169E-02 -5.43443748E-02  1.21552642E-01 -8.26636772E-04 -2.52442875E-02
 -1.29408349E-01 -4.55712800E-02 -6.58010068E-02  9.37252898E-02  3.47786090E-02
 -5.64076246E-02  4.08984905E-03  1.53265633E-02 -1.03055061E-01  4.32159318E-02
  5.04333853E-02  1.23309584E-01 -4.07956708E-03  2.90155294E-02 -1.25911589E-01
 -4.82990972E-02 -6.84136481E-02 -9.30666291E-02  3.11194370E-02  5.31548783E-02
 -4.53909693E-03  2.53680879E-01 -1.24731166E-01  1.90099717E-01 -1.02756281E+00
 -3.34510322E-03 -2.78946485E-01 -1.96353327E-01 -1.17392694E-01 -1.00802007E+00
 -3.59592385E-03 -2.27702201E-01 -1.72215409E-01  1.05096800E-01 -1.02227360E+00
 -6.40630709E-03  1.75120834E-01 -1.36919005E-01 -1.70554773E-01 -1.00931880E+00
 -9.77335266E-06 -2.63426934E-05 -6.94470654E-04 -4.70348624E-04 -1.91208989E-01
  7.02117864E-03  4.33207289E-03 -1.66188268E+00 -6.18964140E-03 -1.04364311E-03
 -6.09121894E-03  4.12104095E-02  6.45620374E-04 -9.14576949E-02 -4.63173394E-03
 -2.33604753E-02  3.14504565E-01 -4.20222584E-01 -3.13480737E-01  4.67418946E-02
  8.63912355E-01 -2.24021297E+00 -9.18367273E-02 -2.34729885E-01  6.06614596E-03
  7.04526346E-03  8.94575767E-02 -2.44287640E-03 -1.66130605E-02 -6.17278554E-02
  3.43802156E-01  3.05254858E-03  6.15162054E-02 -6.12576980E-02 -2.98778780E-01
  1.82472440E+00  1.94831491E-01  1.20123781E-01  6.58539264E-02  1.09091922E-02
 -2.40075303E-01  9.29773341E-02  4.31739321E-05  1.97521725E-04 -2.72295658E-03
 -1.43226610E-03  1.41770225E-01  8.77549443E-03 -3.78490979E-02  1.76686999E+00
 -4.02641744E-03  3.40386180E-03  6.79776059E-03 -5.30753000E-02  9.98451618E-04
  2.30101433E-01  1.69220555E-02  6.29433222E-02 -3.53422022E-01 -5.18629191E-03
  6.01791315E-02  6.04128289E-02  3.16510848E-01  1.85592848E+00 -1.59607051E-01
 -1.21996761E-01 -6.12582938E-02  3.56431012E-02  2.43714564E-01  9.24486199E-02
  4.60453226E-03  2.32860254E-02 -3.14534098E-01  4.21868840E-01 -3.13123407E-01
 -5.30534176E-02 -8.78627198E-01 -2.24131086E+00  1.47664797E-01  2.35234126E-01
 -7.00143426E-03  3.25560721E-02 -9.11005724E-02 -3.40510973E-03  3.35046308E-05
  1.30704510E-04 -4.81439823E-04 -6.08477652E-04 -1.08638122E-02 -2.25140850E-03
  1.83717006E-04  4.00284170E-01 -4.75347131E-04  2.79526674E-04  2.40908817E-04
  6.18238915E-02 -7.07798170E-04  1.24587531E-01  1.55748073E-04  6.50745565E-04
 -2.93923160E-03 -1.44739089E-03 -3.78628689E-01 -3.69511328E-03 -2.13397573E-02
 -2.37100074E+00 -5.10713602E-03 -6.22816637E-05 -1.12736135E-04 -1.65262492E-01
 -3.44652910E-03 -2.37047898E-01 -4.51525136E-02 -2.97843958E+00  3.20309663E-01
 -1.00343243E+00  6.55246592E-02  4.61518798E-02  3.01054724E+00 -3.20306025E-01
 -1.02153455E+00 -6.50421416E-02 -2.37092920E-03 -1.00110178E-02  9.08288167E-02
  1.66607517E-01  9.95953269E-02  1.89797017E-02 -9.43576704E-02 -9.82630779E-02
  1.77508752E-02 -4.96557768E-02 -1.87998936E-02 -8.68034904E-04 -8.94377888E-02
  8.87659911E-02  2.35684596E-03  9.95980741E-03 -9.05037440E-02 -1.67770998E-01
  9.88764824E-02 -1.29465429E-02  9.52352726E-02 -9.82939811E-02 -2.42484607E-02
  4.99711951E-02  1.54802868E-02 -5.15041239E-03  8.87256230E-02  8.89985768E-02
 -4.98122056E-02 -1.93857541E+00 -3.45984964E-01 -4.51803331E-01  9.59673680E-02
 -6.57506322E-03  1.04898169E+00  5.78278360E-01  2.75232648E-01 -1.45336310E-01
  7.03546869E-03 -1.06087481E+00 -5.78043673E-01  2.71743245E-01  9.57777776E-02
  4.93480254E-02  1.93328991E+00  3.46805654E-01 -4.53142352E-01 -1.48556988E-01
  9.73397670E-05  3.52904663E-04 -7.46464688E-05  1.76428453E-03  2.45096161E-01
  5.37940942E-04 -1.33306267E-02  3.66646502E+00  1.26177908E-03  4.17710898E-03
 -2.43712242E-04  2.84563426E-03 -4.72806375E-03 -2.41335417E-01  9.33652831E-03
  3.83860831E-02 -3.38197100E-01 -2.88630809E-01  2.59156337E-01 -6.12845778E-02
 -2.83922333E+00  1.05092539E+00  1.89773865E-01  5.12144526E-02  1.50413704E-02
 -2.27231560E-02  1.50096906E-01  6.58559766E-02  5.54886631E-03  2.60528734E-02
 -3.25608264E-01 -2.70492834E-01  9.47662704E-02  5.99799130E-02 -3.06196758E+00
 -1.47782334E-01 -1.52370872E-01  9.76306014E-02 -5.41496127E-02 -9.80389195E-03
 -2.52334986E-01  1.81452616E-01 -8.00731897E-05 -3.52737159E-04  4.67346425E-03
  6.15315099E-03 -2.37004506E-01  7.51196369E-04  1.23407904E-01 -2.31068625E+00
 -4.94544661E-03 -9.85109997E-03  1.07666143E-03  7.67546219E-02 -4.04649046E-03
 -2.58187209E-01 -6.60534805E-03 -3.01400206E-02  3.55913712E-01  2.76054458E-01
  1.02306228E-01 -5.84156901E-02  2.98600542E+00 -2.59064241E-01  1.54183152E-01
 -8.90374615E-02  5.62719452E-02 -8.29300445E-03  2.37479109E-01  1.80407703E-01
 -9.31188172E-03 -3.84295943E-02  3.41389576E-01  2.77508625E-01  2.60529726E-01
  5.92454220E-02  2.87720299E+00  1.05334656E+00 -1.80844888E-01 -5.81483550E-02
 -1.40048719E-02 -2.05192911E-02 -1.38631962E-01  6.83937675E-02 -4.60989777E-05
 -1.80588436E-04  5.42306985E-04  1.33747834E-03 -1.67263737E-01  2.58571053E-04
  1.68872751E-03 -2.82413337E-01 -1.33789443E-03 -3.22114482E-04 -3.77334105E-04
 -3.62348136E-02 -5.80169074E-04 -4.75565394E-02 -5.89924148E-04 -2.45843513E-03
  1.10583370E-02  5.74499255E-03  1.41651328E-01 -8.03592778E-05  5.95282741E-02
  8.66798798E-01  5.35782727E-03 -4.61280513E-03  8.63606659E-04  1.08807977E-01
  7.15782340E-03  1.09277477E-02 -4.14774658E-02  4.65231928E-01 -9.69114723E-01
 -8.25139947E-01  3.45366356E-02  3.83668607E-02 -5.65506106E-01  9.70516315E-01
 -7.72831482E-01 -2.65973109E-02  1.59058894E-03  5.75080933E-03 -3.31087417E-02
 -7.60949036E-03  2.79166247E-02 -2.43520042E-03 -2.76053402E-02 -1.21446048E-01
 -1.81268944E-02 -1.21186896E-01  1.11303035E-02  7.43107385E-03 -3.70169030E-02
  4.13047531E-02 -1.64622278E-03 -5.95136996E-03  3.42748618E-02  1.02268723E-02
  2.77710135E-02  3.68860782E-03  2.36587926E-02 -1.22040366E-01  1.71507930E-02
  1.21233934E-01 -1.17071590E-02  6.47246518E-03  3.87730975E-02  3.84260380E-02
 -2.61347359E-03  3.30935200E-02  1.46570134E-01  1.71590813E-01 -1.03881089E-01
  6.75708579E-03  1.51056379E+00 -5.85884954E-01  3.54497987E-01  3.88645286E-02
 -8.59421050E-03 -1.46059813E+00  5.95216278E-01  3.64732853E-01 -4.53604192E-02
  3.80557472E-03 -2.88889344E-02 -1.44333130E-01  1.87017314E-01  9.97026768E-02
  3.35938971E-03  1.18999474E-02  2.72643551E-02  8.45143289E-02 -5.45216484E-03
  4.95793811E-02 -6.67203994E-01 -7.99614224E-02 -2.80242844E-02  2.02221020E-01
 -6.59445653E-03 -1.55914720E-04 -2.35171813E-01  5.01110131E-03  4.27640705E-04
 -1.92842043E-03  9.34377299E-02 -2.64559273E-01 -5.51362434E-02 -7.01909311E-02
  9.46409328E-01 -7.26557769E-02  2.97889714E-01 -1.72398972E-01  3.68311004E-02
 -6.78283570E-02  2.60968565E-01 -4.97336078E-02 -2.51197880E-02 -9.72170567E-02
  7.21534822E-01  1.22264306E-01 -1.68479523E-01  4.23502697E-02 -1.68480427E+00
  2.53944654E+00  7.40424718E-02  2.10858919E-01  6.89053986E-02 -5.16460511E-02
 -3.45069720E-01  1.78928762E-02 -3.51551627E-03 -1.57521835E-02  2.18496863E-01
  2.97593889E-01  5.28301810E-03  5.48479672E-02  5.76375054E+00  5.30788290E-02
 -2.96904048E-01 -4.72421792E-01  5.46461798E-02 -1.74404421E-03 -1.73588108E-01
  5.98402840E-03 -2.48272061E-02 -9.59094545E-02  7.06905287E-01  1.10175454E-01
  1.64801547E-01  4.54859086E-02 -1.81515254E+00 -2.52049017E+00  6.53525274E-02
  2.14229367E-01  6.63439197E-02  5.21542690E-02 -3.54724388E-01 -2.50845753E-02
  7.97824594E-04 -3.99635809E-04  7.98632175E-02 -2.75524731E-01  4.40886545E-02
 -7.32171365E-02  8.19091518E-01  2.07240486E-02  3.08485074E-01 -1.69786294E-01
  3.70511802E-02  6.89242049E-02  2.66898773E-01  4.64400348E-02 -1.67576044E-03
 -6.71735734E-03  2.16215994E-02  6.11209600E-02  3.66174787E-03  1.65617997E-02
  6.57287894E-02  5.96935918E-03 -5.88912775E-02 -1.20854889E-02 -3.20902855E-02
  7.48915109E-04 -2.51229965E-02  1.00507563E-03 -2.81636675E-02 -1.17223048E-01
  5.25995792E-01  2.68405021E-01 -3.90339932E-03 -8.94662098E-03  2.77336170E+00
 -2.51042715E-02  2.42120936E-01 -2.29757961E-01  3.12220111E-02 -2.74725800E-03
  3.37472677E-01 -1.00777766E-03 -7.46638753E-02 -2.37703041E+00  6.71525234E-02
 -1.20881226E+00  2.07957368E-01 -7.60966538E-02 -2.34019829E+00  2.63614358E-02
  1.23593945E+00  2.10401388E-01 -1.39702095E-03 -5.09739923E-03  3.01589051E-02
  7.77675841E-02  1.29214283E-02  3.23558771E-02 -1.05414300E-01  3.76840162E-04
 -3.44821846E-02  5.68874627E-03 -2.15169581E-02  3.82993298E-02  4.49642469E-02
  7.40890111E-02 -1.30108657E-03 -4.74678154E-03  2.80740488E-02  7.71281830E-02
 -1.38532504E-02  3.24533921E-02 -1.06860506E-01  4.42808676E-03 -3.54413062E-02
  1.15200262E-03 -2.08334257E-02 -3.86603681E-02  4.36392690E-02 -7.56950159E-02
  2.83903869E-02  9.26641271E-02  5.21927465E-02 -3.81727342E-01 -1.21320418E-01
 -3.88671264E-02  1.12178711E+00  2.67755046E-01 -2.29969686E-01 -2.13489719E-01
 -3.85433083E-02  1.17905121E+00  2.43136365E-01  2.15473158E-01 -2.11269787E-01
  2.83662352E-02  9.57418768E-02  5.86477102E-02  3.73998940E-01 -1.27232193E-01
  6.49669700E-03  2.38312748E-02 -1.31580083E-01  1.42374545E-01 -1.82585621E-04
 -2.24609765E-02  1.02155490E+00 -6.39414996E-03  1.20394753E-01  7.05282584E-02
  6.14600336E-02  1.30166373E-04  2.38763535E-01  1.24298609E-05  1.61457786E-02
  6.37235360E-02 -4.89100056E-01  5.36317571E-02  3.23519906E-01 -5.22131621E-02
 -3.78541672E-01 -6.21512252E-02  1.82047786E-01  1.70591579E-01  5.87707544E-02
  1.90735301E-02  3.07338279E-01 -1.54991984E-01  1.69020630E-03  6.34514996E-03
 -4.35206742E-02 -2.11950458E-01 -1.28869019E-01  7.29261330E-02  2.51653981E-01
 -9.30772205E-01 -2.94043359E-01 -2.84203377E-02  7.35117752E-02  2.55586240E-03
 -4.23508816E-01  1.28756077E-02 -2.32827173E-02 -8.83230799E-02  6.09039332E-01
 -1.09664694E-01  4.68374915E-04 -2.57957789E-02 -5.92651581E-01  6.88599732E-03
  6.29019259E-02 -1.38623182E-01  6.48999589E-02  9.65512434E-05  8.56703808E-02
  1.08807817E-04  1.72327842E-03  6.47209368E-03 -4.43075570E-02 -2.12486309E-01
  1.28805181E-01  7.36712474E-02  2.41444344E-01  9.42177700E-01 -2.97177477E-01
 -2.84687426E-02  7.38666830E-02 -2.68655197E-03 -4.23567264E-01 -1.32600599E-02
  1.61333470E-02  6.36789712E-02 -4.88984779E-01  5.34671433E-02 -3.23510062E-01
 -5.30584306E-02 -3.90236480E-01  5.11803245E-02  1.84439226E-01  1.70544925E-01
  5.88459733E-02 -1.92612753E-02  3.07427276E-01  1.54334824E-01 -6.50563651E-03
 -2.13398267E-02 -7.64132283E-03 -5.57753426E-02 -1.84264657E-04  4.22477726E-02
  3.54004184E-01  4.62451936E-04 -1.10125974E-01 -9.36024929E-02 -6.08948045E-02
  5.06019780E-04 -1.69631421E-01 -1.50984090E-04 -5.55410116E-03 -2.15354658E-02
  8.12095793E-02  1.03680755E-01 -3.03710799E-04 -9.51616551E-03 -8.74174610E-02
 -2.23984843E-03 -9.09496460E-02  3.65857605E-02 -7.66040458E-02 -3.73103188E-04
  3.03900793E-01 -3.32500887E-04 -9.65554310E-02  1.28009267E-01 -1.06922554E-01
  3.54743729E-02  4.78668431E-02 -9.64245474E-02  1.33468225E-01 -1.07371064E-01
 -3.74402547E-02  4.82372865E-02 -8.62313328E-03 -3.14858030E-02  2.04999949E-01
 -2.33133953E-01 -3.08726977E-01  2.92116753E-02  2.83164998E-01  4.47022593E-01
 -3.15415280E-02 -4.09777456E-02 -1.16643540E-02  4.36853942E-02  4.31702408E-02
 -1.23116813E-01 -8.63084053E-03 -3.15122637E-02  2.05114029E-01 -2.33141954E-01
  3.08670193E-01  3.09259849E-02  2.83440936E-01 -4.47428964E-01 -3.45685546E-02
 -4.08574474E-02 -1.03229155E-02 -4.54808652E-02  4.32394965E-02  1.22965792E-01
  6.52120127E-03  7.89135395E-01  4.88895618E-01  7.07605679E-02  4.25255135E-02
 -2.59888683E-02 -8.73989053E-01  7.13338934E-01  4.56772870E-01  3.19914770E-02
 -2.58642530E-02 -8.75987971E-01  7.13845564E-01 -4.57933316E-01  3.30592955E-02
  6.45236983E-03  7.91511145E-01  4.89660104E-01 -7.03526217E-02  4.16113797E-02
 -2.16356696E-02 -8.47753650E-02  7.20580104E-01 -3.50393939E-01  5.42182773E-03
 -2.06541475E-02  6.65843529E-01 -1.41233346E-02  1.30160478E-01 -3.25239497E-01
  6.36502146E-02  6.95050101E-05  2.41772160E-01 -2.58470137E-03 -2.13993744E-03
 -5.46810941E-03 -1.18549265E-01  8.47284765E-02 -4.86464586E-02 -5.75036091E-02
  2.38042429E-01 -1.18338550E+00  2.35892355E-01 -4.24100019E-02  5.93441542E-02
  1.43725997E-02 -2.30355694E-01 -2.10614535E-01  8.54673291E-03  3.35140119E-02
 -2.30845741E-01  3.01720169E-01  4.81651950E-02  8.55646932E-02 -9.23614764E-01
  1.52195786E+00 -3.01451312E-01  1.68850440E-01  1.08151115E-01 -3.36456660E-03
 -1.59277060E-02 -1.40059376E-01  4.05743925E-03  1.29604486E-02 -1.25326277E-02
  4.70583481E-02  3.36926045E-03 -4.11059725E-02  2.20395725E+00 -7.06592976E-03
  2.59897111E-02 -1.10409960E-01  7.24895655E-02 -3.34961979E-04 -1.11719969E-01
  2.88183475E-04  8.93879106E-03  3.50686739E-02 -2.42569863E-01  2.99922752E-01
 -5.19660848E-02  8.56557347E-02 -9.45162882E-01 -1.52512917E+00 -3.02303271E-01
  1.74534231E-01  1.07723786E-01  3.55133324E-03 -1.61866140E-02  1.35413248E-01
 -1.86654205E-03 -4.41094864E-03 -1.25685394E-01  8.78772618E-02  4.95311500E-02
 -5.77273031E-02  2.41293322E-01  1.16905158E+00  2.36556185E-01 -3.79140815E-02
  6.00426764E-02 -1.41436991E-02 -2.34634485E-01  2.16464391E-01  1.42058215E-02
  5.48053393E-02 -2.15838903E-01  3.07566844E-02 -8.98075725E-04  4.96472062E-02
 -3.98567143E-02  1.14978020E-03 -1.37980087E-01  4.15344151E-02 -7.53951742E-02
  3.34904554E-04  1.91616169E-01  1.38170563E-04 -1.12730402E-02 -4.63323702E-02
  2.00260524E-01  5.92675200E-02 -6.13453970E-04 -1.86603011E-02  7.56002414E-01
 -2.74140891E-04  5.10160734E-02 -3.88058486E-02 -6.04370002E-02  4.06680578E-04
  5.55238029E-02 -9.24315927E-04 -2.67427772E-02 -6.58553008E-01  5.35388630E-02
 -4.43573663E-01  5.86880585E-02 -2.58163686E-02 -6.50485347E-01  5.44984739E-02
  4.38805808E-01  5.84332316E-02 -5.37258822E-03 -1.99984145E-02  1.29053721E-01
 -1.82828978E-01  2.47104640E-02  3.82568061E-02  4.61388817E-01  2.18663569E-02
 -4.27275469E-02  2.52576306E-01 -1.42350744E-02  5.64376683E-02 -2.08760823E-01
 -1.26206290E-01 -5.48138012E-03 -2.04020592E-02  1.31551845E-01 -1.83622122E-01
 -2.59447601E-02  3.77902465E-02  4.64563290E-01 -2.15516057E-02 -4.24111796E-02
  2.51170652E-01 -1.43910202E-02 -5.60388564E-02 -2.10486652E-01  1.27010702E-01
 -1.83272346E-02 -5.55775934E-01 -3.88620157E-01  3.08485905E-01  3.58870453E-02
  9.98128100E-03  9.98913274E-01 -1.34868789E-01 -9.47970015E-02  4.41648410E-04
  1.11999233E-02  1.02940829E+00 -1.26938337E-01  8.52214770E-02  6.12513477E-04
 -1.79873920E-02 -5.33767689E-01 -3.93794173E-01 -3.13198789E-01  3.55613616E-02
 -1.60969847E-04 -6.29250296E-04  5.14675660E-03 -2.71715120E-03 -6.53908390E-01
 -1.07942347E-03  3.07132920E-03  1.48512741E+00  4.70453326E-03 -2.59795625E-03
  2.12972395E-03 -6.81994240E-03  1.50929701E-03  2.39467271E-01  1.78512739E-02
  6.94136400E-02 -4.83892566E-01  1.79759864E-01 -4.73224482E-02 -2.55179428E-02
  5.11666585E-01  7.49028553E-01  1.30129272E-01  3.12851328E-01  1.88111022E-02
 -2.93492836E-02 -2.06068610E-01 -3.66146598E-01  2.12263933E-02  8.36324090E-02
 -6.16742594E-01 -9.66886993E-02  1.44998338E-01  3.70275748E-02 -1.04997115E+00
  4.27580623E-01 -2.06641597E-01  3.27769746E-01 -1.76535609E-02 -2.17301854E-02
 -5.47156228E-02  3.10060730E-01  3.21432597E-05  1.12086166E-04 -3.45981692E-04
 -7.57335336E-05 -4.52437900E-01 -1.44444429E-03  8.64602064E-03  1.01166435E+00
  3.11617994E-03 -2.71531626E-04  2.00319036E-03 -8.19156157E-03 -3.61842892E-04
 -6.37518221E-02 -2.10316364E-02 -8.28629712E-02  6.10841561E-01  1.00474924E-01
  1.43955648E-01 -3.19357070E-02  1.04087959E+00  4.14427630E-01  1.87536963E-01
 -3.25906902E-01  2.33187788E-02 -2.15228719E-02  5.53551144E-02  3.11596738E-01
 -1.79033250E-02 -6.95758419E-02  4.83040106E-01 -1.78749792E-01 -4.57594247E-02
  2.26944825E-02 -5.06165156E-01  7.61661895E-01 -1.18662487E-01 -3.13127725E-01
 -1.64950044E-02 -3.06219393E-02  2.01472913E-01 -3.64064632E-01  1.13092701E-04
  4.31579988E-04 -1.57074872E-03  2.03335206E-04  1.28465593E-01  1.21042240E-03
 -1.02077863E-03 -1.58419937E-01 -4.04280799E-03  4.43285205E-04 -2.29856836E-03
 -3.20275665E-02  1.61191804E-03 -1.01965409E-02 -4.81610831E-05 -1.92953341E-04
  7.51475231E-04 -1.92260346E-05  7.51374947E-02 -6.53529232E-04  2.72843967E-03
  2.00055810E-01 -7.02893738E-04 -3.26308831E-04 -2.15683919E-03 -7.54494233E-02
  5.59173821E-04  1.19348784E-01  7.31251785E-02  6.91873778E-01  2.04058072E-03
  3.49042028E-01 -7.83838730E-02 -7.36851109E-02 -6.95215189E-01 -2.04178721E-03
  3.52306040E-01  7.97984751E-02 -7.77687114E-03 -2.88966889E-02  1.80576705E-01
 -2.33573423E-02  4.75990142E-02  2.95534465E-02  1.68206873E-01  5.84447532E-02
 -5.85528604E-02 -9.40665138E-02  2.48557044E-02  2.88136330E-02 -7.81906764E-02
 -6.41636346E-02  7.72809932E-03  2.87135084E-02 -1.79407131E-01  2.13221109E-02
  4.64210258E-02 -2.69979574E-02 -1.62306883E-01  5.93125856E-02  5.54098753E-02
  9.76597747E-02 -2.52880891E-02  2.54903750E-02  7.51407292E-02 -6.23992466E-02
  2.25577753E-02  1.49208863E+00 -3.38178936E-01  3.01504175E-01 -6.29318685E-02
  6.02490076E-02  1.72786850E+00  5.49347493E-01  4.79817548E-01  6.13192741E-02
 -6.00522689E-02 -1.71687923E+00 -5.51709421E-01  4.80531697E-01 -5.90591694E-02
 -2.30076014E-02 -1.49886399E+00  3.32184916E-01  2.96979893E-01  6.68459902E-02
 -6.28715189E-04 -2.73376707E-03  5.99189175E-02 -4.96232532E-02 -3.31540378E-03
  1.24213397E-01  3.58589145E-01  9.84935059E-03 -6.50556570E-01 -2.24314286E-02
 -2.81837142E-01  1.25022470E-04  6.83885313E-02  1.14114143E-03  2.89822975E-04
  1.70141201E-03 -4.97584053E-02  1.21446971E-02  4.65777440E-02  1.93736402E-01
  1.50953935E-01 -2.70123000E-01 -8.08507051E-01  8.10473515E-03 -2.25697935E-01
 -7.97147638E-02  8.38287527E-02 -1.25550234E-01 -2.48783680E-03 -1.07712949E-02
  1.28788673E-01  8.38382191E-02 -1.00913388E-01 -3.34729863E-01 -3.42864194E-01
  6.61449508E-01  1.46642425E+00  2.70479727E-02 -3.89320535E-01  1.10985656E-02
 -9.81252308E-02 -3.27567277E-02 -2.24771069E-03 -9.33289144E-03  7.18740743E-02
 -2.80641890E-02 -2.33160382E-03  1.87597458E-01  1.34001370E+00  3.43168050E-04
 -5.82935597E-01 -7.99935227E-02 -2.70261344E-01 -1.46731172E-03 -5.16571319E-02
 -1.87782385E-04 -2.57821572E-03 -1.10963450E-02  1.30171038E-01  8.33239442E-02
  9.99209431E-02 -3.36901813E-01 -3.30020415E-01 -6.60746816E-01  1.47940328E+00
  2.47942287E-02 -3.91074043E-01 -1.12997736E-02 -9.73419267E-02  3.55401501E-02
  1.13520398E-04  1.01630819E-03 -4.50446537E-02  9.86473131E-03 -4.68797031E-02
  1.94870380E-01  1.46560210E-01  2.82137609E-01 -8.16856546E-01  4.79433273E-03
 -2.25703323E-01  7.81851219E-02  8.52919856E-02  1.21314865E-01  1.17477338E-03
  5.61143598E-03 -5.13778032E-02  1.30032448E-02  5.10919130E-04 -1.89350963E-01
  8.66784353E-02 -8.78991562E-04  5.52251860E-01 -2.72252136E-02  3.09824184E-01
 -8.68357485E-04  1.87898546E-03 -3.34161414E-05 -8.84906145E-03 -3.64801260E-02
  1.62548489E-01  7.64882124E-02 -8.24334250E-05  1.22080540E-01  4.11798727E-01
  3.08975417E-03  2.10180140E-01 -3.53341497E-02  2.85906200E-01 -1.16786353E-03
 -2.44358474E-02  2.85465742E-04 -8.99317836E-04 -5.75757732E-01  1.30813027E-01
 -2.09237256E-01  4.16724163E-03 -1.99832415E-03 -5.84249470E-01  1.31012367E-01
  2.13547037E-01  7.40255757E-03 -4.24436825E-03 -1.55211962E-02  9.91027018E-02
 -1.06359415E-01 -8.96956798E-02 -1.51253626E-01  1.99761252E-01  1.47284390E-01
  1.74731585E-01  4.77101203E-02  5.01373421E-02 -2.24760114E-01 -3.25003817E-02
 -6.47652821E-02 -4.15814242E-03 -1.52019016E-02  9.71359936E-02 -1.05832416E-01
  8.96080051E-02 -1.58757867E-01  1.97704899E-01 -1.45937906E-01  1.86060449E-01
  4.81689740E-02  4.56334437E-02  2.30377742E-01 -3.21194802E-02  6.39104255E-02
 -2.91368941E-03  1.11734053E-01  2.19024356E-02  1.15634840E-03 -1.96459128E-01
 -9.49220257E-03  1.49404120E-01  1.51481938E-01 -8.69752950E-02 -2.04589205E-01
 -9.65498559E-03  1.40573541E-01  1.43285556E-01  8.81128891E-02 -2.07749698E-01
 -3.57009455E-03  9.29486900E-02  2.51769502E-02  1.95029694E-03 -1.95097039E-01
 -7.71589933E-05 -3.05452756E-04  2.82130171E-03 -8.81041788E-04 -5.94115679E-02
  9.69015941E-04  2.27673290E-03  3.31564379E-01 -4.31520278E-03 -8.11057975E-04
 -2.59687211E-03 -8.13669144E-03  1.20670431E-03  2.38062650E-02 -2.05687683E-03
 -9.59781764E-03  1.28360639E-01 -7.96499029E-03 -7.19463986E-02  2.59081345E-02
 -6.30767836E-01  1.35113825E-01 -2.74003701E-01 -4.36439220E-02 -4.72529597E-02
  1.01179485E-01 -5.46499487E-02  4.46001259E-02  8.82944441E-03  3.60241687E-02
 -3.03147114E-01 -1.44226623E-01  1.50566063E-01 -8.11405141E-02 -3.46211374E-01
 -2.59290081E-01  5.84483086E-01  8.28157062E-02 -1.07969468E-01  1.26774661E-02
  4.11287655E-02  3.58081296E-02  3.61562304E-05  1.26277009E-04 -8.00251096E-04
 -1.38261033E-04 -2.25010274E-02  1.82016531E-03  1.44442425E-02 -2.39482644E-01
 -6.08275640E-03 -5.55112194E-04 -1.94060912E-03  1.88032659E-01 -9.61089187E-04
 -2.09256178E-02 -8.88279168E-03 -3.62621644E-02  3.06311680E-01  1.47484767E-01
  1.51990182E-01  7.54558277E-02  3.36665784E-01 -2.79400221E-01 -5.56265935E-01
 -8.15703106E-02  1.01820956E-01  1.30722522E-02 -4.13619528E-02  3.71708692E-02
  2.01816755E-03  9.45063750E-03 -1.27877980E-01  8.95983219E-03 -7.15078350E-02
 -2.24384916E-02  6.32387056E-01  1.46154165E-01  2.59454186E-01  4.27996375E-02
  4.30318910E-02  1.02992729E-01  5.41955454E-02  4.65564232E-02  3.32164866E-05
  1.27529703E-04 -4.80083921E-04  2.11236305E-04  1.96071103E-02 -1.84237630E-03
 -4.72602961E-04  1.95087260E-02  4.57797507E-03 -2.62178365E-04  2.36077497E-03
  1.46149591E-01  7.90790818E-04  1.82645587E-02 -8.35579664E-05 -3.45784031E-04
  1.55750096E-03  4.84291115E-04  7.89702812E-02  9.74760145E-04  3.71574728E-03
 -2.89796664E-02  2.03335872E-03 -1.54476970E-04  2.60533956E-03  1.41052922E-01
 -8.20479620E-04  5.79808337E-02 -2.00858321E-02  2.61212540E-01  1.23904565E-01
  2.21719879E-01  1.55300972E-01  2.04900409E-02 -2.72148246E-01 -1.20732513E-01
  2.26392801E-01 -1.55151522E-01  1.10324334E-03  3.94981098E-03 -2.34025689E-02
  3.79432820E-02  4.37797342E-02 -4.10670840E-01 -4.32048544E-02 -6.29988604E-02
  6.46812561E-01  1.13121999E-02 -2.61729365E-01 -3.01408925E-01 -1.43985562E-02
  1.55143066E-02 -1.11136150E-03 -3.97655437E-03  2.34922549E-02 -3.88360355E-02
  4.39529312E-02  4.08635414E-01  4.59849310E-02 -6.32978134E-02 -6.44676556E-01
 -9.44229043E-03  2.62777640E-01 -2.97817760E-01  1.33770338E-02  1.68000020E-02
 -1.33966669E-02 -3.28923295E-01  3.07456429E-02 -9.73916747E-02 -3.45092989E-02
  4.34671767E-02  4.95095597E-01 -5.67673383E-02  2.67520307E-01 -7.93632951E-02
 -4.35609433E-02 -4.86550585E-01  5.60656271E-02  2.71827127E-01  7.40973739E-02
  1.35388139E-02  3.23839870E-01 -3.35530142E-02 -9.93496830E-02  2.98730037E-02
 -2.49677842E-05 -1.05335980E-04  1.07429930E-03 -3.75763673E-05 -1.00841945E-02
 -1.18333970E-04 -2.06951904E-03 -5.92039073E-01 -4.94063285E-04 -2.50831388E-04
 -3.64945929E-04  1.67418933E-02  1.45604137E-04 -1.33301578E-03  1.04073491E-02
  4.54116510E-02 -5.06618815E-01  7.89899822E-02  2.03749881E-01 -4.12299705E-02
  1.99613281E+00 -4.19199295E-01  1.64701886E-01  2.02252064E-01  1.71717875E-02
  5.22919147E-03  6.16632651E-02 -2.47405370E-01 -2.05710827E-02 -8.46260776E-02
  7.34615029E-01  4.22911130E-01 -3.71882548E-01  2.56354800E-02  7.46418725E-01
  9.99482798E-01 -7.54477901E-02 -1.89176827E-01 -7.74915683E-02 -7.37970076E-03
 -1.21262926E-01 -3.80422835E-02  1.28730532E-05  4.73077631E-05 -3.32619935E-04
 -8.95645620E-05 -3.58152201E-02 -1.16613486E-05  7.20411704E-04  1.03055514E+00
  4.92367234E-04  1.15670014E-04 -4.50159329E-04  1.02802673E-01  7.97886947E-05
  7.83527136E-02  2.05911095E-02  8.47031827E-02 -7.35147218E-01 -4.22863069E-01
 -3.72120635E-01 -2.66915166E-02 -7.45751601E-01  9.97841914E-01  7.94722286E-02
  1.89291600E-01  7.57157207E-02 -7.64229558E-03  1.22125139E-01 -3.80265551E-02
 -1.04160854E-02 -4.54497033E-02  5.07119218E-01 -7.84572039E-02  2.03749224E-01
  4.23532094E-02 -1.99570207E+00 -4.17315497E-01 -1.68931675E-01 -2.02070416E-01
 -1.83863528E-02  5.43104174E-03 -6.28995733E-02 -2.47990768E-01  1.29351192E-06
 -1.27983898E-06  1.69466273E-04  9.88880113E-05 -3.59037433E-02 -4.40548909E-04
 -7.29040182E-04 -7.33206594E-02  8.93110633E-04  1.03520385E-05  3.97764809E-04
  3.71005855E-02  3.39515356E-04 -4.69106667E-02  5.28611289E-06  2.17162617E-05
 -9.76589220E-05 -9.74670806E-05 -1.58121148E-01  2.79746103E-04 -1.08818967E-04
  2.52775740E-01  6.87737834E-05  1.25747950E-06  3.96036508E-04 -3.10637186E-02
 -5.06247266E-04 -1.70248083E-01  9.31857531E-02 -3.16792529E-01 -5.24353947E-01
 -5.07569313E-01  3.09011398E-02 -9.30324894E-02  3.16294354E-01  5.24602863E-01
 -5.08129935E-01 -3.16577234E-02 -5.09566939E-03 -1.85652261E-02  1.14379782E-01
 -1.29160877E-01 -1.02843238E-01 -1.46612397E-01  1.86848933E-01  1.84457352E-01
  2.25791737E-01 -6.25541429E-02 -9.33938393E-02 -1.00342636E-01  8.80663123E-04
 -6.52733694E-02  5.13996295E-03  1.87292474E-02 -1.15482518E-01  1.30012871E-01
 -1.03591121E-01  1.46633801E-01 -1.87992172E-01  1.85919373E-01 -2.26024060E-01
  6.26967623E-02  9.38403400E-02 -9.96770283E-02 -7.96069760E-04 -6.53682922E-02
  3.87836656E-02  1.23000723E+00 -2.45715250E-01  4.41223805E-01 -1.22389038E-01
 -1.12447733E-01 -9.36517181E-01  2.35684590E-01 -6.60435200E-01  4.36974321E-02
  1.12536176E-01  9.38492667E-01 -2.36915949E-01 -6.60195118E-01 -4.34301453E-02
 -3.85965532E-02 -1.23099691E+00  2.45588451E-01  4.40327594E-01  1.23068800E-01
 -2.12667014E-02 -8.46469559E-02  7.41459150E-01  1.14665299E-01  1.08012138E-03
  3.29940389E-02 -3.16824511E-01  2.09389456E-02 -2.27115624E-01  1.92776322E-03
 -5.06761307E-02 -1.14594976E-05  2.13211959E-01 -8.63668682E-04  2.18056804E-02
  8.63663288E-02 -7.23038267E-01  1.16174144E-01  2.14909167E-01  3.82048780E-03
 -7.04652504E-01 -1.36685478E+00 -2.79518123E-02 -9.70032143E-02 -1.53561257E-02
  5.33761566E-03 -2.52157723E-01  4.09306699E-02  5.49605287E-03  2.70504558E-02
 -3.56400865E-01 -1.53311034E-01  4.69363342E-01 -4.60717315E-02 -1.30990244E+00
  1.51008437E+00  3.52890650E-01  3.65926961E-01 -4.00925187E-02  1.50820394E-02
 -1.72024503E-01 -2.23523485E-02 -4.35743733E-03 -2.05693999E-02  2.85426971E-01
  3.62341040E-01 -1.99198638E-03  3.43135166E-02  2.16226136E+00 -2.32999592E-02
 -3.92057504E-01 -2.34487101E-01 -3.37804158E-04 -5.03402215E-04 -3.63671421E-02
 -2.88130163E-03  5.43574286E-03  2.67974064E-02 -3.53642630E-01 -1.49625399E-01
 -4.72128747E-01 -4.66791035E-02 -1.26465037E+00 -1.51992711E+00  3.56851163E-01
  3.63502185E-01 -4.02696581E-02 -1.54821597E-02 -1.70275897E-01  2.73579895E-02
  2.18378928E-02  8.65118432E-02 -7.24514395E-01  1.19858420E-01 -2.17470028E-01
  3.91757287E-03 -6.65983299E-01  1.40664901E+00 -3.06170433E-02 -9.83877631E-02
 -1.51768474E-02 -5.39418367E-03 -2.56827750E-01 -3.95424069E-02  2.05040376E-03
  6.61426364E-03  1.69667560E-02 -1.37641925E-01 -3.05162592E-04 -6.95361907E-03
  6.52839142E-02 -5.93810208E-04  8.01952379E-02  3.27231191E-02  6.62619635E-02
  2.72864202E-04  1.62920973E-02 -9.77575949E-05 -3.72976535E-03 -1.73177120E-02
  1.00523381E-01  2.21205780E-01  9.28785753E-04  6.12597204E-02  1.17904067E+00
  1.04287836E-02 -8.81612132E-03  4.03555351E-02 -3.13787098E-02 -4.24537864E-04
  3.01351277E-01  9.97592569E-04 -6.90011173E-02 -6.35461934E-01 -1.38845622E-01
 -6.30433532E-01  1.47113650E-01 -6.91729039E-02 -6.58595243E-01 -1.37343185E-01
  6.38311557E-01  1.49997428E-01  6.76721788E-03  2.46264273E-02 -1.53598506E-01
  1.07016621E-01  1.50951460E-01 -4.24463256E-02 -2.82500156E-01 -2.39753251E-01
  6.56544717E-02 -5.72048855E-03  3.32190673E-03 -5.40822691E-02  2.30451430E-03
  9.16726107E-02  6.89689382E-03  2.51087289E-02 -1.56784004E-01  1.07966963E-01
 -1.53669802E-01 -4.27345912E-02 -2.84891089E-01  2.44188497E-01  6.57162574E-02
 -4.96363285E-03  3.26273105E-03  5.41886415E-02  1.71489403E-03 -9.19324583E-02
  4.09595127E-02 -6.21810604E-01  6.07711839E-02  5.38127168E-01 -4.29093850E-02
  1.45269510E-02  2.13833449E+00 -2.01446336E-01  6.00030214E-01 -1.23609312E-01
  1.40251736E-02  2.12240626E+00 -2.06802563E-01 -5.98727192E-01 -1.25261101E-01
  4.14362029E-02 -6.28455349E-01  5.46707787E-02 -5.49847665E-01 -4.16406536E-02
  1.52384465E-04  5.98789075E-04 -5.01616053E-03 -4.62267997E-04  2.77239501E-01
 -8.68778777E-05  1.41549321E-05  2.28400261E+00  1.44296491E-03  4.01957100E-07
  4.54103210E-04 -1.27483683E-02 -1.27460123E-03 -1.64979765E-01 -3.94487237E-03
 -1.63495075E-02  1.20908176E-01 -3.14180035E-01 -2.05691998E-01 -7.64004437E-03
 -2.31128097E+00  3.00217730E+00  5.43565387E-02  1.36503164E-01  9.02668773E-03
 -2.15858017E-02  4.50975317E-01  1.15673635E-01  1.01003317E-03  4.59703626E-03
 -9.29283054E-02 -2.55083832E-01 -3.27018202E-01  1.43851112E-02 -2.81297478E+00
 -2.35128278E-01 -1.03716757E-01  1.55353481E-01 -1.88643055E-02 -2.75059597E-02
 -1.26646931E-01  3.97024549E-01  1.58866091E-05  8.65651732E-05 -1.52430149E-03
 -2.27688579E-03 -2.73876938E-01 -1.45210439E-04 -1.45212050E-02 -2.98773135E+00
  1.51589210E-03  1.48466892E-03  2.00998877E-04 -1.17153187E-02  8.68664783E-06
 -5.09278983E-01 -1.07088586E-03 -4.89888804E-03  9.68283272E-02  2.56623748E-01
 -3.21093142E-01 -1.39338282E-02  2.82797555E+00 -2.16706968E-01  9.89563620E-02
 -1.59635121E-01  1.96234465E-02 -2.74230345E-02  1.28153990E-01  3.96730174E-01
  3.68848902E-03  1.53286831E-02 -1.12147041E-01  3.12612539E-01 -2.04011387E-01
  7.05701661E-03  2.31991844E+00  2.98242980E+00 -5.27774697E-02 -1.35294037E-01
 -8.32635584E-03 -2.15837749E-02 -4.47023068E-01  1.16142196E-01 -1.83671072E-05
 -6.47252668E-05  4.72750700E-05  7.64013092E-04 -1.95313309E-02  4.82809451E-05
 -1.21004677E-03 -4.99756975E-02 -4.51899135E-04 -1.22112396E-04 -4.23546038E-04
 -1.08158295E-02 -2.61301667E-04 -9.26518344E-03  8.03040263E-06  4.77838664E-05
 -3.93624555E-04 -1.19576476E-03  1.66579289E-01 -3.09709686E-04 -6.88413802E-03
  1.91532060E+00  5.82243643E-04 -3.09528670E-04 -1.40808247E-05 -1.38303444E-03
 -1.33551392E-03  1.65286567E-01  2.56948779E-02  2.05176677E+00 -1.67752243E-01
  6.88525155E-01 -1.58173008E-01 -2.51680196E-02 -2.04301005E+00  1.69421668E-01
  6.80611590E-01  1.57683609E-01 -1.08879625E-02 -4.05955130E-02  2.70494206E-01
 -4.63519439E-02 -2.27064388E-01 -1.60845044E-02  1.68235030E-01  3.67341090E-01
  1.65181999E-02 -7.88882136E-02 -6.43212956E-03 -5.52900459E-03  7.91225381E-02
 -2.12720117E-02  1.08359525E-02  4.04114601E-02 -2.69464678E-01  4.55276847E-02
 -2.25578494E-01  1.67996507E-02 -1.65698409E-01  3.65723808E-01 -1.78410851E-02
  7.82777031E-02  6.37614055E-03 -6.19030556E-03 -7.87520073E-02 -2.02503361E-02
 -4.16246163E-02  6.41205147E-01  5.88442861E-01 -1.07024380E+00 -5.18918600E-02
  2.69963203E-02  1.09823582E+00  4.14510185E-01 -1.03971760E-01  3.30271603E-02
 -2.73012463E-02 -1.12418437E+00 -4.11429321E-01 -9.71161418E-02 -3.16063788E-02
  4.11346842E-02 -6.32272988E-01 -5.86455583E-01 -1.06246702E+00  5.29235792E-02
 -1.72463921E-02 -6.42809297E-02  4.38888531E-01  5.74984316E-01 -7.87682588E-04
 -9.88298483E-03  1.42422661E+00 -2.41947080E-02  1.55330883E-01  1.94913231E-01
  1.61945246E-02 -9.53573660E-05  3.15209086E-01 -1.15765290E-03  7.14559832E-03
  2.16949836E-02 -1.11097545E-02  1.12967814E-02 -3.79768756E-01  9.14680359E-03
 -2.34941000E+00 -2.68882969E+00 -6.05483367E-02 -4.63301510E-01 -1.61591483E-03
 -2.49649109E-02 -5.02938955E-02 -1.14501168E-01 -1.49234095E-02 -5.63534743E-02
  4.37450620E-01 -5.90498646E-02  2.72501428E-01  1.25376346E-02 -1.76047927E+00
  3.01449473E+00 -1.52952444E-01  4.57018600E-01 -4.59233922E-03 -4.92538751E-03
  2.61561864E-01  3.22124853E-02  3.21181321E-02  1.23902067E-01 -1.02724982E+00
  1.36091369E-01 -3.39607691E-03 -9.91899284E-03  1.41673419E+00  2.50548842E-02
  2.52610612E-01 -1.46534693E-02 -2.69240847E-02  2.79278771E-05 -1.78727558E-01
 -2.91846774E-03 -1.47927323E-02 -5.57663276E-02  4.30562297E-01 -5.68126533E-02
 -2.78979982E-01  1.20584420E-02 -1.81129012E+00 -2.96682453E+00 -1.50605258E-01
  4.55269825E-01 -4.08058514E-03  4.23281529E-03  2.67943970E-01 -3.17745167E-02
  6.76661144E-03  2.02119847E-02 -6.82607278E-04  8.19354037E-03  3.84728787E-01
  9.81675230E-03 -2.39717908E+00  2.64698641E+00 -6.11791527E-02 -4.66210498E-01
 -1.93005405E-03  2.45365288E-02 -5.45162757E-02  1.12732193E-01 -9.35310333E-03
 -3.37478775E-02  7.91636226E-02  3.98083230E-03  2.32088785E-03 -2.77945830E-02
  5.03983564E-01 -3.34567619E-03  6.26990962E-03 -1.46846452E-01 -3.73212728E-02
 -5.90709159E-05 -9.84438827E-02 -2.12977929E-03 -6.86438358E-03 -2.72727878E-02
  1.05381359E-01 -5.60530571E-02  8.80131456E-04 -3.55536494E-02  1.95796311E-01
  1.02262839E-02  1.84831841E-01 -8.50152403E-02  1.28675934E-01 -6.16267205E-05
 -2.38535394E-01  7.48079459E-04  2.09462441E-02 -3.49172342E-01  2.25117924E-01
 -8.44592428E-02 -1.06739838E-01  1.96097173E-02 -3.76177868E-01  2.28578039E-01
  9.44094112E-02 -1.04654837E-01 -2.11746671E-03 -7.83562579E-03  6.16442627E-02
 -1.40090401E-01 -1.90857365E-01  3.56568320E-02  5.65869323E-02  3.87827213E-01
 -6.85178416E-02 -9.01737636E-02  2.30989071E-03  3.80751813E-02  3.58477595E-02
 -9.58273031E-02 -2.43034850E-03 -9.00326625E-03  6.97210906E-02 -1.51961297E-01
  1.94590856E-01  3.54108667E-02  7.58052949E-02 -3.95532258E-01 -6.83336614E-02
 -9.10011531E-02  2.15941110E-03 -3.84341393E-02  2.81083080E-02  9.93940931E-02
 -4.34537909E-02 -2.94476790E+00  4.97586425E-02 -3.16436583E-01  2.83288591E-02
 -1.75428238E-02  3.03350025E+00 -1.24906785E-01  3.68093371E-02  6.85482712E-02
 -1.70018202E-02  3.03353077E+00 -1.29028895E-01 -4.39999092E-02  6.72313428E-02
 -4.62872727E-02 -2.95635181E+00  5.13410198E-02  3.24591147E-01  3.11697435E-02
  2.56070061E-04  9.68165947E-04 -7.16701384E-03 -7.11688670E-03 -5.14931518E-02
  1.19478557E-04 -1.96039729E-02 -1.81369485E+00 -4.08937336E-03 -2.09816020E-03
 -2.58829627E-04 -6.15330583E-04 -4.48452421E-03 -1.02207638E-01  1.37158803E-02
  5.41601346E-02 -3.96873173E-01  1.23657814E-01  1.80969741E-01 -1.11098734E-02
  1.86255443E+00 -1.60698485E+00  9.19072968E-02  1.12664439E-01  1.10329331E-02
 -1.78542077E-02  1.59111930E-01 -8.15974283E-02 -4.31639387E-03 -1.92466334E-02
  2.19037000E-01 -7.52543253E-02 -2.25519785E-01  1.43842907E-02  1.98021382E+00
  1.84861923E+00 -1.23331164E-01  5.66340298E-02 -1.13489499E-02 -1.81694428E-02
 -2.02948561E-01  5.73080670E-03 -4.39023070E-04 -1.69784022E-03  1.43657985E-02
 -1.10821137E-03 -2.05406470E-01  1.39711664E-04 -1.94720451E-02  1.99913288E+00
 -4.74808730E-03 -1.47913283E-05  7.74101598E-04 -1.42128095E-02  2.67711630E-03
 -2.00155982E-01  4.72235914E-03  2.08038491E-02 -2.32011617E-01  7.56173616E-02
 -2.19681859E-01 -1.45877848E-02 -1.93232216E+00  1.93208548E+00  1.27955429E-01
 -6.84820647E-02  1.17718490E-02 -1.83568335E-02  1.96031144E-01  5.60867893E-03
 -1.39028607E-02 -5.47410149E-02  3.97773893E-01 -1.25034987E-01  1.72217344E-01
  1.06076337E-02 -1.80176759E+00 -1.68101300E+00 -8.73998338E-02 -1.00884340E-01
 -1.06081862E-02 -1.88245926E-02 -1.57541156E-01 -8.52694697E-02  1.08307005E-04
  3.88153587E-04 -8.69801655E-04  4.74162508E-05  1.93894420E-01  9.63697465E-04
 -6.49248094E-03 -3.10186021E-01 -6.36922020E-04  1.88064619E-03  9.88832914E-04
 -2.90487228E-03  1.35656084E-03 -1.52722231E-01  1.14830259E-04  4.57043855E-04
 -1.80008392E-03  8.45897150E-04  5.25097383E-02  6.00692138E-04 -1.05947561E-03
  6.46482770E-01 -2.87385539E-03  1.16197768E-03 -2.50818887E-03 -4.23783707E-02
  3.85921877E-03  4.59896246E-02  4.08790942E-02  8.55141146E-01 -1.07218842E-01
  3.11100048E-01 -9.03132385E-02 -4.17564930E-02 -8.44800509E-01  9.97488298E-02
  3.09169814E-01  9.47861736E-02  1.16501570E-02  4.34590426E-02 -3.01120957E-01
  4.61516926E-01  1.63648042E-01 -1.04511547E-02 -7.32133465E-01 -3.17328097E-01
  1.48560315E-02  1.64354501E-03 -7.57326534E-03 -3.53373291E-03  3.00414680E-01
  1.30704961E-01 -1.15908945E-02 -4.32389949E-02  2.99392976E-01 -4.57995307E-01
  1.58299783E-01  8.26735266E-03  7.30856481E-01 -3.06392797E-01 -1.04375028E-02
  1.31683366E-04  7.22641447E-03 -1.78658828E-03 -3.01301970E-01  1.27785734E-01
  9.82521313E-02  4.84177040E-01 -5.10441357E-04  2.96789595E-01 -5.06434360E-02
 -2.34573939E-02  4.02875309E-02  1.24408186E-01 -2.61636571E-01  3.20388333E-02
  2.39591377E-02 -1.18892865E-01 -1.21690236E-01 -2.62917347E-01 -3.43939162E-02
 -9.74113453E-02 -4.06714542E-01 -1.21792354E-04  2.90581340E-01  4.96904419E-02
 -3.06472269E-03 -1.35536562E-02  1.91005421E-01 -8.51810343E-02  2.28314975E-04
 -2.29510748E-02 -1.46144229E-01 -4.66900556E-03  1.10598649E+00 -2.78039483E-02
  8.72640584E-02 -4.50575740E-05  9.88817880E-02  2.60799703E-04  7.10679115E-04
  4.55311297E-03 -9.49336187E-02  2.02003959E-01  2.81221544E-01  9.20724211E-02
  2.88085538E-01 -3.94046336E-01 -1.14197368E+00  4.86046801E-02  4.44466672E-02
 -1.69725325E-01  6.09045549E-02 -1.68085942E-01  4.36546666E-04 -4.61689695E-04
  1.10777798E-01  8.54032814E-02 -1.14292146E-01 -3.66738372E-02 -7.23773069E-03
  1.01329075E+00 -2.57456550E-01  6.52383550E-02 -2.50539951E-01 -1.96277960E-03
 -8.44718679E-02 -1.62792462E-01  6.23524650E-03  2.49073580E-02 -3.00150514E-01
 -2.86233251E-01  3.76730544E-04 -5.93697309E-02  1.79436152E+00  3.67661053E-03
  1.05222118E+00  4.47762918E-02 -2.78228303E-01 -5.35892930E-04 -6.76960671E-02
 -3.72164436E-05  3.92557206E-04 -6.43564642E-04  1.12563766E-01  8.47048882E-02
  1.14485162E-01 -3.69891672E-02 -1.46232815E-02 -1.00587259E+00 -2.55513942E-01
  6.49245990E-02 -2.51132651E-01  1.16283241E-03 -8.54546263E-02  1.62861386E-01
  7.05300398E-04  4.51757155E-03 -9.41086572E-02  2.01213242E-01 -2.81822987E-01
  9.15957853E-02  2.78263831E-01  3.94100953E-01 -1.14289553E+00  4.81653681E-02
  4.44211950E-02  1.68094944E-01  6.20511143E-02  1.67248383E-01  2.32964363E-03
  8.75122929E-03 -2.28155102E-02 -1.09579182E-01  4.19089655E-04 -3.88605046E-01
  1.90089563E-02 -1.16623361E-03  5.37139579E-01  2.35706856E-02 -1.81584840E-01
 -1.39328795E-04 -3.68968467E-02 -8.19248475E-04 -1.95996012E-02 -7.92667176E-02
  3.39497941E-01  9.56883349E-02 -5.73358181E-05 -2.06129419E-02 -1.06938357E-01
 -1.08094513E-03  3.89601283E-01 -1.65050530E-01  3.88981629E-01 -2.05645094E-04
 -2.78647764E-01 -3.48853357E-07  1.13391308E-02 -7.52124153E-01  4.79328550E-01
 -1.02098392E-01 -2.55056679E-01  1.14181306E-02 -7.50252573E-01  4.79742060E-01
  1.00378491E-01 -2.54070281E-01  2.05792670E-03  7.74082365E-03 -5.30091888E-02
  4.30760336E-02  4.94769776E-02  2.52082337E-01 -1.22933019E-01 -9.88805435E-02
 -5.82460801E-01  1.11270435E-02  6.62855372E-02  2.28435278E-01  2.30848623E-02
  5.81498071E-02  1.97728545E-03  7.43469674E-03 -5.07804987E-02  4.07687955E-02
 -4.87610537E-02  2.51482146E-01 -1.18610325E-01  9.72436816E-02 -5.81510106E-01
  1.11092704E-02  6.58940846E-02 -2.28107692E-01  2.11869885E-02 -5.76756310E-02
  4.49051381E-02  6.37102868E-01  1.60412710E-01  3.19263527E-01  3.66606096E-01
 -1.04965944E-02  1.94988120E-01  1.34566483E-02 -1.97445786E-01  2.56907325E-01
 -1.06100820E-02  1.92160756E-01  1.64312490E-02  1.95788379E-01  2.57487482E-01
  4.50094590E-02  6.33384283E-01  1.62090979E-01 -3.19410822E-01  3.66661083E-01
 -6.02479203E-03 -2.51113423E-02  2.89131797E-01 -4.19470597E-02 -4.21548871E-04
 -1.03825909E-02  2.17643597E-01  4.39198737E-04 -7.10570528E-01 -3.56182791E-02
 -5.40934181E-02 -9.32447254E-04  2.05061427E-01 -2.20633061E-03 -4.60065198E-04
 -9.15210193E-04 -2.43122806E-02  2.77095909E-01  2.81062706E-01 -6.90540965E-02
 -1.60768280E-01 -9.56676293E-01  1.09229974E+00 -5.43957437E-03 -7.92343542E-02
  9.56559806E-02  8.98787928E-02 -2.51660725E-01 -1.55186520E-03 -9.46167239E-03
  2.37901701E-01  1.15739862E-01 -2.02802244E-01  8.76439254E-02  7.31804319E-03
  1.45559468E+00 -3.83956121E-01  1.15540368E-01  2.26741371E-01 -3.86758564E-02
 -2.11382695E-02 -2.44016281E-01  1.56176145E-02  6.32350331E-02 -7.09594584E-01
 -4.29485496E-01 -2.07712383E-03  4.62397496E-02  1.51099134E+00  2.85775344E-03
 -3.42339126E-03  1.19597475E-01  1.94600004E-01  8.57278356E-04 -1.21659082E-01
  2.92552018E-04 -1.45182843E-03 -9.00855126E-03  2.31868551E-01  1.17891122E-01
  2.02129058E-01  8.85258163E-02  4.23257542E-05 -1.47169680E+00 -3.93865405E-01
  1.16526168E-01  2.28285034E-01  3.75567088E-02 -1.71590068E-02  2.43503044E-01
 -4.71067360E-04 -9.14597030E-04 -2.64291771E-02  2.77361847E-01 -2.78539795E-01
 -7.00985707E-02 -1.59146235E-01  9.37736246E-01  1.10249578E+00 -4.87684357E-03
 -7.91867125E-02 -9.56973971E-02  8.80509241E-02  2.54308390E-01  1.66834403E-03
  6.58917287E-03 -2.01457648E-02 -1.55175938E-01 -5.30657934E-04  3.68040595E-01
  1.04899141E-01 -3.22342988E-05 -6.45412648E-01  1.25351201E-02  8.85316811E-02
 -1.02847356E-03 -7.84960688E-02 -1.16671925E-04 -2.52183435E-02 -1.01075226E-01
  4.22584043E-01  3.62338289E-02  3.78828403E-05 -1.28749583E-01 -5.59584701E-01
  2.49998833E-03  3.47838343E-01 -2.67799041E-01  1.08372017E-01  9.59656731E-04
 -4.13002552E-01  2.95033276E-04  2.28484671E-02 -5.77577255E-01  6.10239425E-01
  7.85797457E-02 -1.86998052E-01  2.20923217E-02 -5.85455869E-01  6.08534363E-01
 -7.16558759E-02 -1.88238532E-01  1.97165652E-03  7.44690028E-03 -4.98445902E-02
  2.77939449E-02  2.16590736E-02 -1.76341763E-01 -1.42695359E-01 -4.29310344E-02
  4.60167614E-01  4.63032814E-03 -7.41746008E-02 -1.38249224E-01  3.99282198E-02
  6.40447333E-02  2.01791784E-03  7.62501416E-03 -5.12025800E-02  2.81806268E-02
 -2.29085195E-02 -1.75921952E-01 -1.43329273E-01  4.50098826E-02  4.60904812E-01
  5.07129770E-03 -7.54869100E-02  1.38215083E-01  3.98576134E-02 -6.38937824E-02
  5.28403125E-02  2.80282272E-01  2.40800473E-01  3.20420511E-01 -3.67248124E-01
 -2.16273342E-02  3.17133679E-01  4.72962919E-02 -3.47203259E-01  3.14126176E-02
 -2.19520631E-02  3.33324649E-01  3.76150947E-02  3.51951748E-01  3.43551564E-02
  5.22176474E-02  2.90658474E-01  2.40084126E-01 -3.17425457E-01 -3.69473231E-01
  3.08535637E-05  1.20129260E-04 -1.12929602E-03  2.90463589E-05  1.14447265E-01
  1.25912200E-04 -2.06381330E-03 -3.14190634E+00  2.18409550E-03 -2.69863567E-04
  2.18796996E-04 -3.14262909E-02 -7.87046260E-04 -4.86670098E-01 -5.44810498E-03
 -2.61238809E-02  4.13587443E-01 -1.16641128E-01  2.83170843E-01  4.98957554E-03
  2.44789050E+00 -2.34222989E+00 -4.22689770E-02 -1.16254458E-01  1.32486376E-02
 -3.85876078E-02  2.19703623E-01  4.91009971E-01 -7.13802061E-03 -3.44683582E-02
  5.49472790E-01 -2.28339028E-01 -9.54180855E-03  3.31468113E-03  3.15374372E+00
 -2.04537774E+00 -4.72160469E-02 -1.44142271E-01 -3.01672815E-02 -5.20027893E-02
 -4.83643602E-01  5.48242542E-02 -8.07241455E-05 -3.23604652E-04  3.27720896E-03
  8.67667637E-04 -5.86951136E-01 -6.30325424E-04 -6.38963755E-03  3.77902707E+00
  3.60820495E-03 -5.55709736E-04 -1.50245353E-03 -2.34395219E-02  6.96532476E-04
  4.80707483E-02  7.16298280E-03  3.45714302E-02 -5.50905225E-01  2.27655601E-01
 -9.51084717E-03 -3.76469003E-03 -3.15131274E+00 -2.02951689E+00  4.37632706E-02
  1.43027930E-01  2.67842517E-02 -5.29308751E-02  4.82999556E-01  5.35856216E-02
  5.44074989E-03  2.60842323E-02 -4.12809026E-01  1.15092980E-01  2.84628753E-01
 -4.64998417E-03 -2.44630731E+00 -2.35086595E+00  3.29706302E-02  1.16953486E-01
 -1.11505100E-02 -3.76153800E-02 -2.19711213E-01  4.89314162E-01 -7.56372963E-06
 -2.99061193E-05  1.16182838E-04  5.18284083E-04 -1.48614654E-01 -1.85893497E-03
 -7.44658177E-04  1.64103739E-01  3.75703886E-03  7.13964411E-05 -2.53605814E-04
 -3.46317699E-02  2.84158494E-04 -1.56260378E-02  6.66473606E-05  2.69620050E-04
 -1.14552241E-03 -2.05017357E-04 -4.13856490E-02  6.49043546E-04  1.52176972E-03
  9.58193472E-02 -1.45786921E-03  7.36078288E-04 -5.79622565E-04 -1.11456509E-01
  1.76413822E-03  6.76755995E-02  8.98650604E-02  5.04015166E-01  2.56638905E-01
  6.62580969E-01 -7.95033611E-02 -9.03173076E-02 -4.99522530E-01 -2.60677342E-01
  6.62417467E-01  8.17277956E-02 -1.56038418E-03 -5.81124997E-03  4.59613442E-02
 -6.78698856E-02 -1.71500738E-01 -1.52915848E-02  4.79418817E-02  2.50153256E-01
  7.04428373E-04  5.82702932E-02  6.77910925E-03  6.33918900E-04  2.50981081E-02
  2.34367467E-02  1.56567366E-03  5.83310003E-03 -4.61941144E-02  6.80192805E-02
 -1.71478010E-01  1.71533328E-02 -4.74749615E-02  2.50434876E-01 -5.52675944E-03
 -5.83877358E-02 -6.19588286E-03 -6.92053122E-04 -2.51582785E-02  2.37395249E-02
  3.93244150E-02 -1.00421493E+00 -1.44078084E-01  2.41505020E-01 -3.49823802E-02
  5.24122025E-02 -2.48587231E+00  1.04504604E+00  7.04708081E-01 -2.82125101E-03
 -5.22953918E-02  2.47830868E+00 -1.04244025E+00  7.02191250E-01  5.10656437E-03
 -3.96014762E-02  1.00606044E+00  1.42925193E-01  2.43301862E-01  3.85726250E-02
 -1.56688973E-04 -6.33173553E-04  5.93170876E-03 -1.12581171E-03  5.56043585E-02
 -3.33022911E-06  1.25834302E-02 -8.64560323E-01  1.57233384E-03 -6.88752959E-04
  8.53206384E-04  4.37924295E-01  5.00437477E-03  3.13007959E-02 -2.56205492E-03
 -1.01822476E-02  7.76369674E-02  5.16354418E-03 -1.49804852E-02 -2.42687099E-01
  6.68748213E-01  1.79599420E-01  2.79369518E+00 -2.39315883E-02 -1.08103465E-03
  9.38655491E-02 -2.06786973E-02  5.36056616E-02  2.68828722E-03  1.07488936E-02
 -8.46541876E-02  4.07775013E-03  2.43577926E-02  2.13828765E-01  7.02907632E-01
 -2.32298619E-01 -2.54557071E+00  1.70253793E-02  3.86484287E-01  3.09954077E-01
  1.02100668E-02  2.58784931E-02  9.16632291E-05  3.92023297E-04 -4.73551981E-03
  1.43119449E-03 -2.83140734E-02  2.17183925E-05 -4.37827439E-02  7.98464469E-01
  1.09161703E-03  1.11329383E-03  5.16503893E-04 -4.40150264E-01 -4.06008339E-03
  1.89210255E-03 -3.02552138E-03 -1.21442836E-02  9.77073103E-02 -6.67121345E-04
  3.42375595E-02 -2.13466348E-01 -7.07123416E-01 -2.34809857E-01  2.53916427E+00
 -1.86300889E-02 -3.86378955E-01  3.10836242E-01 -9.64527523E-03  3.32375711E-02
  2.87258440E-03  1.14060892E-02 -8.78334133E-02 -2.92520827E-03 -1.73297946E-02
  2.41986638E-01 -7.05948454E-01  2.24267068E-01 -2.79197914E+00  2.20228727E-02
  4.85156584E-03  9.34541479E-02  2.07925908E-02  5.68717016E-02  1.17677272E-05
  4.36204741E-05  1.67721167E-05 -2.50367223E-03 -6.38480378E-03  3.51677923E-04
  1.17485822E-03  2.07590890E-02 -2.16925945E-04 -4.24035855E-04 -2.17176190E-04
  5.94837780E-01 -1.15091077E-03  9.01614566E-03  2.15041941E-04  8.91493005E-04
 -4.03400352E-03 -3.63915665E-03 -3.46382949E-02 -7.82188321E-04 -1.40317973E-02
 -1.38558163E-01 -2.52503468E-03  3.70992530E-03 -1.98454219E-03 -2.71015071E-01
  2.85151315E-03  1.98781898E-02  1.89085908E-03 -1.93638034E-01  5.95435876E-02
 -8.12117129E-02 -3.60164615E-01 -9.49345596E-04  2.37213035E-01 -7.17502529E-02
 -9.54304814E-02  3.59036377E-01  2.29477569E-03  8.75037434E-03 -6.23359427E-02
 -3.70534947E-03  4.43738635E-03  1.50609212E-01 -2.00658897E-02 -3.67512845E-02
  1.53743533E-01  5.46717634E-02 -3.10851519E-01  1.38393096E-02  5.21127391E-04
  2.85831266E-03 -2.25600496E-03 -8.61630874E-03  6.16368437E-02  4.81222295E-03
  4.68775684E-03 -1.50946696E-01  1.64143515E-02 -3.74891803E-02 -1.52902695E-01
 -5.30712381E-02  3.10739098E-01  1.44838625E-02  4.74468933E-04  4.00000504E-04
 -2.57607914E-03  1.71712474E-01 -3.41160986E-02 -3.64129699E-02 -5.45730742E-01
  8.58927812E-03 -2.41752198E-01 -5.93303851E-02  4.37663739E-02  8.77072355E-01
 -9.86918975E-03  2.22283567E-01  7.25020407E-02  5.25324536E-02 -8.76689521E-01
  4.07639644E-03 -1.99008060E-01  4.07496633E-02 -4.11876518E-02  5.47538398E-01
  1.67835190E-02  6.88463990E-02 -6.87886719E-01  1.08611017E-01  6.42813026E-04
 -6.09794342E-03 -1.36523000E+00 -1.30475042E-02  1.05069965E-02  7.50612026E-02
  6.60933281E-03  4.47781316E-03 -5.41771502E-01  2.21781463E-04 -1.46171348E-02
 -5.65263033E-02  4.31550049E-01 -6.56091743E-02 -1.05918221E-01 -1.42931043E-02
  1.99355000E+00  2.35210442E+00  9.12194729E-02  1.25135590E-01  1.46511773E-02
  3.44315587E-03  4.40954393E-02  9.41184669E-02  1.74862362E-02  7.21870167E-02
 -6.70549283E-01 -1.34081441E-01  4.23227862E-01  2.26025666E-02  2.39321857E-01
  4.65251261E-02 -2.02350368E-01  1.11061370E-01 -2.12377118E-02 -1.05849068E-02
 -8.76060707E-03  3.59626947E-01 -4.88761299E-03 -2.10742062E-02  2.58723119E-01
 -2.45291675E-01 -1.61421840E-04 -4.90555454E-03  4.49923351E+00  1.09404435E-02
  1.97286340E-01 -8.30780018E-02  1.94827679E-02 -4.01865484E-03  3.65932170E-01
 -3.61677453E-04  1.74547318E-02  7.20585258E-02 -6.69509432E-01 -1.33633168E-01
 -4.22568449E-01  1.83711295E-02  2.17061289E-01 -4.79252272E-02 -1.53002932E-01
  1.11198409E-01 -2.88345758E-02  1.71315850E-02 -8.63669164E-03 -3.58747146E-01
 -1.45758403E-02 -5.63600567E-02  4.30195851E-01 -6.52323524E-02  1.05841798E-01
 -9.37769197E-03  1.97380121E+00 -2.35500200E+00  3.56280462E-02  1.25597061E-01
  1.45958539E-02 -5.81578348E-04  4.35797070E-02 -9.22540676E-02 -1.02572459E-03
 -3.66081379E-03 -7.22704900E-03  1.97544474E-01 -1.91812996E-05  3.30450213E-02
 -1.00460624E-01  7.73931253E-04 -6.06504053E-02  1.16325636E-03  9.10733260E-03
  5.82504236E-03  3.16874579E-02  4.11030588E-04 -2.62749742E-02 -1.07958181E-01
  4.77008792E-01  3.64794375E-01 -4.12030035E-04 -1.28309333E-02  1.15356436E+00
 -2.29552051E-03  3.35711813E-01 -4.56033738E-01  1.19297837E-01 -2.08663126E-03
 -3.87278985E-01  4.82846303E-04 -5.21502759E-02 -2.18050902E+00  7.27424636E-01
 -6.31735562E-01  1.30277816E-02 -5.20873870E-02 -2.17640433E+00  7.26104437E-01
  6.29753964E-01  2.04502687E-02 -1.52774825E-03 -5.19929823E-03  2.54234864E-02
 -4.51167469E-02  1.09283174E-02 -1.30867878E-02  1.25377771E-01 -2.18703522E-02
  4.22191359E-02 -7.09803192E-02 -1.13122882E-02 -1.26662701E-02 -1.48381447E-02
 -1.02322752E-01 -1.54103899E-03 -5.25130079E-03  2.57943859E-02 -4.43120592E-02
 -1.08975150E-02 -1.56071563E-02  1.24189496E-01  2.15340359E-02  3.86289090E-02
 -7.18974802E-02 -4.48475987E-03  1.29766334E-02 -1.41276118E-02  1.02338016E-01
 -9.47055782E-02  1.70360303E+00 -2.73398638E-01 -2.50616979E-01 -2.73035980E-02
  4.43093679E-02  9.71948967E-01 -6.02108579E-01  3.24257176E-01  7.48222144E-02
  4.41000124E-02  9.77983970E-01 -6.00638389E-01 -3.23001736E-01  5.69702948E-02
 -9.46462030E-02  1.70229773E+00 -2.74290831E-01  2.49539524E-01 -1.80310064E-02
 -3.73380159E-07 -3.10159140E-06  1.16123413E-04 -2.81420826E-04  3.74240662E-01
 -2.01009600E-04 -2.93935558E-04 -7.11086680E+00  9.72648392E-04  5.50196622E-05
  2.66167244E-04 -5.35564403E-02 -7.28390458E-05  3.88546839E-01 -7.50951411E-03
 -2.70173035E-02  5.72956452E-02  6.60369037E-03 -7.57105797E-02  2.05056992E-02
  6.67791197E+00  1.78036209E+00 -2.73915321E-01  5.03212454E-02  3.09399850E-02
 -5.02497478E-02 -1.67753917E-01  1.60595704E-01  1.28906682E-02  5.13284080E-02
 -4.06373249E-01  1.83877876E-01  5.09283072E-02 -1.29955079E-02  5.37327616E+00
  6.87096970E-03  1.96472970E-01  6.32240734E-02 -7.25207965E-02 -6.77534094E-02
 -1.10791415E-01  4.05564857E-01  7.10817281E-06  3.41620986E-05 -5.85035766E-04
 -2.62095345E-04 -3.14648960E-01 -6.31505723E-05  4.46945786E-03  7.27450867E+00
  1.94757691E-03 -9.41343523E-05  2.19770990E-04  4.79604930E-02  1.21819211E-04
 -4.85931195E-02 -1.28882916E-02 -5.13110483E-02  4.05964672E-01 -1.84280520E-01
  5.10879167E-02  1.30070355E-02 -5.37177470E+00  7.32661835E-03 -1.98641759E-01
 -6.33652778E-02  7.18162113E-02 -6.74166311E-02  1.10905373E-01  4.05455842E-01
  7.52394663E-03  2.70865806E-02 -5.82651603E-02 -6.77834199E-03 -7.64836669E-02
 -2.03979543E-02 -6.67612745E+00  1.78132729E+00  2.72499781E-01 -5.01364825E-02
 -2.85475925E-02 -5.07300684E-02  1.68108681E-01  1.60677418E-01  8.33827452E-06
  3.45186142E-05 -1.90776535E-04  2.61784303E-04 -3.23169097E-02  1.02071215E-03
 -4.84659963E-05  8.61265180E-02 -1.37138219E-03  2.01069651E-04  6.35815108E-04
 -1.01525973E-01  5.30457824E-05  7.67137741E-02 -1.60051015E-05 -6.53045405E-05
  2.85258508E-04  2.17561362E-04 -9.42566633E-02 -3.72541922E-04  3.13314155E-04
 -9.34199847E-01  4.09303912E-04 -3.11386350E-04 -8.30275597E-05 -9.94713485E-02
 -4.06143834E-04 -5.69574111E-02  7.07060092E-02 -8.32306607E-01 -2.86463171E-01
 -6.32021147E-01 -8.92679538E-03 -7.08412851E-02  8.29739149E-01  2.87212073E-01
 -6.31609396E-01  7.90815497E-03  1.82094008E-02  6.97326224E-02 -5.07335859E-01
  8.32549432E-03  5.67780982E-02 -3.42915488E-02 -1.76041203E-01 -3.55278285E-01
 -8.46439767E-03  4.33486769E-01  4.18834462E-02 -1.79115039E-03 -1.75149928E-03
  2.08940071E-02 -1.82390534E-02 -6.98462773E-02  5.08150788E-01 -8.15206094E-03
  5.68548931E-02  3.32386867E-02  1.76821351E-01 -3.55077561E-01  1.14546553E-02
 -4.33091931E-01 -4.25345957E-02 -1.59549814E-03  1.58381580E-03  2.06904537E-02
 -7.96540683E-03  2.65059651E+00 -4.49553707E-01 -1.32687208E-01  1.11756013E-02
  4.74070621E-02 -1.00218476E+00 -4.19965309E-01  7.38203978E-02 -1.12196344E-01
 -4.75617988E-02  1.00241179E+00  4.20048904E-01  7.34982866E-02  1.12932161E-01
  8.08747756E-03 -2.64681448E+00  4.50824701E-01 -1.33158273E-01 -7.95866252E-03
  9.01285291E-05  3.94936317E-04 -4.13047097E-03  3.87096200E-04 -2.14547274E-01
 -1.78333220E-03 -2.15693166E-02 -3.25929016E+00  7.14314471E-02 -8.66896767E-04
  1.31269697E-02 -2.17628658E-03 -3.87308565E-03  3.92678178E-02  1.08399367E-02
  3.97388495E-02 -1.54889332E-01 -1.02394310E-01  2.30348124E-01 -9.13566666E-03
  2.89503746E+00 -5.21727900E+00  2.02768334E-02 -7.01887142E-02  5.57035516E-02
 -2.40010833E-02 -1.39354033E-02 -2.05102742E-01 -4.71704297E-03 -1.76973178E-02
  5.26525975E-02 -2.24468949E-01 -2.52050107E-01  8.62585174E-03  2.82230847E+00
  6.12568248E+00 -2.25832496E-01  1.97977680E-01 -4.51888557E-02 -2.98078501E-02
 -2.40420911E-01 -1.39958811E-01  2.21827509E-04  9.78165473E-04 -1.14631613E-02
  6.29672017E-04  7.49033405E-02 -4.98320955E-03  1.39404984E-03  2.78403212E+00
  1.86825186E-01 -1.04359652E-03 -5.42684883E-03 -2.09247253E-02 -9.06880404E-03
 -4.61661218E-01  4.68818188E-03  1.78026145E-02 -6.31269752E-02  2.27564692E-01
 -2.48509778E-01 -5.67371336E-04 -2.86784382E+00  6.10600173E+00 -1.07084487E-01
 -1.98871500E-01 -5.54635212E-02  4.13775403E-03  2.38788486E-01 -1.44889124E-01
 -1.03874392E-02 -3.77608671E-02  1.30609786E-01  9.57214548E-02  2.29023035E-01
 -6.61075846E-03 -2.86438486E+00 -5.22968072E+00 -6.25453940E-02  7.09941486E-02
  5.67425146E-02 -1.49401333E-04  1.47969172E-02 -1.98110339E-01  3.77771304E-05
  1.45121032E-04 -5.97901552E-04 -5.76718353E-05 -2.24780536E-01 -5.09288918E-03
 -3.03462073E-03  2.01637374E-01  2.88904077E-02  5.17614970E-04  1.64225981E-02
  2.23533691E-03  5.54303563E-04  1.25111610E-01  2.57559291E-04  1.12038673E-03
 -6.56586905E-03 -1.05950418E-03  1.23101848E-01 -2.48621039E-02 -8.00385087E-03
  6.57310470E-01  3.20079967E-02  3.77488817E-03 -3.87633618E-03  1.95834411E-02
  1.05264939E-03  6.66346417E-02 -3.71634553E-02  1.03373673E+00 -6.77539556E-02
  3.48375190E-01 -7.60878361E-02  2.91551191E-02 -1.00901350E+00  6.15867029E-02
  3.39931356E-01  4.52457355E-02  8.09534432E-03  3.07242673E-02 -2.14488549E-01
 -7.95488678E-02 -1.12777753E-02 -3.67802892E-03  7.83392113E-02 -1.76847778E-01
  7.14770761E-03  4.28011414E-01 -7.04089820E-03 -8.35567715E-03 -2.48620922E-01
  1.27518520E-01 -7.92867502E-03 -3.00871640E-02  2.09695325E-01  7.98385314E-02
 -1.37517967E-02 -1.72914934E-03 -7.97204113E-02 -1.70323679E-01  1.09220767E-03
 -4.28055864E-01  4.10584803E-03  1.11859487E-02  2.49269530E-01  1.28127371E-01
  1.92312964E-01 -1.17274831E+00 -1.38704085E-01  5.97013546E-01 -1.00483207E-02
 -5.12442608E-02  1.93958826E+00 -2.45346160E-01 -5.56634301E-01  5.96639017E-02
  4.47255822E-02 -1.91761705E+00  2.60825868E-01 -5.52941266E-01  4.18156179E-02
 -1.96032677E-01  1.19932089E+00  1.34092253E-01  5.95902205E-01  3.42711656E-02
  1.12441973E-03  4.93666757E-03 -4.63775916E-02  1.68535530E-02  1.26107338E-02
 -2.77168383E-02 -2.96513955E-01  2.36298251E-01  1.05695198E+00 -9.81883977E-04
  1.95155929E-01 -8.63472883E-04 -4.56472330E-02 -2.24184978E-03  3.28801250E-03
  1.45291731E-02 -1.88168675E-01 -5.50652772E-02 -3.61383355E-03 -1.25696266E-01
  2.85627618E-02  4.04829972E-01 -2.73703993E-01  1.20999730E-02  8.58328612E-01
 -1.77963831E-01  1.47924893E-02 -4.83661281E-02 -3.88863199E-04  3.04670343E-04
 -7.63577874E-02  2.77871251E-02 -5.98061540E-03  6.45934203E-02 -6.14139877E-01
 -1.75826476E-01 -2.61715576E+00 -1.76463535E-02 -7.84858537E-01 -2.60409759E-01
  9.17189029E-04  4.76632110E-02  3.64234135E-03  1.60773592E-02 -1.90169823E-01
  1.20810885E-02 -4.16686526E-03 -7.86475639E-02  9.59700723E-02 -2.06697190E-01
  2.93229446E+00 -2.54598669E-02 -9.04048914E-02  3.44230119E-03 -1.50460012E-01
  3.00989701E-02 -9.64882996E-04 -1.85967136E-03 -6.99739640E-02 -1.19426876E-03
  3.83756845E-02  6.57466757E-02 -2.03265641E-01 -6.26446047E-01 -2.63892338E+00
  8.13125911E-03 -7.82936813E-01  2.61526107E-01 -3.08005751E-02 -3.04535039E-02
  4.63020085E-03  1.94416404E-02 -2.06750207E-01 -6.81275186E-02 -2.65116155E-02
 -1.26569262E-01  4.43717419E-01  2.82713497E-01 -2.56253796E-01  2.27048590E-03
  8.59876484E-01  1.80082797E-01  1.46135341E-02  7.24144483E-02  2.96229408E-04
  1.13393045E-03 -4.98467141E-03  1.12435025E-02  1.45272306E-02 -7.52058086E-02
 -5.14080308E-02 -1.41651900E-02  4.41162878E-01  3.25259960E-03  2.61801517E-01
 -4.46973715E-04  1.69816176E-02 -8.22864284E-03  4.59835792E-03  1.98001354E-02
 -1.12730574E-01 -1.68857522E-02 -7.53939177E-03 -3.91778835E-01 -9.78022406E-02
 -3.97032196E-02  5.14275741E-01  5.66816331E-02 -4.98293625E-02  1.02916406E-03
  6.78089607E-03 -4.64577319E-03 -5.89822046E-02  9.36177264E-02 -3.89645707E-02
  4.15709617E-02 -2.47719722E-01 -6.31203284E-02  2.21348679E-01 -4.68269166E-02
 -8.37920765E-02 -2.59662192E-01  6.38507253E-04  2.47002810E-03 -2.00581619E-02
  5.43980935E-03  1.93353709E-02 -4.61827681E-02 -7.07345378E-03 -3.65341373E-02
  7.24728231E-02 -2.97658840E-02 -2.30752302E-02 -1.58943089E-01  1.69791059E-02
 -1.42039619E-02  1.72203565E-03  6.58191718E-03 -4.87222143E-02 -4.96902651E-03
 -1.83726117E-02 -4.60384651E-02  2.77467986E-03  6.07703367E-02  7.30101606E-02
  2.54901900E-02 -2.44540159E-02  1.58600827E-01 -1.51474452E-02 -2.09044563E-03
 -3.80824033E-02  2.48526714E-01 -3.04509413E-02 -3.47555354E-02  1.68710993E-01
 -4.79762111E-02  1.06246114E-01  1.41563342E-01  1.04140776E-02  7.99789777E-01
 -5.41672729E-02  3.50522608E-01  1.07101604E-01  6.10978716E-02  8.04525251E-01
 -1.34332879E-02  1.01100670E-01 -4.82576496E-02 -4.27769294E-02  1.62898529E-01
 -1.84818384E-02 -8.11624461E-02  9.46199425E-01 -1.27026424E-01  1.81930524E-04
  9.02800291E-04  2.47136789E+00 -6.25238903E-04  1.85340214E-01  1.69765211E-01
  3.46753085E-02 -1.35085569E-04  5.98998171E-01 -2.31281881E-04 -1.08559458E-02
 -5.43241443E-02  9.00027934E-01  1.42835442E-01 -3.35151126E-02 -2.67107097E-02
 -1.64776158E+00 -1.34769457E+00 -4.70009620E-02 -2.07717528E-02  1.85180884E-01
 -3.58116160E-02 -3.47543512E-02  3.68149243E-01 -1.03501715E-02 -5.14256620E-02
  8.64424511E-01 -2.11132468E-01  6.65202556E-02  8.69048323E-03  1.96711531E+00
 -6.26662337E-01 -4.19521884E-01 -7.16140922E-03 -1.33079054E-01 -4.17894269E-02
 -9.46502952E-02 -3.66048634E-01 -1.87277635E-02 -8.35440418E-02  9.99421585E-01
  6.44827904E-02  3.03246101E-04 -2.20659670E-02  3.09779732E-01 -9.09740000E-04
  4.04224213E-01 -9.70070572E-03  2.10599017E-03 -1.28775359E-03  6.37729420E-01
 -7.88251866E-04 -1.03762322E-02 -5.15508697E-02  8.66366572E-01 -2.11052901E-01
 -6.64920547E-02  8.09938795E-03  1.96965919E+00  6.33103799E-01 -4.12170500E-01
 -7.63980169E-03 -1.33545463E-01  4.01209852E-02 -9.45134944E-02  3.66294038E-01
 -1.08502778E-02 -5.43074827E-02  9.00074930E-01  1.43624916E-01  3.36087702E-02
 -2.67310094E-02 -1.64746289E+00  1.34368432E+00 -5.15741421E-02 -2.01412947E-02
  1.84256199E-01  3.35018117E-02 -3.51380988E-02 -3.68533165E-01 -5.62979168E-03
 -2.28129111E-02  1.18173572E-01  4.11372370E-02  2.74410614E-06 -2.75837242E-02
  2.27064695E-01  5.05777073E-04  1.24392870E-01 -5.23144430E-02  5.41262011E-02
 -1.40453220E-04  2.69149370E-03  4.76853630E-05 -5.69406567E-03 -2.63576626E-02
  1.87821810E-01  5.10290826E-02 -2.24058275E-04 -1.97889988E-02  1.12105138E+00
  5.40399679E-04 -4.57473961E-02 -2.12028346E-01 -1.00754469E-01 -1.49527436E-03
 -1.10105064E-01  5.22535495E-04  1.44476500E-01 -1.02072052E+00  3.62639173E-02
 -3.44377016E-01  1.41099838E-01  1.44475993E-01 -1.02074814E+00  3.59071271E-02
  3.43202618E-01  1.44220126E-01 -8.64237876E-03 -3.35375554E-02  2.57569443E-01
  5.31221140E-02 -1.13700162E-01 -4.92376326E-03  6.04884635E-02  2.98115216E-01
  5.33666035E-05  7.72013513E-02 -3.07719957E-03 -3.00925771E-02 -6.69722258E-02
  6.40734019E-02 -8.63439744E-03 -3.35063538E-02  2.57315622E-01  5.30972069E-02
  1.14020184E-01 -4.94723425E-03  6.04781849E-02 -2.98466745E-01  2.49495345E-04
  7.77883090E-02 -3.09162108E-03  3.00797601E-02 -6.69708964E-02 -6.44306667E-02
  2.53425310E-01 -1.57096557E+00  1.15102641E-01  1.44720594E-01  4.30031727E-02
  2.42102353E-01 -1.24809706E+00 -7.63853134E-01  3.22913577E-02  9.26808443E-02
  2.42338340E-01 -1.25265506E+00 -7.64302065E-01 -3.19726007E-02  9.28799497E-02
  2.53599523E-01 -1.56860795E+00  1.14952363E-01 -1.44950112E-01  4.63962042E-02
  2.03888511E-05  8.52026976E-05 -1.37398217E-03  7.45990388E-05 -2.98568963E-02
 -2.65180795E-03  1.74448956E-03 -7.50111581E-01  3.52290173E-02 -1.13552023E-03
  7.63060356E-03  1.95545709E-01  1.03102146E-03  9.39322835E-03  9.18983412E-04
  2.96756942E-03  1.37602239E-03  7.06424981E-03  8.66288335E-04 -5.79133277E-02
  8.90840874E-01  9.73822008E-02 -7.46501310E-01  9.07204535E-02 -1.85224676E-01
  8.88638427E-01 -3.03890233E-02 -2.07958519E-03 -2.21596457E-03 -1.10465468E-02
  1.83257954E-01  4.85915935E-03 -3.51753951E-02 -1.14954585E-01  6.90871859E-01
  6.94613268E-02  1.47541700E+00 -2.33071936E-02 -2.51686811E-02  7.29294904E-01
 -9.89177818E-02  8.26903610E-02 -1.38836708E-05 -7.07429424E-05  9.04082821E-04
 -1.53198163E-03 -1.65424749E-01  2.34699251E-03 -8.99803258E-03  1.15852523E+00
 -3.87250248E-02  1.00712974E-03  9.11207531E-03  7.21857037E-01  2.48687187E-03
  7.78243875E-03  2.31200684E-03  1.13537483E-02 -1.83012985E-01 -3.27426913E-03
 -3.36734664E-02  1.11036111E-01 -6.79326839E-01  7.62543139E-02 -1.40544410E+00
  2.52354356E-02  3.15072401E-02  7.33309709E-01  1.00364047E-01  8.46853249E-02
 -1.07596398E-03 -3.60910563E-03  4.76881181E-03 -3.09168699E-03  1.23928971E-03
  6.04614321E-02 -9.04145712E-01  9.78660643E-02  6.73812564E-01 -9.06544562E-02
  1.99906260E-01  8.83709800E-01  3.14439888E-02 -2.33066570E-03  2.43543819E-05
  1.00155486E-04 -4.28653872E-04 -7.59981043E-04 -2.17037424E-02 -6.92938032E-04
 -4.45600695E-04  4.11064349E-02  1.55184551E-03  1.16644601E-04 -1.53044358E-03
  3.68172350E-01 -9.61382634E-04  1.72066475E-02 -1.47518937E-04 -5.96507618E-04
  2.74875581E-03 -2.26223495E-04  1.21874996E-01  1.54250968E-03 -3.09377449E-03
 -3.32110832E-01 -9.08191225E-03 -1.43898657E-03 -9.41570570E-03  1.11979022E+00
 -9.69686136E-05 -2.32821587E-01  3.98785872E-03  1.23034676E-01 -2.36268972E-01
  1.68254296E-01  9.32311965E-01 -3.78565189E-03 -1.18464040E-01  2.37008694E-01
  1.67167307E-01 -9.16063013E-01  2.21032171E-04  8.91180319E-04 -6.72066481E-03
  1.58831615E-02 -3.58864891E-02  1.76876662E-01 -2.30908386E-02  4.19969949E-02
 -8.27365262E-02  4.50336751E-02  4.04274049E-02 -1.02831427E-01  9.08633999E-03
  1.18644149E-02 -1.70249237E-04 -6.92951381E-04  5.19578628E-03 -1.63903854E-02
 -3.66468355E-02 -1.76120467E-01  2.25476898E-02  4.32851838E-02  7.95320645E-02
 -4.57551227E-02 -3.82707272E-02 -1.02208020E-01 -8.44572934E-03  1.21715996E-02
  1.94414903E-02  3.88220131E-01 -1.38671799E-01  4.44136282E-02  9.78100681E-01
  3.00960003E-02 -1.55885718E-01  8.51016481E-02  1.74615858E-02  3.33402379E-01
 -2.92501914E-02  1.49095238E-01 -8.66679533E-02  1.80417460E-02 -3.62711199E-01
 -1.98790287E-02 -3.91920528E-01  1.44900958E-01  4.64842108E-02 -9.46987815E-01
 -4.13981568E-04 -2.75453568E-03  8.07046282E-02 -1.73828211E-02 -8.60731255E-04
  2.63283711E-01  4.95689189E-02 -5.86346178E-03 -3.40939729E+00  9.17500604E-02
 -6.65580567E-01  3.14130874E-03  1.25677743E-02  5.35196846E-04  2.64921730E-03
  1.00681301E-02 -6.69964214E-02 -9.07416592E-02  2.47834129E-02 -1.25914812E-01
  1.52795803E-01  8.01401760E-03  3.40667299E+00  1.78435857E-02 -6.39996657E-01
 -1.97724123E-01 -3.18249387E-03  5.21711937E-02 -4.50834746E-03 -1.73933813E-02
  1.30745936E-01 -4.55481968E-02  6.97273514E-02  1.72248371E-01 -1.48054157E-01
 -1.05465747E-01 -3.02915010E+00 -6.51973318E-02 -2.09467178E-01  2.30460501E-01
 -8.59430579E-02  1.93922837E-02 -3.70986676E-03 -1.59216186E-02  2.12526253E-01
  1.12358310E-01 -2.13343226E-03 -2.28308280E-01  4.69696316E-01  1.28828193E-02
  3.24287810E+00 -3.71563367E-02 -7.50745670E-01  8.13232575E-03 -4.10613742E-02
 -4.76336308E-04 -4.48421208E-03 -1.72461825E-02  1.27570096E-01 -4.53985839E-02
 -7.10062018E-02  1.74580832E-01 -1.61918696E-01  1.18035612E-01 -3.05684923E+00
 -6.63028503E-02 -2.09528581E-01 -2.12475899E-01 -8.32995397E-02 -1.71229714E-02
  2.65668260E-03  1.01352595E-02 -6.90958048E-02 -9.05078339E-02 -2.46036526E-02
 -1.24156558E-01  1.30386384E-01 -1.02355001E-02  3.41704616E+00  1.64633131E-02
 -6.36027900E-01  2.19330093E-01 -1.29257129E-03 -5.23625069E-02 -1.15229460E-03
 -4.88983638E-03  2.57505690E-02  7.62532872E-02 -6.26170592E-04  8.74722088E-03
 -4.49652885E-02 -4.78432277E-05  2.22152071E-02 -1.45680953E-02  9.61142964E-02
  4.58933602E-03  5.64444771E-02  3.22372680E-04  9.01503449E-03  3.61339340E-02
 -1.57625519E-01 -8.87660706E-03  1.62413517E-03 -5.85166183E-02  3.89583819E-01
 -3.34396014E-03  5.35282204E-01  1.70845041E-01  7.30622912E-01  1.28212882E-02
  1.00313524E-01 -3.16415543E-03  1.18384737E-02 -2.19376998E-01 -8.83189043E-02
 -1.18815454E-01 -5.56381988E-01  1.18444801E-02 -2.24372105E-01 -8.16734750E-02
  1.23108988E-01 -5.77224345E-01 -1.46090683E-03 -5.62145441E-03  4.10680124E-02
  1.64062933E-02  1.13940738E-03 -1.22720159E-02  4.47391123E-02 -5.53854681E-04
  6.34938445E-02  1.32444867E-02 -6.94483278E-02  5.44142253E-02 -3.68793806E-02
 -2.87982509E-03 -1.49681172E-03 -5.76068713E-03  4.21251406E-02  1.59119304E-02
 -2.53716988E-03 -1.62064350E-02  4.55430960E-02  1.78289297E-03  6.47295839E-02
  1.06736945E-02 -6.96402146E-02 -5.66974437E-02 -3.72021517E-02  3.31895402E-03
  3.19444786E-02 -2.44066497E-02 -6.64303468E-02  3.45958829E-02 -1.36449768E+00
  1.42624303E-02 -7.13745643E-02  3.36430262E-02  9.15417605E-02  1.25797821E+00
  1.34246279E-02 -7.47130724E-02  3.24243374E-02 -9.24074418E-02  1.24785835E+00
  3.09642526E-02 -3.44059226E-02 -6.14310931E-02 -3.14437899E-02 -1.38643839E+00
 -9.39318235E-03 -4.24919158E-02  6.69593706E-01 -4.03196383E-03  1.08988823E-04
 -1.64911103E-01  7.88049483E-01 -9.24542344E-03  2.15571223E+00  3.54773372E-01
  2.24513583E-01  4.56522206E-04  2.70038017E-01 -9.10095265E-04  1.55899548E-02
  6.00971130E-02 -4.42313167E-01 -3.55572857E-01  1.53354436E-01  1.33297323E-01
  3.13580919E-01 -8.62974547E-01 -1.82098706E+00  1.09512601E-01 -2.70930906E-03
 -2.35986755E-03  1.77149489E-01 -1.56787712E-01 -1.41337031E-02 -5.07046864E-02
  2.71174557E-01 -3.36350185E-01  1.61384619E-02 -7.43224387E-02 -7.28484734E-01
  1.48869525E+00  1.51309562E+00 -9.78277082E-02  1.87681539E-01 -1.82847668E-01
 -2.04310403E-01 -2.18426668E-02  3.80816924E-03  2.00541742E-02 -3.96896789E-01
  5.69934886E-02 -7.31728736E-04  1.65588572E-01  2.63847707E+00  7.67554068E-03
 -1.05975311E+00 -2.95380495E-01  5.69751245E-02  6.82434141E-04 -5.56026431E-01
 -9.93584296E-04 -1.41226349E-02 -5.06536966E-02  2.70655699E-01 -3.35385157E-01
 -1.74540920E-02 -7.36903851E-02 -7.41501132E-01 -1.46174741E+00  1.51362784E+00
 -9.90701092E-02  1.88209240E-01  1.87230833E-01 -2.02050144E-01  2.21109533E-02
  1.55957124E-02  6.01364515E-02 -4.43487811E-01 -3.54780375E-01 -1.51887989E-01
  1.33937317E-01  3.01290525E-01  8.34637426E-01 -1.82133344E+00  1.10865959E-01
 -3.55710399E-03  6.80256250E-03  1.76089432E-01  1.57128138E-01 -7.57938757E-03
 -3.11219840E-02  1.55776430E-01  2.95728752E-01  1.03576376E-05  1.88540155E-01
 -2.09034147E-01  2.78423200E-04 -7.24555004E-01 -6.80716182E-02 -1.30639809E-01
  6.13604440E-04  1.97848681E-01  3.24820785E-04  2.01638226E-02  8.13700005E-02
 -3.81670814E-01  1.22488122E-01  3.24668451E-04 -2.80600373E-01  3.81403726E-01
  1.22561247E-03  1.27520148E+00  3.26715298E-02  5.54687028E-01  1.01514305E-03
 -3.07889726E-01 -4.10381688E-04  9.05950336E-03 -8.92750729E-01  3.02050758E-01
  2.92329828E-02 -5.81264057E-01  8.92862571E-03 -8.98779453E-01  3.02270783E-01
 -2.54548716E-02 -5.82259994E-01 -5.13503707E-03 -1.98758766E-02  1.45957196E-01
  8.39907008E-02 -9.60315378E-03  1.47487851E-02  1.37410801E-01  1.45423483E-02
  7.74133227E-02  8.61658985E-02 -4.96495588E-02  2.90140826E-02 -1.34287793E-01
  3.36373003E-02 -5.13030955E-03 -1.98568495E-02  1.45770786E-01  8.41922653E-02
  9.75381910E-03  1.40142416E-02  1.36963328E-01 -1.45126522E-02  7.79816899E-02
  8.60897376E-02 -5.00355298E-02 -2.96370828E-02 -1.33646554E-01 -3.36664080E-02
  1.43531096E-01  1.81632178E-02 -1.91114550E-01  1.69487626E-01  5.08408231E-01
 -7.53774025E-02  7.49126437E-01  4.06815141E-02 -8.06853039E-02 -5.03638205E-01
 -7.53535959E-02  7.40255400E-01  3.82141562E-02  8.01210126E-02 -5.08382088E-01
  1.43101684E-01  2.89789266E-02 -1.92639666E-01 -1.68192302E-01  5.03653725E-01
  1.00222200E-02  4.28824069E-02 -5.74032217E-01 -3.38935143E-02 -3.91695705E-03
 -1.51343412E-01 -7.81532848E-01  7.44414182E-02  2.47141687E+00 -1.52808044E-01
  1.23810914E-01 -1.45914968E-04 -2.60065205E-01  5.34659145E-04 -1.23837522E-02
 -4.88011725E-02  4.03253699E-01  2.04452206E-01 -1.00621145E-01  1.45039424E-01
 -7.16472211E-02  9.62768427E-01 -1.79720969E+00 -1.13188494E-01  4.67908601E-02
 -1.55745631E-01 -1.98740981E-01  3.18571791E-01  4.70022859E-03  1.32480501E-02
  5.08095082E-02  2.91388874E-01  1.44588838E-01 -7.37734303E-02  3.57778663E-01
 -2.07940449E+00  1.05276425E+00 -4.84930289E-02  1.11802409E-01 -2.06482997E-01
 -3.15986860E-02  3.10070195E-02 -1.04146450E-02 -4.91340147E-02  8.20249361E-01
  1.61405376E-01 -4.92495374E-04  1.69831415E-01 -1.95733126E+00 -6.41784087E-02
 -4.26485270E-01  3.18192380E-01 -1.67058914E-01 -5.87527159E-04  4.80085770E-01
  9.62313287E-04  4.62581772E-03  1.30314588E-02  4.92935477E-02  2.90316830E-01
 -1.42906809E-01 -7.43769472E-02  4.79374219E-01  2.03283219E+00  1.05520477E+00
 -5.19131416E-02  1.10285913E-01  2.04314553E-01 -3.51915209E-02 -3.44505405E-02
 -1.21019689E-02 -4.75364501E-02  3.86191094E-01  2.03113749E-01  9.79783055E-02
  1.44763690E-01  4.31469351E-02 -9.33348784E-01 -1.80035253E+00 -1.12704064E-01
  4.71420794E-02  1.53418046E-01 -1.89346698E-01 -3.18163504E-01  6.28490125E-03
  2.54534523E-02 -1.25134510E-01 -1.65141059E-01 -1.29872945E-03  2.36572532E-01
  1.66293957E-01 -5.28934985E-03 -9.11615873E-01  4.31371063E-02 -8.43672062E-02
 -1.48215753E-04 -9.75145998E-02 -1.53151785E-03 -5.36861266E-03 -2.18121481E-02
  1.15688562E-01 -1.08380955E-01  2.87814011E-05 -3.98352477E-01  4.38630359E-02
  3.19515119E-03  1.66191251E+00  4.27189115E-01  8.06371136E-01 -2.43977891E-04
  5.16173744E-01 -1.86059560E-03  9.74206748E-03  6.08606048E-01 -4.11303565E-01
 -2.55273715E-01 -9.07954599E-01  9.99562911E-03  6.12970833E-01 -4.05767349E-01
  2.48368515E-01 -9.08305614E-01  2.14907939E-03  8.43406735E-03 -6.19069975E-02
 -5.79785214E-02  1.33148995E-02  2.77165526E-02 -5.66154990E-02 -1.13182484E-02
  1.05941493E-01 -8.09935592E-02 -1.20157436E-01  3.29076185E-02  6.76455297E-02
 -4.98078519E-02  2.13982566E-03  8.39389161E-03 -6.14093104E-02 -5.99262738E-02
 -1.92024249E-02  2.77745278E-02 -5.21550629E-02  2.21808044E-02  1.05984018E-01
 -8.41120544E-02 -1.19833801E-01 -3.29121501E-02  6.35865561E-02  4.98001346E-02
 -7.47382388E-02 -1.34208495E-01  8.38633146E-02 -9.67134642E-02  4.02069470E-01
  1.24709213E-01 -1.16077522E+00  1.24495501E-01  3.19494701E-01 -3.69302439E-01
  1.22683082E-01 -1.17561757E+00  1.25974302E-01 -3.16337819E-01 -3.67227256E-01
 -7.66487271E-02 -1.01887813E-01  9.75269608E-02  9.75663835E-02  4.05229227E-01
  5.97730104E-06 -2.56045993E-05  2.28397323E-03  6.51467349E-04 -3.96706892E-01
  3.10975838E-04  1.06643129E-02  9.02215307E+00 -7.48718103E-03  2.10122826E-03
 -9.93244787E-04 -3.15280563E-03  5.98264886E-03  8.01420543E-02 -1.79503422E-02
 -7.91682402E-02  1.01227249E+00  2.12015552E-02 -9.74226012E-02  5.77069667E-03
 -6.89487291E+00  1.26149207E+00  5.44403597E-02 -1.45826635E-01  1.61079652E-02
 -6.43607449E-02 -5.63018330E-01  7.30983574E-03  6.97744550E-03  2.51334585E-02
 -1.12969879E-01  8.54872953E-02  7.13004465E-02  6.71125798E-03 -7.62662478E+00
 -2.08384145E+00 -6.60086071E-02  2.75430062E-01  1.40549664E-02 -3.65101357E-02
  2.12355837E-01 -1.83959095E-01  1.18413720E-04  5.50884775E-04 -9.35370055E-03
 -9.76752247E-04  4.03211424E-03 -1.54075102E-03 -2.38098946E-03 -8.05320077E+00
  3.15183530E-03 -2.37219544E-03  2.04026283E-03 -3.59302727E-02 -3.71777603E-03
  6.67382847E-02 -7.10050449E-03 -2.55490039E-02  1.13981691E-01 -9.19999925E-02
  7.54987241E-02 -5.66252716E-03  7.62816274E+00 -2.11036295E+00  5.33991860E-02
 -2.75362231E-01 -1.49236534E-02 -3.95983589E-02 -2.13360563E-01 -1.80978781E-01
  1.81274503E-02  7.98043184E-02 -1.01563527E+00 -2.57604055E-02 -9.90059663E-02
 -7.07799320E-03  6.87641414E+00  1.27684442E+00 -4.08089821E-02  1.47058430E-01
 -1.56919530E-02 -6.58969148E-02  5.68985921E-01  1.12307726E-02 -7.24510379E-05
 -2.92149503E-04  1.60752944E-03  3.18473031E-03 -1.67906067E-01 -4.50290888E-04
 -5.50571338E-03 -7.28260894E-01  2.79463922E-03 -5.53060935E-04  1.43280223E-03
 -2.78377230E-02  2.18943406E-03 -2.03532698E-01 -3.08657193E-05 -1.17109503E-04
  3.26065401E-04  2.45622315E-03 -1.11791139E-02  5.23952212E-03 -1.01526220E-02
  6.38060127E-01 -2.08499721E-02 -3.00818400E-03 -7.89372217E-03 -1.57053868E-03
 -3.96864751E-03 -8.71332272E-02 -1.62548297E-02 -8.56821718E-02 -3.02356785E-01
 -4.30360239E-01 -3.35555229E-02  1.43055907E-02  9.17172135E-02  3.09443538E-01
 -4.38365619E-01  5.26219438E-02  3.45478112E-03  1.36046265E-02 -1.17143265E-01
  1.03020519E-01 -3.20040590E-01 -1.17017532E-02 -2.77061116E-01  5.59964905E-01
  4.50622833E-03  2.07114261E-01 -3.39799951E-03  1.14289804E-02  2.52581254E-01
 -2.31059943E-02 -3.38891528E-03 -1.33472285E-02  1.14931212E-01 -1.01915898E-01
 -3.21917807E-01  1.16000613E-02  2.80210645E-01  5.65122377E-01 -4.23745377E-03
 -2.07514529E-01  3.18509818E-03  1.17209545E-02 -2.55848714E-01 -2.20493334E-02
  1.07710102E-01 -2.17271146E+00 -7.68038318E-01  8.59315122E-02 -5.93896829E-02
  7.74754641E-02  1.34520979E+00 -4.97158804E-02  1.28677066E-01 -4.19522379E-02
 -8.09467217E-02 -1.33433719E+00  4.78275430E-02  1.32222543E-01  4.52992800E-02
 -1.07131935E-01  2.17180619E+00  7.76207996E-01  8.55173710E-02  5.67172140E-02
 -1.39488054E-03 -5.66779679E-03  3.44222218E-02 -1.50460242E-02  2.85695909E-03
 -9.90897123E-02  2.72561852E-01 -3.74151239E-02  3.32926824E+00 -6.50875642E-02
 -3.92745487E-01  6.35583271E-04  9.55431627E-02 -1.64277965E-03  2.73704919E-03
  1.06527486E-02 -9.62669189E-02 -1.95818336E-02 -4.97952335E-02  1.32299765E-01
 -3.40084045E-01 -1.49529750E-01 -1.67425056E+00  1.12249189E-02  2.68575292E-01
 -5.90905754E-01  2.00738240E-02 -5.43027357E-03  1.46686542E-03  6.33932835E-03
 -8.96515424E-02 -4.01343454E-02 -6.97453573E-02 -1.33196670E-02  9.07750798E-02
 -1.01568326E-01 -6.34137096E-01  5.93962131E-03 -4.04927155E-01 -1.30344615E-01
  3.69998210E-02 -1.89703624E-02 -1.25696311E-03 -4.06245796E-03 -5.09322772E-02
  4.33628470E-02  1.47299650E-03 -9.23383104E-02 -9.39885069E-01  3.27673640E-02
  2.22384797E+00 -8.05579743E-02 -2.85309117E-01  5.50046261E-04 -5.47890383E-02
 -9.50887945E-04  1.38934194E-03  5.91860401E-03 -8.09506741E-02 -4.13858983E-02
  6.95420391E-02 -1.29101500E-02  3.88608688E-02  1.45995871E-01 -6.31628548E-01
  7.10380227E-03 -4.03594766E-01  1.33699960E-01  3.70450491E-02  2.17954890E-02
  2.70477742E-03  1.04172231E-02 -8.96029134E-02 -1.66600267E-02  5.19265304E-02
  1.33030338E-01 -4.06781018E-01  1.08043518E-01 -1.67571481E+00  1.54415817E-02
  2.67453596E-01  5.94089971E-01  1.55078802E-02  3.22381748E-03 -6.00877094E-04
 -2.38066325E-03  1.45614582E-02 -3.24871827E-02  8.97022908E-04  3.82390128E-01
 -2.79348316E-02 -5.36458550E-04 -1.52531869E+00  6.51568331E-03  1.23227072E-01
  5.10871076E-04 -1.76351856E-02 -5.30863937E-04 -1.00156741E-03 -4.27146869E-03
  2.71396002E-02  1.29543623E-01 -1.25818068E-05  4.97437343E-01 -7.20868744E-01
 -1.56703708E-03 -1.74059341E+00 -8.41572111E-03 -2.48685489E-02 -7.62861534E-04
 -1.10658733E-01  1.33396504E-03 -1.72087570E-02  4.96601932E-01  7.26106167E-02
  1.93462219E-01  5.00884196E-01 -1.72311104E-02  4.93212678E-01  6.75330596E-02
 -1.87749196E-01  5.01619290E-01  9.20394209E-04  3.33994841E-03 -2.31506239E-02
  2.69020514E-03 -5.88665219E-03  1.03376873E-01 -1.85316228E-02  4.36071334E-03
  1.51400153E-01  1.89224341E-02 -4.13032114E-01  6.49298407E-02  1.61455884E-02
  1.54070847E-02  8.82215367E-04  3.19084866E-03 -2.19672911E-02  3.70991811E-03
  7.94204745E-03  1.02965790E-01 -1.91527211E-02 -7.38367644E-03  1.51619150E-01
  2.09976124E-02 -4.14430418E-01 -6.68193108E-02  1.63096960E-02 -1.66091835E-02
 -2.25353028E-02 -1.63646474E-01  3.29519198E-02 -3.98539142E-02  1.50420577E-01
 -4.43419690E-02 -2.00938386E-02  7.01619797E-03 -2.99045680E-02  1.37245895E-01
 -4.19735409E-02 -2.79796219E-02  2.41247919E-03  2.84030948E-02  1.32990333E-01
 -1.95660780E-02 -1.66128842E-01  3.26075227E-02  4.12069508E-02  1.47573786E-01
 -8.25291429E-03 -2.70885510E-02  1.74666441E-01  1.16789226E-01 -5.71089052E-05
 -1.31836281E-02 -1.52592134E+00  1.28868876E-02  4.58431671E-01 -9.36071387E-02
 -4.51624965E-02 -1.81145805E-04 -8.75599243E-01 -3.40263182E-04  1.20194731E-03
  1.24145913E-02 -3.25297516E-01  8.91578267E-02  1.02129582E-01  2.06034853E-02
  2.68211273E+00  7.26068390E-01 -2.71363779E-01  1.00990275E-01  5.86943133E-02
 -7.61754350E-02 -9.35929497E-02 -2.43989740E-01  4.06208213E-04  2.92044799E-03
  3.17738787E-02  1.31463913E-01  2.36535967E-01 -1.97074786E-02 -1.27629289E+00
  2.73025124E+00  1.33183864E-01  2.08917076E-01  3.61963626E-03  2.03880998E-03
  1.49446546E-01  3.72794228E-01 -1.01913176E-02 -4.74809292E-02  8.91204984E-01
 -1.66645886E-01  1.60833831E-04 -8.54982354E-03  7.37034456E+00 -1.02497608E-02
 -2.60532366E-01 -9.35057986E-02 -1.35146638E-01  6.02929949E-04  1.59608193E-01
 -9.37376285E-04  2.32724931E-04  2.18341398E-03  4.04861912E-02  1.29620123E-01
 -2.36828594E-01 -1.91414321E-02 -1.24816436E+00 -2.70260578E+00  1.31458159E-01
  2.04595859E-01  5.11528803E-03  9.53894369E-04  1.47108581E-01 -3.71831088E-01
  1.40953080E-03  1.32627761E-02 -3.33647717E-01  9.07472100E-02 -1.01101632E-01
  2.10249995E-02  2.69240052E+00 -7.59195007E-01 -2.66312215E-01  1.06538604E-01
  5.65261766E-02  7.95608663E-02 -9.07828955E-02  2.44422297E-01  1.33377526E-03
  5.64591343E-03 -6.50081939E-02 -5.16585567E-02 -5.40227985E-04  3.86985736E-02
  4.32471208E-01 -4.05466470E-03 -1.58698081E-01 -3.75921356E-02  2.26961376E-02
 -1.23431153E-03 -6.12929668E-02 -1.77398111E-03  1.47112382E-02  5.53556916E-02
 -2.03505562E-01 -5.88809837E-01  6.54005726E-05  1.89235439E-03  4.66672990E+00
  9.04873724E-04  2.83542121E-01 -7.37837130E-01  1.49954604E-03  5.24986771E-04
 -3.59507914E-01  3.09632727E-04  3.53026116E-01 -3.95587166E+00  5.18031040E-02
 -7.69588836E-01  2.93615331E-01  3.52603379E-01 -3.95831483E+00  5.38041819E-02
  7.67417528E-01  2.94883533E-01 -4.81562955E-03 -1.79320981E-02  1.34133783E-01
 -6.27829039E-03 -1.03456563E-01  1.42521416E-02 -1.04661855E-01  2.89120150E-01
  1.01197768E-02  1.11077967E-01 -5.23767247E-02  5.93136229E-03  9.02368546E-02
  1.04334977E-01 -4.92559262E-03 -1.83606275E-02  1.37621558E-01 -6.65339262E-03
  1.01578923E-01  1.50267364E-02 -1.01359388E-01 -2.86022358E-01  1.01909655E-02
  1.10112522E-01 -5.13804192E-02 -4.04637365E-03  8.72779013E-02 -1.05907165E-01
  8.89595769E-02  1.25762205E+00 -7.09003604E-01  6.03866827E-02  4.52126959E-02
  2.17365392E-01  1.94782869E+00 -2.01964331E-01 -2.75921084E-01 -6.28442235E-02
  2.17940689E-01  1.92130185E+00 -2.02643171E-01  2.75200725E-01 -6.58036001E-02
  8.94266365E-02  1.28374256E+00 -7.01343090E-01 -5.79024929E-02  3.84737598E-02
 -1.32127551E-04 -5.16987775E-04  4.38149495E-03 -7.11472560E-04 -3.02574421E-01
 -3.34438094E-04  4.96205594E-03  1.64171018E+00  1.34070765E-02 -1.69993060E-03
 -9.13426976E-04 -2.95059535E-01 -1.75290230E-03  1.71883065E-01  8.33436004E-03
  2.86305859E-02 -5.32288736E-02  1.91617293E-01 -1.67630684E-01  1.25343450E-01
 -1.88924227E+00  3.03071840E+00 -2.54459204E-01  4.74757474E-01 -4.73544215E-01
 -5.62420889E-01 -1.18420511E-01  8.94491748E-02 -1.24732585E-02 -5.77253587E-02
  8.73769715E-01 -1.49659606E-01  1.32507242E-02  1.12188298E-01 -4.89330135E-01
 -2.79825616E+00  8.87665817E-01 -1.32139640E-01  4.55551899E-01 -5.63628645E-01
 -1.08605601E-01 -1.51177193E-01 -8.13322299E-05 -3.25211988E-04  2.89362207E-03
 -1.32275849E-04 -1.99361559E-01 -5.54855330E-04  1.64146885E-02 -1.31184050E+00
  8.73997121E-03 -2.64910157E-03 -8.05984713E-04  5.46768300E-02 -1.27025818E-03
  1.74977811E-01  1.24895299E-02  5.78219215E-02 -8.75275553E-01  1.47965666E-01
  1.31385136E-02 -1.11901881E-01  4.82112466E-01 -2.80884794E+00 -8.92663183E-01
  1.32786370E-01 -4.56792193E-01 -5.62208734E-01  1.09051902E-01 -1.53427282E-01
 -8.16306269E-03 -2.79174451E-02  4.59836415E-02 -1.92389793E-01 -1.65350852E-01
 -1.24294194E-01  1.90119160E+00  3.02678923E+00  2.43640179E-01 -4.72886572E-01
  4.73888429E-01 -5.58240679E-01  1.18252444E-01  8.92122861E-02 -3.47248675E-05
 -1.40743690E-04  5.94728385E-04 -1.66277612E-03 -4.72585425E-03  1.45139069E-03
  2.95920433E-03  4.24239496E-01 -6.89180587E-03 -1.30267424E-04 -5.31134405E-04
  4.13813851E-02 -1.42974125E-03  1.97394850E-01  9.75230817E-05  3.81942059E-04
 -1.60194906E-03  8.73301499E-04  6.19619583E-02  2.33916379E-03  3.73569510E-03
 -4.98347952E-01 -7.93931804E-03 -5.40178879E-04  2.97188297E-04  6.97768418E-01
 -2.93500127E-03 -2.46615756E-01 -4.80812867E-02 -4.54420433E-01 -2.12149657E-01
 -1.57126296E-01  5.62281508E-01  4.97097622E-02  4.39441829E-01  2.16626647E-01
 -1.56240402E-01 -5.57086928E-01 -8.44716398E-03 -3.28691735E-02  2.62920617E-01
  5.50549946E-02 -3.65921066E-02  1.70641243E-02  8.13516688E-02  1.06013141E-01
 -1.53270980E-02  2.49071982E-02 -2.21419013E-01  1.50872013E-01 -1.25864395E-01
  1.09128169E-01  8.37419484E-03  3.25746605E-02 -2.60379444E-01 -5.43792300E-02
 -3.38681034E-02 -1.63435392E-02 -8.45205879E-02  9.90171775E-02  1.62731953E-02
 -2.14696445E-02  2.19007545E-01  1.50155196E-01  1.28025816E-01  1.06185844E-01
  1.65356021E-01  1.11761060E+00  2.36232221E-01 -1.61141894E-01 -5.13586256E-01
  1.59532931E-01 -1.48256941E+00 -2.99660089E-01  5.88579126E-02 -8.98309377E-01
 -1.59264696E-01  1.49262117E+00  2.96717294E-01  6.12619454E-02  8.97975233E-01
 -1.64285113E-01 -1.11399773E+00 -2.45234162E-01 -1.60376530E-01  5.15409510E-01
  1.71279797E-02  6.63108547E-02 -4.25721037E-01  1.37448481E-01 -1.27537573E-02
 -4.58251267E-03 -1.33441409E+00  5.13700984E-02  2.98443459E-01  5.05378446E-01
 -4.32064323E-02  1.02449660E-02  7.57883899E-02  5.10787487E-03 -8.58592664E-03
 -3.47560486E-02  3.50574845E-01 -7.58364482E-02  3.53901525E-01  4.62094667E-03
  2.86317705E-01 -3.08463904E-01 -1.15774604E-01 -1.27912928E-01  1.06295579E-01
 -5.48478245E-02  1.37655595E-02 -2.17055742E-01 -9.62797018E-03 -3.94186569E-02
  4.10744170E-01  1.53757371E-02  6.80588456E-02 -1.32836864E-02 -9.49504990E-02
  1.15085694E+00 -3.92801154E-02 -5.97340571E-02 -1.92627409E-02  4.23756060E-02
 -9.99536142E-02 -1.44391464E-01  1.27913761E-02  4.99855408E-02 -3.48653499E-01
 -1.09278212E-02 -5.35317870E-03  9.26198255E-04  1.84491610E+00 -5.52193032E-02
 -7.13125116E-02  3.12527440E-01 -1.08241650E-02 -9.32420615E-03  1.73991232E-01
  5.22072170E-03 -8.78813426E-03 -3.55029100E-02  3.49445625E-01  3.16207862E-02
 -6.68035788E-02 -7.64056665E-03 -1.02564706E-01 -1.34803135E+00  4.06681260E-02
 -5.31281488E-02  1.14201423E-03 -1.52866791E-02 -9.76079434E-02  1.24941142E-01
 -9.16445976E-03 -3.66610343E-02  3.49163707E-01 -9.55120264E-02 -3.68359215E-01
  1.00703550E-02  4.51626597E-01  5.11865225E-01 -1.56115891E-01 -1.62477371E-01
  7.56590101E-02  7.19819446E-02  1.86957696E-02  2.27729589E-01  3.65873330E-03
  1.43755534E-02 -5.76069675E-02  4.02595392E-01  8.24369069E-04  1.80707454E-02
 -6.22937186E-01  2.22407589E-02 -6.53270654E-02 -2.63561204E-02  3.78257073E-02
 -3.88903595E-03  2.85563938E-01  9.44609986E-03 -5.26027271E-03 -2.22984367E-02
  1.16833232E-01 -3.70812716E-01 -3.27307744E-03  8.24320130E-02  1.87291363E+00
  2.11691596E-02 -2.39765231E-01 -4.19139965E-01 -7.34853618E-02 -1.99113553E-02
  1.14132008E-01  2.69706724E-03  7.80834909E-02 -1.17134056E+00 -1.87880221E-01
 -2.70541715E-01  2.33930281E-01  7.71257968E-02 -1.17719794E+00 -1.76678952E-01
  2.47705665E-01  2.71251555E-01  2.72993454E-03  1.20300081E-02 -1.22246401E-01
 -1.86597706E-02  2.31333483E-01  1.08027161E-02  3.10222487E-01 -5.98169772E-01
  1.32858259E-03 -2.71627967E-01 -3.88991374E-02 -5.09803071E-03 -2.72473659E-01
 -2.52156115E-01  3.57802030E-03  1.53373746E-02 -1.48938147E-01 -2.20059157E-02
 -2.31786610E-01  1.42059500E-02  2.99090955E-01  6.04474275E-01 -1.16576136E-03
 -2.70900482E-01 -4.98517831E-02 -4.80852711E-04 -2.59323396E-01  2.62480973E-01
  8.33599081E-03  5.00659976E-01  6.92853090E-01  2.18699295E-01  4.15882158E-02
  4.90828312E-02  2.41111248E-01  1.90407494E-01  9.24717786E-02 -1.09637269E-03
  3.71529484E-02  3.61167171E-01  2.36160127E-01 -9.45602164E-02 -5.01292689E-02
 -6.27102721E-03  4.38291685E-01  6.59887491E-01 -2.33313758E-01  2.93697172E-02
  6.11886996E-04  2.37049688E-03 -1.57271856E-02  4.78520652E-03  3.68800495E-01
 -1.35600966E-05 -4.35151045E-02 -2.40763322E+00  2.04046291E-03  1.73576082E-02
 -9.93759633E-04 -3.15302526E-01  3.70748813E-03 -1.40441028E-01 -5.24030437E-03
 -1.44403084E-02 -1.61468776E-01 -2.87058151E-01  2.11298025E-01  9.90063721E-02
  3.14222336E+00 -2.88591244E+00 -4.88574385E-01 -4.26183374E-01 -5.06458232E-01
 -3.53874262E-01  1.11614046E-01 -1.81165595E-01  9.15916686E-03  4.45516977E-02
 -7.70192251E-01  2.11600883E-01 -4.57694885E-03  1.02263167E-01  7.97138038E-01
  2.84436350E+00  1.18588597E+00  1.02132926E-02  3.72453201E-01 -4.94862958E-01
  1.73451446E-02  2.69255573E-01  4.70860947E-04  1.85434785E-03 -1.37976313E-02
 -2.05810961E-04  1.72373435E-01  2.54035889E-04  5.29364426E-02  2.45598268E+00
 -1.03620312E-02  1.11983974E-02  6.22373189E-04  2.43983111E-01  5.79189707E-03
 -1.18906071E-01 -9.80264927E-03 -4.71718388E-02  7.96517474E-01 -2.10119621E-01
 -9.09232967E-03 -1.02972982E-01 -7.98578167E-01  2.77040667E+00 -1.17798780E+00
 -1.53599746E-02 -3.69629042E-01 -4.97985274E-01 -2.45835052E-02  2.79193318E-01
  4.63507509E-03  1.19880998E-02  1.85870473E-01  2.81422343E-01  1.87395778E-01
 -9.87774598E-02 -3.12574085E+00 -2.85847268E+00  4.85917396E-01  4.15569488E-01
  5.11046856E-01 -3.52906471E-01 -1.09664359E-01 -1.66552352E-01  1.13589532E-04
  4.47810407E-04 -1.76220333E-03  1.41923730E-02 -9.84391672E-03  1.25198057E-04
 -2.22950394E-02 -5.20964897E-01  5.90257476E-04 -1.00322437E-03  1.32069109E-03
  1.31290209E-01  1.00512698E-02 -2.11569282E-01 -2.05975219E-04 -8.58261779E-04
  4.28806944E-03 -1.19630458E-02  1.15961400E-01  1.55069387E-03  5.72678003E-02
 -8.76517959E-01 -3.64668741E-03 -1.23781222E-02 -2.08284470E-03  6.26060271E-01
  5.46164668E-03 -7.10135626E-02 -2.44037542E-02 -2.27214511E-01  1.99344509E-01
  3.53315533E-01  5.84331801E-01  2.83543800E-02  1.58642008E-01 -2.12344582E-01
  3.70053487E-01 -5.71003606E-01  1.10187509E-02  4.30467667E-02 -3.47972338E-01
 -5.12826609E-02  3.25645406E-02  5.44010264E-02 -1.08258933E-01 -1.45279071E-01
 -3.60813196E-02  3.58073279E-03 -1.89727490E-01  8.98071184E-02  1.42673198E-01
 -1.36953070E-01 -1.07759945E-02 -4.20064350E-02  3.37826969E-01  4.99373089E-02
  1.65345388E-02 -5.40238719E-02  1.29635433E-01 -1.03334739E-01  3.61498483E-02
 -2.22148491E-02  1.87924314E-01  9.04487869E-02 -1.60956898E-01 -1.19438800E-01
 -2.13882646E-01 -5.19410276E-01 -4.21394773E-01  2.28135052E-01 -3.15478652E-01
 -1.75883497E-01  1.39983740E+00  6.15045569E-01  1.17022453E-02 -8.30192789E-01
  1.78203072E-01 -1.38570413E+00 -6.00354414E-01  4.07959416E-03  8.26835614E-01
  2.13256616E-01  5.50875988E-01  4.69372840E-01  2.12667377E-01  3.17267494E-01
 -8.20960028E-06 -6.27949318E-06 -1.19060929E-03  5.54578034E-04 -3.05958046E-02
  3.49890928E-05 -3.40074610E-03  4.38388113E-01 -3.57496286E-03 -2.18575751E-03
 -6.15900042E-04 -8.22406910E-02 -1.05481918E-03  9.43655719E-03 -6.66929770E-04
 -3.42420673E-03  6.55505670E-02  3.99982222E-02 -1.80197407E-02  1.49489698E-02
 -5.77388942E-01  1.74313132E-01  1.69390570E-01  1.50447412E-03 -4.69856661E-01
 -1.26230943E-01 -1.35810927E-02  3.31294754E-02  5.19279125E-04  1.59283224E-03
  8.82948075E-03 -1.60516834E-02 -3.13194348E-03  1.21437532E-01 -3.04934859E-01
 -1.67632082E-01  4.90140285E-01  3.62888665E-02  4.23786333E-02 -6.68165494E-01
  3.84203057E-03 -3.77314852E-02 -6.31627635E-05 -2.74480161E-04  3.79752318E-03
 -7.27028333E-04 -9.30446800E-03 -3.50522840E-05  2.18391505E-02 -5.94988606E-01
 -1.58238986E-03 -1.47962287E-03 -3.52483212E-04  1.34352994E-01  1.05694551E-03
 -2.81219789E-02 -5.17155766E-04 -1.57382672E-03 -8.70717060E-03  1.58914048E-02
 -3.58913748E-03 -1.21339410E-01  3.03063556E-01 -1.79878027E-01 -4.90338835E-01
 -3.41943880E-02 -4.19488025E-02 -6.68542047E-01 -2.79589892E-03 -4.16017737E-02
  7.54720864E-04  3.82950940E-03 -7.10168179E-02 -3.87732068E-02 -1.62762025E-02
 -1.50622009E-02  5.83444094E-01  1.53599305E-01 -1.63791040E-01  4.46243405E-04
  4.68471920E-01 -1.27245829E-01  1.77305603E-02  3.39863369E-02 -2.69734373E-05
 -1.07683353E-04  5.48559460E-04  2.82538409E-04  6.51414660E-03 -1.07078571E-05
 -4.09955887E-03  3.34805151E-02  8.21152597E-05 -1.22668854E-03 -2.20944873E-05
  6.71714445E-01 -2.16817751E-04  8.74794253E-03  2.40781644E-05  8.83045838E-05
 -3.27485272E-04 -1.09515925E-03 -6.17746586E-02 -3.43915550E-04  1.45402176E-02
  5.95438275E-01  2.70150529E-03 -2.14709781E-03  3.37561017E-04 -2.83443673E-01
 -1.36245447E-03  1.04556785E-01  2.43480811E-02  3.63713120E-01 -5.99901388E-02
 -5.08527423E-02 -2.00688844E-01 -2.32371801E-02 -3.88618213E-01  6.09990415E-02
 -4.53729918E-02  2.01293024E-01 -9.21950138E-04 -3.62116829E-03  2.96163310E-02
  3.71392296E-04  3.32947782E-03  2.13988079E-01  1.42085239E-02  6.79734347E-03
 -3.55253488E-02 -7.33715594E-03  3.42126227E-01 -6.44122155E-01 -1.06672970E-02
  1.06000010E-02  1.03008622E-03  4.05050217E-03 -3.32757147E-02 -5.19777328E-04
  2.68338051E-03 -2.14140109E-01 -1.35093942E-02  9.83984167E-03  3.59860151E-02
  9.95607285E-03 -3.41557955E-01 -6.44407676E-01  1.15542415E-02  9.96171402E-03
  2.36287479E-02 -1.37810393E-01  7.94592180E-02 -3.33464346E-02 -5.83842927E-01
  1.90155763E-02 -1.88757212E-02 -8.89885848E-02 -1.03583121E-02 -5.81229233E-01
 -1.85479152E-02  3.14692501E-02  8.47685204E-02 -8.39029889E-03  5.81612025E-01
 -2.37211591E-02  1.55760560E-01 -7.59254728E-02 -2.98218794E-02  5.81531049E-01
  3.74363959E-05  1.32129898E-04 -9.20255529E-05 -2.21941578E-04  6.59193849E-02
  1.85839792E-04 -2.39130752E-03  1.32855270E+00  4.52941393E-03  2.80537148E-03
  5.02265527E-04 -3.13455238E-01 -3.41765589E-04 -1.14459164E-01 -1.91519078E-02
 -8.21939125E-02  9.99085854E-01  3.48222567E-01  4.38154560E-02 -1.71726638E-02
 -2.92426495E+00 -1.50492529E+00 -8.45381585E-01 -4.93984401E-01 -1.47323056E-01
  2.16044344E-01 -3.91771812E-02  2.83228484E-01  1.73489382E-02  6.57204332E-02
 -4.37700765E-01  2.49859347E-02 -2.00538958E-01  3.40506450E-02 -1.33204790E+00
  2.18191260E+00  9.84924691E-01  7.54320117E-01 -2.58923197E-02 -1.56720387E-01
 -2.42095679E-01  6.08735434E-03  6.77481586E-05  2.83862673E-04 -3.20463541E-03
  7.15314261E-04 -3.99291303E-01  2.36768133E-04 -1.33376701E-02 -2.28046190E+00
  8.03406176E-03  2.03140198E-03  6.49915746E-04  4.66270657E-01 -2.66171312E-04
 -4.22736374E-01 -1.73415541E-02 -6.56939663E-02  4.37020105E-01 -2.40507314E-02
 -2.00857268E-01 -3.34782947E-02  1.33300233E+00  2.18687560E+00 -9.90627467E-01
 -7.56935738E-01  2.28447352E-02 -1.53718328E-01  2.41440296E-01  8.24269812E-03
  1.90302282E-02  8.16756027E-02 -9.93116568E-01 -3.49322893E-01  4.14022838E-02
  1.71564568E-02  2.92743709E+00 -1.49129866E+00  8.40975617E-01  4.91367459E-01
  1.47888671E-01  2.17215078E-01  3.52911407E-02  2.83121621E-01  4.32545684E-05
  1.71013581E-04 -8.44274774E-04  2.86081263E-04  1.39455177E-01  5.54688346E-05
  2.64706670E-03 -1.18492870E-01 -1.27702220E-03  9.81027786E-04 -1.02676096E-03
  2.36999025E-02  5.67499476E-04 -1.23150849E-01 -2.50472329E-05 -9.74338170E-05
  4.29594644E-04 -7.01348083E-05 -3.50502326E-01  8.46938628E-04 -5.25286030E-03
  3.21476823E+00 -4.16049798E-03  7.37021262E-04  4.94356365E-04  1.24388195E-01
  1.02500577E-03 -2.97201198E-01  1.74767327E-01  1.63208784E+00 -7.61841870E-01
 -3.82234336E-01 -4.83387917E-02 -1.75447298E-01 -1.61805963E+00  7.59524256E-01
 -3.85322784E-01  4.95642742E-02 -1.43453960E-03 -5.78815011E-03  4.64982219E-02
 -8.99606595E-02  1.41118247E-01  2.68267226E-02  1.47010794E-01 -1.74620964E-01
 -4.95256645E-02 -1.61821166E-01 -1.44295444E-01  1.11761372E-01 -8.99662979E-03
 -2.16505396E-03  1.34383525E-03  5.43187652E-03 -4.35075118E-02  8.97936887E-02
  1.40583153E-01 -2.67904565E-02 -1.46444722E-01 -1.74832586E-01  4.91401368E-02
  1.58949144E-01  1.44680765E-01  1.11704895E-01  7.91471334E-03 -8.75803229E-04
  7.74938102E-02 -2.12685695E+00  8.88552844E-01 -1.62980588E-01  3.32045088E-01
  1.99756674E-01  1.62570159E+00 -1.71973494E-01 -5.26335721E-02 -3.06430852E-01
 -1.99898004E-01 -1.63316266E+00  1.74528681E-01 -5.42821354E-02  3.07566386E-01
 -7.76083473E-02  2.11570534E+00 -8.91981704E-01 -1.67076088E-01 -3.33608510E-01
 -2.04191934E-03 -1.48388217E-02  5.59729582E-01 -7.58609434E-02 -1.99091535E-04
  3.43244239E-03 -1.23277296E+00  1.01919736E-02 -9.27007799E-03  7.17264466E-01
  8.42140884E-02  4.54573316E-03 -5.66932453E-01  1.10058498E-04 -1.37652844E-02
 -6.05638805E-02  7.74129737E-01 -2.53955446E-01  2.85761032E-01 -1.66917596E-02
  2.13853882E+00 -1.85044574E+00  7.33124062E-02 -3.26360415E-01  1.34754675E-03
  9.54763553E-03 -7.39534522E-01  3.60734622E-01  4.80866244E-03  1.99879631E-02
 -2.80711451E-01  1.26045881E-01  5.66055166E-03  2.74579115E-02 -1.30467884E+00
 -4.59218341E-01 -2.93956160E-01 -2.32544517E-01 -6.74599250E-02 -9.68670685E-02
 -2.77650895E-01 -2.51957093E-01  4.85784748E-03  2.33509035E-02 -3.84448235E-01
  1.29347778E-01  5.42345816E-05  5.92096875E-03 -7.75058045E-01 -2.47690116E-03
  6.85577687E-01  2.29082611E-01  1.40430226E-01 -3.05136638E-03 -5.32483509E-01
  1.23295368E-03  4.82617202E-03  2.00537955E-02 -2.81180037E-01  1.25452505E-01
 -5.30755418E-03  2.72266575E-02 -1.28960807E+00  4.52785362E-01 -2.80648598E-01
 -2.32142948E-01 -7.19495751E-02  9.80629396E-02 -2.78934154E-01  2.52990240E-01
 -1.37517802E-02 -6.05117911E-02  7.73651762E-01 -2.53136041E-01 -2.85452555E-01
 -1.78450003E-02  2.14544243E+00  1.85446354E+00  5.18190404E-02 -3.26795958E-01
  2.58656032E-03 -1.44233351E-02 -7.39590223E-01 -3.60821577E-01  1.67391440E-02
  6.68562313E-02 -3.65890578E-01 -1.46397215E-01 -5.47398807E-04 -4.69224733E-03
  1.85402459E+00 -7.93769798E-04  2.69183431E-02  3.11977710E-01 -3.87004086E-02
  1.28616051E-03 -5.43239735E-02 -5.58813180E-04  1.04336128E-02  4.18602340E-02
 -1.91182295E-01  1.72439928E-01  7.35859306E-04  9.16709822E-02 -2.05106668E+00
 -8.33153851E-03 -6.59573959E-01  1.86040046E-01 -5.42035902E-02  2.63410891E-03
 -1.31298277E-01 -1.15429131E-03  9.40399652E-02  1.10390760E+00  2.18950155E-01
  5.35557324E-01  5.23189800E-02  9.47190323E-02  1.11778505E+00  2.16277444E-01
 -5.35497395E-01  4.76838353E-02 -2.23123746E-02 -8.77848594E-02  7.45736329E-01
  2.78806317E-03 -7.99494011E-02 -1.29875282E-02 -1.68064310E-01  6.08476613E-01
  1.22973538E-02 -3.09780786E-01  4.17932496E-02 -8.82989477E-03  2.35216269E-02
 -6.65408209E-02 -2.23549356E-02 -8.79548005E-02  7.47247674E-01  2.41690542E-03
  7.90087701E-02 -1.32174877E-02 -1.66466884E-01 -6.07159193E-01  1.17511374E-02
 -3.10592790E-01  3.78025942E-02  3.28648544E-03  2.23533544E-02  6.59770667E-02
  2.02346253E-01 -1.73143485E+00 -1.16908186E+00  4.79827873E-01 -2.90476832E-02
  4.95225928E-02 -7.72052773E-01  7.80412918E-01  1.42963567E-01  3.32793060E-02
  5.01374215E-02 -7.76268065E-01  7.77258740E-01 -1.41811225E-01  3.21980670E-02
  2.02771639E-01 -1.73334316E+00 -1.16490591E+00 -4.78517594E-01 -1.78134973E-02
  3.51053138E-05  1.66998889E-04 -2.86789574E-03 -1.25282676E-04  7.87874318E-02
 -1.10802137E-04  6.65110281E-03  4.69928146E-01 -4.17345230E-03 -4.69752416E-04
 -2.69760212E-03  1.06714284E+00  1.23369020E-03 -2.84609551E-02 -7.14994555E-03
 -3.03324750E-02  3.49295942E-01  9.36568148E-02  4.57756436E-02  1.43083419E-01
 -7.98553048E-01 -4.75301019E-01  2.36103382E+00 -1.99245961E-01  1.18489923E-01
 -8.93998372E-01 -3.31432724E-02  6.95777374E-02  5.77902778E-03  2.09265889E-02
 -9.67080307E-02  4.55791943E-02 -9.31413458E-02 -5.19107308E-02 -6.82806239E-01
  8.26811966E-01 -1.72626547E+00  2.94028508E-01  4.62346327E-01  6.43110216E-01
 -1.83656734E-01  6.32389284E-02  7.86933704E-05  3.35211933E-04 -3.44394960E-03
 -9.63287236E-04 -2.06595336E-01 -3.89890593E-04  2.73426810E-04 -4.98658039E-01
 -1.33827760E-02 -2.43904091E-04 -5.91607309E-04 -7.31495866E-01  2.93725891E-03
 -8.74469036E-02 -5.74917277E-03 -2.07689950E-02  9.40579578E-02 -4.58947192E-02
 -9.36037035E-02  5.09312971E-02  7.01272870E-01  8.22616582E-01  1.73674318E+00
 -2.93087379E-01 -4.61863971E-01  6.38281812E-01  1.87584512E-01  5.90183689E-02
  7.16681484E-03  3.04576150E-02 -3.52330547E-01 -9.19474649E-02  4.65002348E-02
 -1.42743551E-01  7.92561633E-01 -4.86068792E-01 -2.35998722E+00  2.00084314E-01
 -1.18207508E-01 -8.95715062E-01  3.63781494E-02  7.30948689E-02 -7.38609950E-05
 -3.00448710E-04  1.62438242E-03  9.76779353E-04  6.62017118E-02 -1.77086137E-04
 -3.63968656E-03 -2.00413820E-01  7.69691915E-04 -7.45607959E-04  1.61753591E-03
 -1.59752942E-01  6.86446724E-04 -8.83313185E-02 -9.86047067E-05 -3.92246017E-04
  1.71648161E-03 -1.63807978E-03  3.46559066E-02 -1.24651395E-03  1.16444150E-02
 -7.48349954E-01  6.15383902E-03 -4.26907672E-04 -2.09995297E-03  9.43545675E-01
  3.25296903E-03 -6.26334536E-01 -1.81811371E-02 -1.01059296E+00 -1.62704941E-01
 -2.03278116E-01  6.10039311E-01  1.64854762E-02  1.00332245E+00  1.57137969E-01
 -1.95098105E-01 -6.09910755E-01  1.40748730E-03  5.55565700E-03 -5.00895160E-02
 -4.47707845E-02  6.62323457E-02 -1.03467009E-01  5.04058366E-02 -1.14263875E-01
  1.50938953E-01 -5.53371404E-02  2.96878371E-01 -1.50215559E-01  1.64826321E-02
 -1.85824677E-02 -1.36673024E-03 -5.39983916E-03  4.87831972E-02  4.54197543E-02
  6.64375889E-02  1.03876279E-01 -4.98242896E-02 -1.12906710E-01 -1.51143391E-01
  5.75813115E-02 -2.98659499E-01 -1.50589950E-01 -1.71062770E-02 -1.96753477E-02
  1.35383787E-03 -6.10663394E-01  3.16270743E-01 -4.69762138E-02 -1.09873025E+00
  1.04743980E-01  6.52041189E-01  2.13382855E-01  4.45736802E-02  5.17380275E-01
 -1.06379267E-01 -6.45176411E-01 -2.22571191E-01  4.65131788E-02 -5.17040583E-01
 -3.29092823E-03  6.27412212E-01 -3.14605156E-01 -4.80815850E-02  1.09926829E+00
  4.41297577E-03  2.17389899E-02 -4.36077046E-01  7.20674507E-02  9.40174288E-04
  1.85290448E-02 -8.94684252E-01 -1.24836267E-02  7.70047300E-01 -3.74683008E-01
  6.13815395E-01  4.26101398E-03  7.17720593E-02 -1.10061774E-03  1.02232537E-02
  4.23560301E-02 -5.02252259E-01  1.03689196E-02 -1.50507522E-01 -5.43745086E-02
 -3.39815355E-01  9.83372329E-01 -3.80597392E-01  2.27146036E-02 -2.08088897E-01
 -3.78527420E-02  1.63844523E-01  2.78351597E-02 -9.83592810E-03 -4.48794162E-02
  6.41196793E-01  6.78091360E-02  9.70536085E-02  1.26486548E-01 -1.15815372E+00
 -1.08897042E+00 -1.07358671E+00  3.22487242E-03 -4.36646774E-01 -7.90241635E-01
 -3.92809534E-01 -2.69759175E-01 -1.98900725E-02 -8.98788412E-02  1.21221372E+00
  1.82851569E-01 -3.55054513E-04  1.52504446E-01  3.18827310E-01  1.38675286E-02
  3.59917682E+00  2.17836003E-01  2.30525331E-01 -2.62239603E-03 -2.45583604E-01
  5.03066293E-04 -9.90420633E-03 -4.51839810E-02  6.45283076E-01  6.74371932E-02
 -9.75159383E-02  1.26875990E-01 -1.18079729E+00  1.11178117E+00 -1.06019267E+00
  1.61220512E-03 -4.38951607E-01  7.95532467E-01 -3.93095510E-01  2.72993191E-01
  1.02725160E-02  4.25304627E-02 -5.03004300E-01  9.81121207E-03  1.51414966E-01
 -5.53564708E-02 -3.57550953E-01 -9.99681741E-01 -3.98159682E-01  2.54195724E-02
 -2.09330993E-01  3.10691474E-02  1.61832637E-01 -2.90949525E-02  3.18701217E-03
  1.37886199E-02 -7.19133756E-02 -4.02933218E-02 -1.29788009E-04  3.56481619E-02
 -6.31820687E-01  4.70770969E-04 -2.37835996E-01 -1.01308006E-01 -3.95838388E-01
 -1.12909634E-03  1.07803638E-02  1.30369851E-04  1.27876820E-02  4.82800596E-02
 -1.55290486E-01  1.98260139E-01 -4.03873281E-04  2.57581143E-01 -1.55614769E+00
 -3.02820433E-03 -1.59540357E+00  1.13424039E-01  4.84070088E-01  2.95632233E-03
 -6.29899926E-01 -1.96638541E-03  3.17560104E-01  1.69145619E-02  5.62691049E-01
  5.82345495E-01  3.96974518E-02  3.16852034E-01  2.72684388E-02  5.61964260E-01
 -5.84752624E-01  3.51763193E-02  1.12823230E-02  4.49386155E-02 -3.89077696E-01
 -5.68693661E-02  8.12077537E-02 -9.35953727E-02  9.26917348E-02 -3.71070353E-01
  1.37040293E-01  1.09841551E-02  2.96260245E-01 -1.61030077E-02  1.15241572E-02
 -6.00957326E-02  1.12796335E-02  4.49305515E-02 -3.89111021E-01 -5.65352999E-02
 -8.11825036E-02 -9.26060644E-02  9.18503293E-02  3.70359720E-01  1.35508869E-01
  1.09700560E-02  2.94364897E-01  1.62552045E-02  1.14893233E-02  6.07626438E-02
 -6.96358199E-02  4.57173700E-01  5.63565605E-01 -2.87301396E-01 -1.58431520E-01
  1.72476253E-01 -8.57231146E-01  7.92123923E-01  2.59150175E-01 -6.44938381E-02
  1.73624993E-01 -8.68800701E-01  7.92486218E-01 -2.59568778E-01 -6.88939402E-02
 -6.85047291E-02  4.57935161E-01  5.62813332E-01  2.88108425E-01 -1.50264416E-01
 -1.20186846E-03 -6.96720940E-03  1.93579200E-01 -9.45199154E-02 -4.67206807E-04
  4.70561592E-02  8.86722795E-01  3.81245744E-02  1.63973141E+00  2.82595294E-01
  6.29536574E-01 -4.71714284E-04 -6.59650994E-02  3.70969681E-03 -7.40857941E-03
 -2.92372425E-02  3.01935852E-01  1.23622726E-02  1.15790784E-01 -3.21376542E-02
  1.00196955E-01 -5.77133686E-01 -1.01937098E+00 -1.53123103E-02 -3.13073103E-01
 -2.09708836E-01 -1.49039753E-01 -5.47377128E-02  6.45028880E-03  2.97339772E-02
 -4.54315378E-01 -2.35709438E-02 -4.29517474E-02  1.11601661E-01  1.24412535E+00
  9.85354459E-01 -7.74775845E-01 -2.17592147E-02 -5.86008515E-01 -9.01400784E-01
  4.46562802E-01  4.14357636E-01  1.41823489E-02  6.18806810E-02 -7.39068305E-01
 -1.43697874E-02  4.61105017E-04  2.40407105E-01 -1.66923523E-01 -5.09354787E-02
  3.72734827E+00 -1.74362890E-01 -4.78269533E-02 -3.31633819E-04  5.83669230E-01
 -3.83396383E-03  6.51153474E-03  3.00266137E-02 -4.58173125E-01 -2.50775332E-02
  4.32351892E-02  1.11670881E-01  1.33653453E+00 -1.04486533E+00 -7.73313983E-01
 -1.76694123E-02 -5.85642336E-01  9.01265377E-01  4.50759697E-01 -4.19377994E-01
 -7.47798409E-03 -2.94815075E-02  3.03789314E-01  1.50719133E-02 -1.16270957E-01
 -3.19282878E-02  1.53059974E-01  6.22953475E-01 -1.01960412E+00 -1.55177325E-02
 -3.13480107E-01  2.11589294E-01 -1.43793266E-01  5.84885692E-02 -5.97279083E-03
 -2.51673602E-02  1.38287880E-01  6.17215234E-02  3.96211713E-04  9.17398120E-02
  3.29153849E-01 -5.11580412E-03 -6.33627870E-01  5.75488471E-02 -5.43637144E-01
  9.71742324E-05  1.24566091E-03 -1.40316107E-03 -1.27665041E-02 -4.93187379E-02
  1.86160301E-01 -2.60664524E-01  7.21751976E-04  2.84593376E-01  2.38512540E+00
  1.30904535E-02 -1.16448532E+00 -2.24859050E-01  8.60475956E-01 -2.03934463E-04
  4.93619958E-01  3.31257241E-03 -3.10219063E-01 -4.91334133E-01 -6.42877771E-01
 -6.87430317E-01  5.36144040E-03 -3.06321320E-01 -5.30139934E-01 -6.41768303E-01
  7.02959402E-01  8.09728988E-03 -7.47410874E-03 -3.00987580E-02  2.67067545E-01
  5.58026611E-02 -6.47399143E-02 -9.57007900E-02 -7.65954784E-02  2.68900808E-01
  1.80207472E-01  4.29862924E-02  3.28747198E-01  1.42614471E-03 -1.03585550E-02
  6.87390931E-02 -7.55657914E-03 -3.04274322E-02  2.70055915E-01  5.59280777E-02
  6.51937770E-02 -9.58944225E-02 -7.55957291E-02 -2.70089719E-01  1.80366200E-01
  4.33464043E-02  3.28318172E-01 -2.16407578E-03 -1.13305720E-02 -7.04212938E-02
 -8.63800166E-03 -1.78254523E-01 -4.50835967E-01  2.70313076E-01 -1.84853037E-01
 -1.78257161E-01  1.03150597E+00 -8.29047716E-01 -1.85851683E-01 -2.04279980E-01
 -1.80352068E-01  1.05161403E+00 -8.42783300E-01  1.90063562E-01 -2.05375673E-01
 -1.06535425E-02 -1.73861808E-01 -4.51314874E-01 -2.73523585E-01 -1.85644732E-01
 -5.52594791E-05 -2.52216046E-04  3.86238767E-03  3.22558688E-05  8.28257987E-02
  3.75535564E-04  1.38429712E-04 -3.89411257E+00  6.83364170E-03  7.45318020E-04
  2.58847651E-03  3.15249824E-02 -9.20040970E-04 -6.42745727E-01 -6.72757481E-03
 -2.34460044E-02  1.69577144E-01  1.79101856E-01  8.24599549E-02  7.99526812E-03
  2.32659382E+00 -2.39566087E+00 -9.27184042E-03 -5.58210966E-02 -5.43022255E-02
 -4.68382220E-02  4.60586521E-01 -2.67032549E-01  2.06245084E-03  1.45458268E-02
 -2.63608761E-01 -1.46565590E-01 -1.90692054E-02  7.78654996E-03  5.95633346E+00
  3.57696697E+00  1.30509070E-01  3.72934033E-01  9.70053917E-03  4.76827930E-03
  7.05404788E-01  6.25513698E-01  3.25565952E-05  1.62193858E-04 -2.73054564E-03
 -6.02030354E-04  1.23824675E-02  7.69766701E-04  1.10176498E-02  7.78599732E+00
  1.13317973E-02 -3.98392132E-03 -9.53041260E-04  8.19307609E-02  3.81692099E-03
  1.24755617E+00 -1.93849855E-03 -1.39927368E-02  2.56112447E-01  1.44780288E-01
 -1.70675390E-02 -7.16264630E-03 -5.94033164E+00  3.55511534E+00 -1.36256011E-01
 -3.70579848E-01 -1.11839253E-02  1.02932887E-02 -6.98016277E-01  6.21021528E-01
  6.64241828E-03  2.30897099E-02 -1.64790180E-01 -1.79149426E-01  8.14909825E-02
 -7.98806200E-03 -2.32468534E+00 -2.38970183E+00  3.36909412E-03  5.71511072E-02
  5.41195656E-02 -4.30234150E-02 -4.62135475E-01 -2.68327570E-01 -2.69626366E-05
 -1.15439310E-04  6.43583931E-04 -1.00572315E-04 -1.54490888E-01  2.47481523E-04
  1.36336007E-03  8.07168918E-01 -1.63124675E-03 -3.03189391E-05 -1.88710798E-03
 -1.18430660E-03 -5.34099387E-04  2.41303515E-01 -4.77061418E-05 -1.75919118E-04
  4.38538360E-04 -1.04261787E-03  1.71441021E-01  1.04759497E-03  1.69641304E-02
 -6.68025460E+00 -4.92220202E-03 -1.95300458E-03  3.05831779E-03 -3.27167321E-01
  1.14091355E-03 -9.66655326E-01  4.81565516E-01 -7.77180217E+00  7.93652034E-01
 -2.14943911E+00  3.13689423E-01 -4.86104333E-01  7.75666117E+00 -8.01170092E-01
 -2.13827126E+00 -3.16297882E-01 -5.82983567E-03 -2.34716151E-02  2.23037935E-01
  4.15307154E-02 -1.01489694E-01 -6.71097888E-04  6.59413240E-03  1.92426072E-01
  1.03455897E-03  6.19406251E-02  1.19436379E-03  1.27868765E-03 -6.68951342E-02
  1.33840755E-01  5.79896183E-03  2.33456805E-02 -2.21848072E-01 -4.14305734E-02
 -1.01100872E-01  1.41547379E-04 -7.44756941E-03  1.90694500E-01 -3.23846187E-04
 -6.17829713E-02  9.88328997E-04  1.58018590E-03  6.71004197E-02  1.33861694E-01
 -1.38509169E-01  4.57563249E-01  1.30000661E-02  1.42205070E-01 -4.54588822E-02
 -3.26520838E-01  2.37829019E+00 -1.07157878E+00 -1.39798431E-01 -6.01559804E-02
  3.24702874E-01 -2.35861282E+00  1.05708288E+00 -1.35076350E-01  5.87849238E-02
  1.39995295E-01 -4.60558019E-01 -1.48348752E-02  1.41493051E-01  4.38778834E-02
 -2.39839256E-02 -1.02446471E-01  1.29310655E+00  2.67999541E-01  9.19680310E-03
 -2.58099589E-03 -1.79360783E+00  4.74592479E-01  3.64869968E-01 -5.01528047E-01
 -1.52653292E-01  3.40320300E-02 -7.29706111E-02 -2.37059957E-02  6.08745759E-05
 -2.32459607E-03  1.64853558E-01 -2.13116284E-02 -1.18617929E-01  1.21917723E-02
  4.69986994E-01 -1.91454222E-01 -8.44752011E-01  3.82429414E-01 -4.92408795E-01
  4.80515312E-02 -1.75367058E-02 -3.08371615E-02  1.34090249E-02  5.32093262E-02
 -5.15558710E-01 -2.62879987E-01 -3.67492045E-01 -4.51289409E-03  8.53435444E-01
  3.56795182E+00  8.92307883E-01  4.90111998E-01 -4.01666246E-01 -1.05836583E-01
  6.19124809E-01 -3.77229503E-01 -2.67734244E-02 -1.14566854E-01  1.19833296E+00
 -1.31768583E-02  2.24573378E-02 -1.14351000E-02  4.33029718E+00 -6.20937489E-01
 -4.02295173E-01 -1.35663016E+00 -3.67446110E-01  2.48919934E-02  4.53324762E-01
 -6.52618926E-02  1.37885053E-02  5.38126438E-02 -4.76289535E-01 -2.61021489E-01
  4.02821988E-01 -7.26701684E-03  1.57083840E+00 -3.87547759E+00  8.55097950E-01
  5.25734712E-01 -4.40661203E-01  1.54583262E-01  6.20679004E-01  4.79991120E-01
 -3.90475111E-04 -5.10901843E-03  2.29771016E-01 -5.09546183E-02  1.22928208E-01
  2.39122759E-03  1.45146921E+00  8.20761259E-01 -9.29655527E-01  3.77206049E-01
 -4.69836552E-01 -7.83257847E-02 -4.77422744E-02 -6.67630646E-02  1.63377641E-02
  6.72517541E-02 -3.68169148E-01 -1.32642037E-01 -2.43050622E-02  6.80266183E-02
  9.26398382E-02  4.23286464E-02 -6.07488108E-01  2.24817192E-01 -1.95986806E-01
 -3.50307478E-03 -7.46365264E-02  3.28457637E-02  9.10011094E-03  3.78322682E-02
 -2.18959183E-01  1.23759701E-01 -7.56427906E-02 -1.20194203E-01  3.48613208E+00
  9.68924353E-01  9.91315992E-01 -3.18128479E-01 -5.98155400E-02  7.71936677E-02
 -7.27823628E-01  6.97459044E-02 -2.50220165E-01 -1.97656757E+00  6.27563433E-02
 -4.80389484E-01  7.20199163E-02 -1.92664014E-01 -3.85085920E+00  3.42624282E-01
  8.25619933E-01  1.09885119E-01  2.62135394E-03  1.11913918E-02 -1.08404589E-01
 -8.52891799E-02  9.38222081E-02 -1.13101365E-02  1.09641141E-01 -2.69570054E-01
  8.13870648E-02 -2.81874755E-01  5.31537925E-02  6.94674652E-02  3.80786247E-02
 -1.43359011E-01  3.19037387E-03  1.35259862E-02 -1.32858624E-01 -9.89310945E-02
 -1.20078565E-01 -6.95351735E-03  1.13019193E-01  2.99214252E-01  7.43709979E-02
 -3.07990476E-01  4.68260615E-02 -6.62495225E-02  4.74189500E-02  1.59416854E-01
  3.17228281E-02  5.67151730E-01  5.91655133E-01 -1.63987577E-01 -9.34727399E-04
  6.11422908E-02  1.58098874E+00 -1.38315593E+00 -8.24319575E-01 -6.61274665E-02
  1.18344468E-01  1.37525613E+00 -1.37203713E+00  8.79770862E-01 -7.92174880E-02
  7.47912172E-02  3.43072330E-01  5.35054615E-01  1.59781993E-01  3.78634370E-02
  2.56418189E-03  1.09371584E-02 -1.37555441E-01 -2.89697497E-02  8.28283022E-02
  4.34365617E-04  1.92933578E-01  3.96964275E+00 -3.49802865E-02  5.46947961E-02
  1.81442384E-02  2.91044071E-01  7.39975215E-03 -2.35918222E-01  2.11365012E-03
  1.33661523E-02 -3.21569278E-01  1.40908295E-01  3.27961200E-02  4.33609145E-02
 -4.29346178E+00  2.76935555E+00  4.59737346E-01 -6.84248838E-03 -4.49839989E-02
 -1.42187692E-01  1.46312817E-01 -4.58128720E-01 -3.34019527E-03 -8.89669433E-03
 -1.29603886E-01  1.20696871E-02  2.05547631E-01  1.29563578E-02 -3.02388007E+00
 -1.58541418E+00  7.66905137E-02 -2.18519709E-01  2.25010606E-01  2.34936797E-01
 -5.60397263E-02  5.39282936E-01  2.88683212E-03  1.23716197E-02 -1.30027339E-01
  7.65997235E-04  2.09274660E-01  1.20959490E-03 -4.59280211E-01 -5.24759799E+00
  4.34869159E-02  1.43821433E-01  3.84156715E-02  2.26579220E-01 -4.86449953E-02
 -5.90010521E-01  4.68350905E-04 -2.36686063E-03  2.32794904E-01  4.34441971E-02
  1.23743850E-01 -1.16732391E-02  2.76342672E+00 -7.97030681E-01 -2.68631519E-01
  1.11214404E-01 -1.30685447E-01  2.07524989E-01 -7.46555665E-02  4.42943899E-01
 -2.12450106E-03 -1.27684149E-02  2.82074507E-01 -1.33385005E-01  6.08060650E-03
 -4.46856519E-02  4.08888316E+00  2.65949522E+00 -2.67535715E-01 -7.48692807E-02
  1.49986541E-01 -1.26059834E-01 -1.40492729E-01 -4.57202316E-01 -1.79028617E-03
 -7.37330475E-03  4.04156586E-02  1.39635709E-02 -2.32384540E-01 -7.27953550E-03
 -9.11966124E-03  4.43090336E-01  6.61784728E-02 -2.48533667E-02  2.08055896E-02
 -3.16212862E-02  7.34939840E-03  3.16823529E-01 -9.89140138E-04 -4.10120890E-03
  2.34401836E-02 -1.40464319E-02 -7.05600288E-01  1.29705655E-02 -3.63766394E-01
  8.94950766E+00 -1.01808045E-01  3.38672165E-02  8.46862176E-03  7.03802822E-01
  7.98121681E-02  6.45126855E-01 -2.37060898E-01  8.96051391E+00 -1.31626169E+00
  1.64917393E+00 -1.82406191E-01  2.82641738E-01 -8.34200444E+00  1.27099413E+00
  1.51278847E+00  1.64711007E-01 -3.06460265E-03 -1.26363909E-02  1.31970148E-01
  7.61898056E-02 -1.38562714E-01 -1.78723366E-02 -3.54825804E-02  1.81537230E-01
  2.17618138E-02  1.52530596E-01  2.48953310E-02  3.56712856E-03 -4.94948211E-02
  8.67580123E-02  2.45334638E-03  1.00279094E-02 -1.06285143E-01 -5.64768537E-02
 -1.15255158E-01  1.98250372E-02  1.05246023E-02  1.19190340E-01 -3.88040869E-02
 -8.82717776E-02 -3.51672102E-02  1.86339786E-02  4.06403947E-02  5.43169328E-02
 -2.04969843E-01  1.01228764E+00  1.62903037E-01  1.91040282E-02 -1.71301954E-01
 -2.84715321E-01  8.45951380E-01  4.26064955E-02  3.31101753E-01  6.26613507E-02
  2.64285502E-01 -1.15023947E+00  2.48324414E-01  1.49344258E-01 -4.81401775E-02
  1.95275982E-01 -1.11520107E+00 -2.84921769E-01 -1.49227039E-02  1.66804548E-01
 -1.78064901E-02 -7.20311307E-02  7.49396267E-01 -4.00556713E-02  5.04789820E-05
 -8.80197118E-03  4.31873174E-01  2.04776332E-02 -1.86811195E-01 -4.23476783E-01
  5.70250636E-03  1.20303078E-06  2.42842848E-01 -5.44252230E-04  6.42533341E-03
  2.75103752E-02 -3.78925358E-01 -1.69808750E-01 -2.06833789E-01  9.80153794E-04
  2.57370940E+00 -1.45146620E-01  1.81828790E-01  6.77542145E-01  7.72203558E-02
  2.52784622E-02 -1.75779956E-01 -1.12560139E+00 -1.06785715E-02 -5.03373140E-02
  6.49100018E-01 -9.27682473E-02  1.73936448E-01 -3.72670166E-03  3.06820791E+00
 -1.09434435E-01 -5.84684919E-02 -8.09865518E-01  1.01454939E-01  5.17776683E-02
 -2.21211654E-01 -1.18325047E+00  2.03924679E-02  7.65452335E-02 -6.84682308E-01
  2.80283759E-01  5.42086838E-04  1.49732605E-02  7.28500708E-01 -1.91325419E-02
 -1.30609020E-01  4.92059284E-01  7.53312961E-02  9.43724718E-04  5.19053084E-01
  4.37259202E-04 -1.06410998E-02 -5.01858885E-02  6.47386923E-01 -9.12465679E-02
 -1.73362875E-01 -3.80173897E-03  3.08794793E+00  9.42060284E-02 -6.35113874E-02
 -8.08411377E-01  1.03033279E-01 -5.06833041E-02 -2.19795875E-01  1.18410795E+00
  6.43942957E-03  2.75605436E-02 -3.79642891E-01 -1.69974428E-01  2.06888474E-01
  1.30475155E-03  2.60590549E+00  1.70449121E-01  1.83125669E-01  6.74597525E-01
  7.99144250E-02 -2.58076137E-02 -1.74683847E-01  1.12030677E+00  5.16725670E-03
  2.11650803E-02 -1.13356539E-01 -4.74512690E-02 -1.44076473E-03 -1.64682416E-02
  1.88465816E-01 -1.38994361E-03  1.50768219E-01  5.00160465E-01  6.46184283E-02
  6.39834702E-04 -1.43311717E-01  1.10225797E-03  1.14778611E-03  3.77539960E-03
 -1.72856093E-03  4.95798212E-02 -6.00592733E-04  2.26901753E-03  9.61262643E-01
  5.32261847E-03  6.86811490E-02 -3.62857264E-01  1.14382100E-01 -3.05323230E-04
  1.13817839E-02 -6.34160617E-04 -3.33999430E-03 -9.03045959E-01  5.75845540E-03
 -1.40696974E-01  2.66027601E-03 -3.83918239E-03 -9.06454203E-01  6.87991337E-03
  1.39942013E-01  3.88753190E-03 -6.33463483E-03 -2.64713992E-02  2.45573743E-01
  3.70109293E-02  1.08908463E-02  6.20233965E-03 -7.11786837E-02  8.99170197E-02
 -2.45267102E-02 -1.49796895E-01 -2.56347720E-02 -1.11815462E-02  1.04533166E-01
  2.83345773E-02 -6.41388716E-03 -2.67819343E-02  2.48125818E-01  3.65322178E-02
 -1.18983899E-02  6.20905979E-03 -6.94979092E-02 -9.01721819E-02 -2.45849330E-02
 -1.50536179E-01 -2.61927900E-02  1.00172111E-02  1.04614231E-01 -3.02762683E-02
 -6.06652847E-01  3.45661581E+00 -7.25807053E-01  8.75826727E-01  1.69223647E-02
  9.04426403E-02 -2.93281970E+00 -6.28364699E-01 -3.10063181E-01  9.60248691E-03
  9.04691604E-02 -2.93050850E+00 -6.29170676E-01  3.11717688E-01  9.75713471E-03
 -6.04983000E-01  3.44011455E+00 -7.29188650E-01 -8.75254127E-01  1.61087711E-02
  7.07729341E-03  2.99743852E-02 -3.72818778E-01 -8.94309096E-02 -1.24405514E-03
 -3.11415896E-03  4.14543321E-01 -1.53002376E-02  3.31245557E-01  1.94410527E-01
 -1.19238632E+00  1.40914725E-03  6.02786895E-02 -1.18338215E-03 -1.22202664E-03
 -4.57918032E-03  1.23952953E-02 -3.56010486E-03  4.96487249E-02 -3.32558305E-02
 -7.47650717E-02 -8.67543278E-02 -2.69950793E+00 -1.28531198E-01 -1.52229178E+00
  5.92934716E-01 -5.43267960E-02 -1.27153501E-01 -4.22764826E-03 -1.78317830E-02
  2.01963870E-01  7.63512181E-02  1.12865697E-01  1.01080055E-03 -2.16877659E-01
 -8.01572593E-01  3.09798419E+00 -1.61771075E-01 -1.79300215E+00 -6.72349446E-02
 -2.23300264E-01  1.30848186E-02  7.32796142E-03  2.96982787E-02 -2.92583979E-01
  6.05298396E-02 -2.53449357E-05 -1.99761562E-02 -9.93867342E-01  4.18922405E-02
 -1.44779247E+00  4.51541741E-01 -1.50918848E-01  2.99579263E-03 -7.21089664E-02
  1.42694708E-03 -4.09776599E-03 -1.72900762E-02  1.94944370E-01  7.98336232E-02
 -1.11963293E-01  3.93599334E-04 -3.01511350E-01  8.39602114E-01  3.09545776E+00
 -1.59407950E-01 -1.79812856E+00  6.56432302E-02 -2.28296639E-01 -1.45601466E-02
 -1.11974625E-03 -4.16318561E-03  6.13145557E-03 -2.80052221E-03 -4.94907908E-02
 -3.33996867E-02 -1.26715375E-01  7.13349846E-02 -2.70481595E+00 -1.36809234E-01
 -1.52347369E+00 -5.88042696E-01 -6.03075176E-02  1.20139252E-01 -5.56276825E-03
 -2.29006049E-02  1.28175244E-01  2.07042528E-02 -2.46200616E-03  1.99490552E-01
 -2.01101552E-02 -3.27860341E-03 -2.27986761E+00 -7.53536643E-02 -6.04866068E-01
 -2.45387428E-04 -4.43653227E-03  2.30945623E-03 -3.25085004E-03 -1.36558501E-02
  8.17182705E-02 -6.27335149E-03 -6.98686102E-04 -2.47643231E-01 -8.52723228E-01
  2.03353367E-03  7.66156387E-01 -3.01911375E-02 -1.08267508E+00  1.18912576E-04
 -2.52416731E-02  1.27330800E-03  6.37225622E-02  6.12944024E-01  4.41953045E-02
  2.65582546E-01  3.66947569E-01  6.19550717E-02  6.10550259E-01  4.53991565E-02
 -2.69521773E-01  3.67378899E-01  4.85582582E-05 -1.45658673E-04  7.77430668E-03
  2.03475215E-02 -2.67984796E-02 -7.96298297E-03 -4.61684130E-02  6.37920847E-02
  2.68068470E-01  8.57139998E-02  1.13397665E-01  2.80731675E-01  3.72877645E-03
  2.32909433E-02 -1.89682186E-04 -1.08919528E-03  1.58033989E-02  1.99551967E-02
  2.59477514E-02 -7.87635687E-03 -4.38643973E-02 -6.84165024E-02  2.67799363E-01
  8.53250304E-02  1.13528733E-01 -2.79995147E-01  3.13152790E-03 -2.92043217E-02
 -6.39871348E-02  2.61597697E-02 -2.15864398E-01  1.50664470E-01  2.84893627E-01
 -2.21907055E-02 -4.80622490E-01  4.09570099E-01  2.37212714E-01  1.73218101E-02
 -2.28388770E-02 -4.77659723E-01  4.24882214E-01 -2.43320697E-01  2.06481734E-02
 -6.05776605E-02 -1.07186802E-02 -2.18112428E-01 -1.45119392E-01  2.82183062E-01
 -1.34627756E-05 -5.69182236E-05  5.56841316E-04 -1.23339982E-03  5.46997369E-02
  1.13351979E-05  2.92538796E-03  6.10980241E-01  3.13873682E-03  1.51029796E-04
 -5.07821774E-03  9.34286592E-02  1.65523070E-03  7.71745412E-02  4.88328800E-03
  1.87324271E-02 -2.29340209E-01  4.89223405E-02  5.53268230E-02  1.16802023E-02
 -2.57611963E+00 -3.65845413E-01  3.46212889E-02 -6.31259242E-01 -8.41983483E-02
 -3.95488731E-02 -8.13253678E-02  9.88790295E-01 -1.90948004E-03 -3.70134039E-03
 -8.73970272E-02  2.92067397E-01  8.67319243E-03  4.92995880E-03 -3.97461065E+00
 -9.57221543E-01  1.40443538E-01  4.44351246E-01  4.19164058E-03  7.96623830E-02
  5.16187147E-01  6.16995289E-01  9.00474481E-05  3.53798311E-04 -3.20099836E-03
  2.68803107E-04 -2.98856723E-02 -2.73784792E-04  2.92470448E-03  2.84515288E-02
 -9.01649921E-03  4.03361267E-03 -1.35679864E-03  7.80449012E-02 -4.59852916E-04
  2.19795671E-02  1.80346963E-03  3.22953057E-03  9.33139069E-02 -2.91271977E-01
  6.68008759E-03 -5.14291356E-03  3.97645093E+00 -9.48272291E-01 -1.14741248E-01
 -4.49189557E-01 -1.65747181E-02  7.89544343E-02 -5.21421471E-01  6.21466489E-01
 -4.86833916E-03 -1.86813584E-02  2.28315439E-01 -4.97305170E-02  5.55801288E-02
 -1.16691991E-02  2.58483955E+00 -3.67373911E-01 -5.90175132E-02  6.32115227E-01
  7.35643471E-02 -4.43530857E-02  8.09209754E-02  9.92390796E-01 -3.16820000E-05
 -1.32509125E-04  8.14486341E-04 -8.82381570E-04  3.54231968E-01  5.98719757E-04
 -1.01187672E-03  6.34876808E-01 -1.00135077E-02  7.01132844E-04 -2.33325105E-03
 -4.72231752E-03 -3.98800016E-04 -3.44045945E-01 -9.03529255E-06 -3.69371942E-05
  1.55813837E-04 -7.87612003E-05  8.67900510E-02 -1.13512203E-03 -2.00795739E-03
 -3.22605406E-01  4.94909582E-03 -1.72643162E-03 -4.67452342E-03  3.74266811E-02
  8.42546805E-04  6.39807259E-01 -1.34823502E-01  1.06098092E+00  3.11430429E-02
  3.59894838E-01 -1.66390280E-03  1.34964631E-01 -1.06003025E+00 -3.07534654E-02
  3.58014695E-01  5.24601371E-03 -1.90190485E-02 -7.55426459E-02  6.53327216E-01
 -8.37963196E-03  4.03959281E-02 -3.26654231E-03  1.39639663E-01  4.49511455E-01
  7.45583505E-03 -4.11538204E-02  4.46717907E-03  6.66117810E-03 -7.73464093E-02
  4.73080122E-01  1.90418657E-02  7.56230708E-02 -6.53925242E-01  8.12245550E-03
  4.05706502E-02  3.06407741E-03 -1.40223712E-01  4.48983582E-01 -5.36052635E-03
  4.11964866E-02 -3.88169183E-03  4.49129409E-03  7.83327381E-02  4.73403277E-01
  4.76742542E-01 -3.77352988E+00 -1.41587442E-01 -6.06907031E-01 -4.87509267E-02
 -4.59810050E-01  2.91325873E+00  4.03679328E-01  5.50183529E-01  3.18768331E-02
  4.59497229E-01 -2.92741655E+00 -4.00977265E-01  5.47981057E-01 -3.15762150E-02
 -4.79238211E-01  3.78533637E+00  1.35445356E-01 -6.11910349E-01  5.06325971E-02
  6.45423008E-05  4.93413289E-04 -1.22624628E-02  7.44536406E-03 -3.39585485E-01
  3.12630168E-04  2.51277842E-02 -1.72518112E+01 -2.03286986E-04 -7.52112840E-03
  4.57444869E-03  5.70594369E-01 -1.20918538E-02 -2.97461357E-01 -1.47909086E-02
 -6.17099142E-02  9.41184799E-01 -1.83094220E-01  7.67897097E-02  6.12442199E-02
  1.85789807E+01 -1.09363303E+01  2.27080725E-01  6.06474875E-01 -4.70310461E-01
 -1.62124340E-01  1.05745948E+00  8.66283092E-02 -1.36310484E-02 -5.54431494E-02
  6.89142737E-01 -4.89913494E-02  1.17971924E-01  4.91117699E-02  2.04716942E+01
  1.16650390E+01  9.06444578E-01  2.51546247E-01  6.94712082E-02  4.11566876E-01
  1.10854551E+00 -3.00080113E-01 -1.61378676E-04 -6.03944192E-04  3.49900729E-03
  2.20783813E-03 -2.56573964E-01 -7.42627746E-04 -1.07587571E-01  2.67575153E+01
  9.23614350E-03 -6.38980910E-03 -4.32102874E-03  6.97891057E-01  2.48771990E-03
 -2.38065564E-02  1.39577551E-02  5.69218568E-02 -7.08506308E-01  4.80676933E-02
  1.21477392E-01 -4.92240691E-02 -2.04077356E+01  1.17083960E+01 -9.20281026E-01
 -2.46772773E-01 -6.30937998E-02  4.16308162E-01 -1.08316650E+00 -2.94209853E-01
  1.50820786E-02  6.32200055E-02 -9.65151170E-01  1.93088394E-01  8.10901333E-02
 -6.10114147E-02 -1.86239895E+01 -1.09207260E+01 -2.18120492E-01 -6.02736842E-01
  4.77010775E-01 -1.54082894E-01 -1.04411926E+00  1.04823043E-01  3.71369097E-04
  1.54444478E-03 -9.37080726E-03  7.80152122E-03  1.29820223E-01 -2.60122563E-04
  1.14841037E-02 -6.36193743E-02  4.05100234E-03  6.62996007E-03  4.23170811E-04
 -2.16402420E-02  8.01023373E-03 -2.47617160E-01 -1.07602060E-04 -4.66527666E-04
  3.71143238E-03  1.93898312E-03  4.92467778E-02 -4.30912847E-04 -4.38926140E-02
 -1.36012367E+00 -1.06114961E-03  1.72480344E-02 -1.39505436E-03 -1.38384605E-02
  4.42108910E-03  1.43273628E+00  4.93793819E-02  1.78530475E+00 -2.62701855E-01
 -1.61789794E-01 -8.81376330E-02 -4.28949894E-02 -1.70124649E+00  2.59255737E-01
 -1.74960269E-01  8.24216217E-02  5.03856282E-03  2.07402261E-02 -2.05263676E-01
 -3.70692541E-02  7.87591845E-02 -1.88956964E-02 -6.78821939E-02 -1.51244646E-01
  4.21354825E-02 -1.13301058E-01  2.29034019E-02  4.02310064E-02  1.36867778E-02
 -1.24635619E-01 -5.78190225E-03 -2.36503731E-02  2.30152283E-01  4.37924133E-02
  7.99007497E-02  1.82905156E-02  6.53856873E-02 -1.64297627E-01 -4.18988543E-02
  1.08309312E-01 -2.18677971E-02  4.15219368E-02 -2.98518597E-02 -1.32987184E-01
 -4.95406624E-02  1.63213479E+00 -8.68398302E-01  8.27209968E-01 -2.53814907E-01
 -5.80418610E-02  1.05474082E+00 -2.74092107E+00 -1.23660488E+00  9.93010490E-02
  6.74224588E-02 -1.10350176E+00  2.73236361E+00 -1.21896758E+00 -1.01135901E-01
  5.10598296E-02 -1.62846715E+00  8.74482864E-01  8.35021400E-01  2.49833630E-01
 -3.95029809E-04 -2.57464532E-03  5.77441787E-02 -2.96450933E-02 -4.11133535E-02
 -4.40347435E-03 -1.05447566E-01  2.87818084E+01 -5.94178059E-02  2.83827864E-02
 -8.27791980E-03 -7.14841728E-01  5.13510108E-02  1.07294230E-01 -1.65423767E-02
 -6.73274104E-02  7.78041107E-01  1.17368844E-01  2.01950741E-01 -7.46514244E-02
 -2.22085613E+01  1.37265598E+01 -2.09579282E-01  1.68521876E-01  6.23557996E-01
  2.25168873E-01  8.06748271E-01 -4.62938215E-01 -1.15375840E-02 -4.99994315E-02
  8.42496594E-01  2.12528642E-01  1.50000384E-01 -6.05280784E-02 -2.14248993E+01
 -1.17179456E+01 -1.18406920E+00  5.16576672E-01 -3.54478783E-02 -5.30744354E-01
  3.52062310E-01  6.61669839E-02  5.65844827E-04  2.10636848E-03 -1.15323451E-02
 -9.34287820E-03 -1.51746294E-01  6.10205724E-03  4.72572191E-01 -2.18863437E+01
  2.00642241E-03  1.79371799E-02  2.84704116E-02 -8.88039608E-01 -7.15374940E-03
  3.15149260E-01  1.03653595E-02  4.46824159E-02 -7.73050951E-01 -2.09821027E-01
  1.38956952E-01  6.27884652E-02  2.11926148E+01 -1.18941093E+01  1.18959023E+00
 -5.29718122E-01  3.17813609E-02 -5.36838292E-01 -4.48501330E-01  4.30750383E-02
  1.53782737E-02  6.12694632E-02 -6.81035103E-01 -1.55857251E-01  1.86679893E-01
  7.22179581E-02  2.23679764E+01  1.36753872E+01  2.53460828E-01 -1.82024969E-01
 -6.29197024E-01  1.83790602E-01 -8.52840727E-01 -5.36051641E-01 -1.42377208E-03
 -5.91851961E-03  3.59782780E-02 -3.05193725E-02  1.75581301E-01 -2.58450056E-03
 -5.22913794E-02 -2.57695265E+00  2.15904183E-02 -2.39260341E-02  1.28649818E-02
  2.55573883E-02 -2.98919430E-02 -5.11730570E-01  4.84638425E-04  2.09679990E-03
 -1.63838978E-02 -7.63878532E-03  4.16829516E-02  4.54710187E-03  1.92006701E-01
  5.20929079E-01 -9.50336179E-03 -6.88194037E-02  2.51896904E-02  6.89242389E-02
 -1.48990508E-02 -3.96948538E-01 -3.56206791E-01 -2.32442271E-01 -5.42372260E-02
  2.42434926E-01  2.21402130E-02  3.26658856E-01 -1.24084602E-01  6.47333235E-02
  3.05932526E-01 -1.04765826E-02  3.67340439E-03  1.59248955E-02 -2.06009357E-01
 -9.55347838E-02  1.39370861E-01  2.30426183E-02  2.86242671E-01 -4.18526277E-01
 -5.32178599E-02  1.60360334E-01 -3.09332727E-02 -5.16682748E-02  8.29010560E-02
  2.69592532E-01 -7.41496363E-04 -4.41732170E-03  1.06589672E-01  6.81434783E-02
  1.33669813E-01 -1.99555323E-02 -2.67403992E-01 -3.58658152E-01  4.48930308E-02
 -1.44816738E-01  1.80169255E-02 -5.24131677E-02 -1.64094812E-02  3.02162659E-01
 -2.87492885E-01  2.57783153E+00  2.53289418E+00 -9.27325822E-01  3.26324944E-01
  9.40360780E-02  1.23587435E+00  1.69667055E+00  1.04178560E+00 -1.52326829E-01
 -1.31628830E-01 -1.03377041E+00 -1.67549304E+00  9.75338583E-01  1.58492188E-01
  2.80489502E-01 -2.58291714E+00 -2.53749812E+00 -9.52924900E-01 -3.05675559E-01
 -5.17123221E-03 -3.45261883E-02  7.82466343E-01 -4.43048675E-01 -3.14142870E-03
 -6.20681381E-02 -1.33487529E+00 -2.29611588E+00 -9.18917356E-01  3.68792230E-01
 -1.32477498E-01  5.86294513E-02  7.75997061E-01 -1.18580853E-02 -6.92413015E-03
 -3.75054284E-02  6.16793644E-01 -2.82406716E-01  8.56693325E-02 -1.09854568E-02
  2.73145873E+00 -8.62588932E-01  2.89943779E-01 -1.23885551E-01 -9.95998476E-02
  2.71336315E-01 -3.64209539E-01  6.15881862E-01 -8.04530194E-03 -3.65302552E-02
  4.68972758E-01 -6.06409205E-04  6.18500804E-02  1.82724159E-02  1.31567740E-01
  2.30527321E+00  2.28978585E-01 -8.43154874E-02 -3.42737906E-02  9.59498907E-02
 -6.76689857E-01  2.04020236E-01  6.83987571E-03  2.46313945E-02 -9.26608027E-02
 -1.45330197E-01  6.09640435E-03  8.59238615E-02  7.04890356E+00  1.96426465E+00
 -1.53196675E-02  2.29340787E-01  3.91332719E-01  7.65533693E-02 -7.35344482E-02
 -2.30446999E-02 -9.21288826E-03 -4.16593528E-02  5.63021099E-01  2.96863498E-02
 -7.87051577E-02  7.82926637E-03 -3.52454533E+00 -2.75532529E-01  7.99329581E-03
 -1.68188613E-02 -2.84441455E-02  6.95147697E-03 -6.55275029E-01 -2.28837370E-01
 -8.65572516E-03 -4.44082940E-02  6.87393278E-01 -2.56623952E-01 -1.10883409E-01
 -2.33903743E-02 -1.01156336E+00 -1.42053387E+00  2.71097723E-01 -1.20263216E-01
  1.78564058E-02 -3.17323808E-01 -2.86711118E-01 -5.43071830E-01 -1.79681469E-02
 -7.48148035E-02  4.60135832E-01 -4.31876580E-01 -1.01585162E-02 -3.57148387E-02
 -7.13736875E-01  1.76068796E-01  2.58743761E-01 -2.79682847E-01  1.88418781E-01
 -2.11053154E-03 -4.14973551E-01  3.08643623E-02  6.80534264E-03  2.93651664E-02
 -2.29043158E-01 -1.13845053E-01 -1.60586906E-03  5.83769201E-02  2.87557978E+00
 -5.79958594E-02 -7.71239408E-02 -9.91268718E-01  3.56558441E-01 -6.15560335E-03
 -2.31939959E-01  5.36311611E-02 -1.72797625E-01 -2.65431222E+00  9.63417500E-02
 -5.09489468E-01  7.87289349E-02 -2.24897700E-01 -2.71864517E+00  9.45375011E-02
  4.64719105E-01  8.63409954E-02  1.94180618E-02  7.60670445E-02 -6.53269810E-01
 -1.81149467E-01  3.62648191E-02  1.56957278E-02  1.18309923E-01 -3.89680978E-01
 -3.36632613E-02  6.83168314E-02 -8.24354490E-02  1.75926159E-02  4.65878267E-01
 -2.47939453E-01  1.95056838E-02  7.65798379E-02 -6.66127815E-01 -1.91149775E-01
 -5.26444671E-02  1.85567577E-02  1.59010473E-01  4.37973193E-01 -4.07660186E-02
  9.32712744E-02 -8.53747679E-02 -8.58848831E-03  4.71804637E-01  2.04059856E-01
 -5.01350919E-02 -2.85874887E-01 -1.85203082E-01  2.63274125E-01  1.06481625E-01
 -3.05769117E-01  1.59047080E+00 -2.87727588E-02  4.13215792E-01  5.05440110E-02
 -2.90571175E-01  1.73613082E+00  2.96445520E-01 -5.98229620E-01  1.59641745E-02
 -8.63784997E-02  1.59321547E-02  1.97902109E-01 -1.03812647E-01  1.67442422E-01
  1.04943999E-02  4.47273728E-02 -6.80720355E-01 -4.32993675E-01  5.13744344E-04
 -1.29255124E-02  3.18750809E+00  1.62092383E-01 -1.07862138E-01 -4.49713581E-01
  1.62797258E-02  2.59542760E-05  9.18238021E-01 -3.63078289E-04  7.31113905E-03
  3.02384581E-02 -5.48071123E-01 -1.15541768E-02 -1.01873728E-01  2.31285463E-03
 -3.24239690E+00 -5.26560736E-01  2.09304928E-02 -3.99689489E-01 -1.46644934E-02
  3.18701270E-02 -9.30028977E-02  6.23883691E-01 -7.48293576E-03 -3.26736660E-02
  4.74780641E-01 -3.07672236E-02 -6.05363880E-02 -7.99673344E-03 -1.49598136E+00
  1.35452600E+00  6.66578556E-02  5.19952168E-01  3.75171601E-02 -3.13191349E-02
  1.46376661E-01  6.54618794E-01 -1.65977388E-02 -7.65450399E-02  1.16535058E+00
 -1.30765378E-01  1.39792370E-04 -2.21710285E-02  4.11107939E+00 -1.40463638E-01
 -2.48574574E-01 -1.52549284E-01 -1.32060939E-01 -2.53335192E-03  4.85501693E-01
  1.89169031E-03 -7.37276748E-03 -3.22011760E-02  4.66828834E-01 -3.22566145E-02
  6.18868710E-02 -7.76716840E-03 -1.23816733E+00 -1.49575835E+00  8.62732624E-02
  5.14979324E-01  2.83851800E-02  1.89015070E-02  1.45837068E-01 -6.50534024E-01
  7.43584404E-03  3.07431537E-02 -5.53789657E-01 -1.37143639E-02  1.03747897E-01
  2.78331645E-03 -2.97158593E+00  6.91500677E-01  6.46556960E-03 -4.00326835E-01
 -2.66388481E-02 -1.99227257E-02 -9.71449080E-02 -6.30317665E-01  2.39589736E-02
  9.72939208E-02 -5.08787787E-01 -2.54539260E-02  3.53349901E-04 -5.64019528E-03
  3.05331399E-01 -1.17798734E-02  5.92734491E-02  8.37318772E-01  3.73915072E-02
  5.94184226E-04  1.53839117E-01 -1.57877647E-03 -3.54495611E-03 -1.72590676E-02
  1.42334443E-01 -1.21985560E-01  9.00817228E-05 -5.39136048E-02  2.34489355E+00
  1.98243884E-03  4.66864041E-01 -2.53925204E-01 -3.28581895E-02  9.59805006E-05
 -4.01675019E-01 -3.83181994E-03  2.77067430E-01 -2.61195795E+00  4.31861195E-01
 -4.95991897E-01  9.35682591E-02  2.80680406E-01 -2.60407234E+00  4.31523949E-01
  4.98072303E-01  9.44278250E-02 -1.61616513E-02 -6.54566167E-02  5.90247607E-01
  9.28609205E-02  4.15502186E-02  1.40194788E-03  5.72150500E-02  1.71193480E-01
 -4.05759714E-03 -3.30323877E-01 -1.34807327E-02  7.27717475E-04 -9.16887602E-02
  1.34620390E-01 -1.61845140E-02 -6.55544194E-02  5.91554055E-01  9.38239434E-02
 -4.03388814E-02  2.09795403E-03  5.43486912E-02 -1.75068173E-01 -5.21390330E-03
 -3.31879846E-01 -1.42551252E-02 -7.73787817E-04 -9.22665711E-02 -1.32166782E-01
 -2.98840442E-01 -1.53620579E+00  4.50761663E-01 -4.05620948E-02  1.58975699E-02
 -5.47560699E-01  3.69105492E+00 -2.17236920E-01  5.63093475E-01 -4.02031805E-02
 -5.47743029E-01  3.67523279E+00 -2.39779382E-01 -5.48789521E-01 -3.36017472E-02
 -2.96939032E-01 -1.55612493E+00  4.24531961E-01  2.94664866E-02  8.89890487E-03
 -1.13446583E-03 -7.76132937E-03  1.94966720E-01 -1.10128197E-01 -2.98165808E-04
  3.85121856E-01 -1.25799634E-01  2.39531080E-03  5.24330670E+00  1.77692480E-01
  5.45131456E-01 -7.75341236E-03  2.59739341E-01  1.98142828E-04 -2.73919770E-03
 -1.33343748E-02  1.99978307E-01 -8.22685588E-02  3.81730284E-02  1.18086240E-01
  2.79475973E-01 -1.78355785E-01 -1.45194341E+00 -3.45779722E-02  4.86471044E-01
 -1.74815707E+00 -4.70028496E-02 -2.93876753E-02 -7.67240520E-04 -3.28210495E-03
  2.27727060E-02 -2.15687697E-02  6.69465260E-03 -1.08119915E-01 -2.07829093E-01
  2.30855746E-01  1.49288023E-01 -5.75865988E-02  5.67872530E-01  4.25271514E-01
 -2.13178646E-01 -1.07092716E-01  3.83250354E-03  1.62653227E-02 -2.35095804E-01
 -2.38713078E-02 -1.46811590E-04 -3.56652831E-01  1.04244769E+00  6.15047227E-03
 -2.23153913E+00  5.94528976E-02 -1.63803269E+00 -4.25013443E-04 -1.62135994E-01
 -2.01758716E-04 -8.88495693E-04 -3.77592442E-03  2.88132173E-02 -2.34193794E-02
 -6.42115892E-03 -1.07934638E-01 -2.33308307E-01 -2.27531814E-01  1.11700069E-01
 -5.46306705E-02  5.98349355E-01 -4.03855311E-01 -2.11532898E-01  9.71780411E-02
 -2.62132800E-03 -1.28824766E-02  1.95558296E-01 -8.13060096E-02 -3.75017956E-02
  1.19246674E-01  2.39843236E-01  1.65650631E-01 -1.40008472E+00 -3.58347333E-02
  5.11596788E-01  1.72316431E+00 -5.49621320E-02  2.37787701E-02 -6.60244247E-03
 -2.73633814E-02  1.66098751E-01 -9.18895533E-02  1.80992917E-03  1.91209109E-01
 -1.75559952E-01 -2.08323868E-03 -1.29001965E+00 -7.75602636E-02 -1.08086787E+00
 -2.49865105E-04 -1.07616990E-01 -3.69073901E-03  5.56657792E-04  1.37385915E-03
  8.47664761E-03  3.13256686E-02  3.43436290E-04 -1.34218662E-01 -4.88059229E-03
  4.12277337E-03  1.58180956E+00 -4.58171047E-02 -1.13058212E+00 -1.22107152E-03
 -3.35584238E-02  3.23893191E-03  1.14306844E-01 -3.42500619E-01  1.84555276E-01
  1.18652837E-02  3.47463534E-01  1.12570273E-01 -3.51826393E-01  1.84916004E-01
 -1.18304761E-02  3.49167270E-01  4.24828080E-03  1.65769405E-02 -1.42581292E-01
 -4.03899837E-02  9.79647236E-03 -5.94403843E-02  2.99419401E-02 -9.68597041E-02
  7.67435546E-02  3.20141885E-02  4.15898057E-01 -1.28942181E-01  1.15885994E-01
 -5.87557806E-02  4.38720244E-03  1.71218557E-02 -1.47063143E-01 -4.01613145E-02
 -9.31463472E-03 -6.10634205E-02  2.83485136E-02  9.97922826E-02  8.04928190E-02
  3.16073788E-02  4.18440569E-01  1.27590155E-01  1.15665692E-01  6.43612895E-02
 -5.60646243E-02  1.64385905E-01 -2.95774443E-02  1.09383514E-01 -6.64553658E-01
 -7.82601339E-02  6.35097491E-02  1.56230383E-01  1.29337556E-01 -1.16876472E-01
 -8.27275828E-02  9.58711536E-02  1.58129213E-01 -1.36885886E-01 -1.33260983E-01
 -5.16431234E-02  1.33994446E-01 -2.48544776E-02 -1.02578358E-01 -6.49410780E-01
 -8.63152691E-05 -4.37368782E-04  7.78374359E-03 -1.08486626E-03 -9.49576172E-03
  3.21086040E-03 -1.58740718E-02 -5.61327055E+00  3.89592396E-02  3.28059123E-03
  4.55374729E-03  1.34821664E+00  3.67007976E-03 -5.19706601E-02  2.59084305E-04
  1.95161913E-04  4.80705663E-02 -1.77117774E-02 -8.09684537E-03  1.14537061E-01
  4.48407080E+00 -2.70858233E+00  3.54601280E+00  1.13458773E-02  1.32415316E+00
  1.54189936E+00 -1.01325959E-01  1.28213226E-01 -2.31561547E-03 -9.54496367E-03
  1.14215185E-01 -4.47005313E-02 -4.25103883E-03  3.50268707E-02  4.77299146E+00
  2.93633702E+00 -1.96901011E+00  5.89619585E-02  1.98857470E+00 -1.19227979E+00
  7.28707607E-02  1.39894104E-01  1.03304298E-04  4.44499181E-04 -5.82002182E-03
 -9.15708795E-04 -2.58650288E-02 -2.47639634E-03  3.18950347E-02  6.01019913E+00
 -1.81930089E-02  1.06687300E-03 -9.30957423E-03  4.67493664E-01 -3.20381428E-03
 -1.45421924E-02  2.28075196E-03  9.38580184E-03 -1.12616825E-01  4.44788913E-02
 -4.69251591E-03 -3.70068665E-02 -4.78248111E+00  2.92714872E+00  1.96470222E+00
 -6.21433965E-02 -1.97359799E+00 -1.20168841E+00 -8.28986393E-02  1.44919756E-01
 -3.71811773E-04 -7.62211061E-04 -3.83149086E-02  1.43973202E-02 -8.91681503E-03
 -1.12458649E-01 -4.46071251E+00 -2.71043112E+00 -3.55818616E+00 -6.80117700E-03
 -1.30841217E+00  1.57012734E+00  1.00748837E-01  1.27011743E-01 -1.88245138E-04
 -7.75687250E-04  4.58218707E-03 -2.63633979E-03 -5.03952336E-02  1.26628602E-03
 -5.03627761E-03  2.94606614E-01 -7.49414808E-03 -4.08677648E-03 -8.25304857E-03
 -6.44353935E-02 -3.09451917E-03  1.08473745E-01  5.55486322E-05  2.34311456E-04
 -1.60823565E-03  1.43805467E-04  1.21689771E-02 -3.80445417E-04  6.11135874E-03
 -8.79964140E-01  9.43672868E-03 -3.85842574E-03 -5.75517679E-03  1.12709985E-01
  1.03577758E-03 -4.36142958E-02 -4.76411631E-02 -3.52071783E-01 -1.49287656E-02
 -9.91497186E-02  4.02803782E-02  4.63420436E-02  3.37364924E-01  1.53594727E-02
 -9.61512163E-02 -3.58436708E-02  2.80910938E-03  1.10217856E-02 -8.94840467E-02
  4.28911932E-03 -1.10471647E-02 -1.20451167E-01 -6.11089877E-02 -2.76576379E-02
  2.93549986E-01 -4.42510211E-02  2.18472734E-01  1.08806739E-01 -2.65685786E-03
 -1.30489754E-01 -2.49053126E-03 -9.76203887E-03  7.83878262E-02 -7.08224022E-03
 -1.15267683E-02  1.19561649E-01  6.28964280E-02 -2.06959039E-02 -2.93191902E-01
  4.67171560E-02 -2.11915892E-01  1.11349717E-01  9.13595034E-03 -1.26304578E-01
  7.95840603E-02 -3.75868887E-01 -3.20197128E-01  1.44069711E-01  8.00281702E-01
 -7.54411732E-02  5.73061029E-01 -4.74895082E-01 -1.42424006E-01 -1.00245170E+00
  7.45712706E-02 -5.75761558E-01  4.77867836E-01 -1.45263993E-01  1.00151665E+00
 -7.97654054E-02  3.86525665E-01  3.20470186E-01  1.43025633E-01 -8.10506646E-01
 -1.16826164E-05 -7.57553949E-05  1.72879933E-03 -2.25138065E-04 -2.68296533E-02
  1.61994881E-03 -7.57809521E-03 -1.90897485E+00  1.72579020E-02 -1.01637962E-04
 -3.58395626E-04 -1.16070379E+00  1.78898070E-03  5.24162928E-02  1.11288195E-03
  7.19348376E-04  1.62960988E-01  7.17179854E-02 -7.21539897E-03 -9.02468724E-02
 -9.05958155E-01  3.88927639E-01 -1.01942914E+00 -7.38723501E-02  4.17108218E-01
 -3.01617255E-01 -5.15717022E-01  4.58609364E-01 -1.60789280E-02 -6.72469549E-02
  9.41956788E-01 -1.21616592E-01  1.13102422E-02 -8.32882606E-02  7.26627914E-01
  1.60368491E+00 -8.65164462E-01  5.72239422E-01 -3.92041358E-01 -1.94363208E-01
  3.11197141E-01  8.11797464E-01 -1.70333698E-05 -7.17800540E-05  8.77464843E-04
 -6.26589423E-04 -8.42913966E-02 -9.78611437E-04  1.83138087E-02  4.09039670E+00
 -5.57941078E-03 -1.12369341E-03 -3.72238790E-03 -1.06431799E+00 -1.25624251E-03
  1.42102251E-01  1.60699802E-02  6.71948430E-02 -9.40639303E-01  1.21238762E-01
  1.19173781E-02  8.22731492E-02 -7.37392738E-01  1.59422702E+00  8.56354214E-01
 -5.69972041E-01  4.00578416E-01 -1.98991905E-01 -3.13861950E-01  8.11594767E-01
 -1.16544919E-03 -9.79587551E-04 -1.58713794E-01 -7.26507358E-02 -7.38737859E-03
  9.13269454E-02  9.04874886E-01  3.85202602E-01  1.01953244E+00  7.28680668E-02
 -4.06730899E-01 -2.90393328E-01  5.15429053E-01  4.54212367E-01  1.23923528E-05
  5.40713703E-05 -2.75021411E-04 -5.13948775E-04 -3.72882246E-01  7.03995704E-04
 -3.21712412E-03 -1.65436343E-01 -4.10124945E-03 -1.09516412E-03 -3.89672928E-03
  2.15953575E-02 -9.73149349E-04  5.80689731E-01  2.38596395E-05  1.00373878E-04
 -6.93195227E-04  8.85452629E-05  1.04222517E-02 -7.38773181E-05  4.72281269E-03
 -1.45168274E+00  3.25975313E-03 -1.54211249E-03 -1.39117800E-03  2.66028229E-01
 -8.06694865E-04 -2.01496518E-02 -1.89017503E-01 -4.20691305E-01 -3.83849246E-02
 -7.27954602E-02  2.03770415E-01  1.88262298E-01  4.09032886E-01  3.98279938E-02
 -7.09275119E-02 -2.02719806E-01  1.96919349E-02  7.80211725E-02 -6.75711304E-01
  1.03829326E-02 -2.71692302E-02  5.03581246E-02 -1.79479902E-01 -4.72571744E-01
 -1.34005050E-01 -1.02855418E-01 -7.66395813E-02 -9.00065750E-02  5.81091217E-03
 -6.80556355E-01 -1.95686230E-02 -7.75217257E-02  6.71038187E-01 -1.14287216E-02
 -2.81387741E-02 -5.02871417E-02  1.82163445E-01 -4.67057506E-01  1.33832813E-01
  1.02391433E-01  7.96005328E-02 -8.89843524E-02 -3.20968707E-03 -6.78918119E-01
  3.23191837E-01 -1.47949838E+00  6.57255339E-01 -4.35371020E-01  6.88767717E-02
 -3.32261239E-01  3.35332519E+00 -2.51344576E-01  5.05916681E-01  6.90118306E-02
  3.31744790E-01 -3.34329186E+00  2.51851184E-01  5.04712395E-01 -6.79331140E-02
 -3.23255941E-01  1.47578522E+00 -6.50970839E-01 -4.33616035E-01 -7.33920424E-02
 -3.86072399E-03 -1.30021488E-02 -7.43930973E-02  1.11448796E-01  1.24916136E-03
  1.72000638E-01  2.45510320E-01 -8.51683417E-01  1.18351874E+00 -9.46828200E-01
 -7.59656774E-01 -6.07877806E-02  4.04759777E-02 -1.35799266E-02  1.45533853E-02
  5.84035319E-02 -6.71081025E-01  9.03524667E-02 -2.51474835E-01  1.89722746E-02
 -6.89312972E-02  1.56820020E+00 -3.16316722E-01  3.68570868E-01  2.86113294E-01
 -1.22984445E-01  3.92174068E-01  7.18506389E-01 -1.18448816E-02 -4.99444853E-02
  7.25279027E-01  2.02617749E-02  1.52503759E-01 -1.45865528E-02 -1.09440276E+00
 -2.18270819E+00  3.18109068E-01 -1.70300056E-01 -1.01621836E-01  5.33522763E-01
 -4.88038105E-01  1.52074902E-01  1.71470530E-02  7.82270912E-02 -9.18238053E-01
 -6.93394393E-01 -3.37238457E-04  7.48208323E-02  2.56165672E-01  8.53007127E-01
 -6.41781253E-01  9.07440104E-01  8.19271423E-01 -6.06547044E-02 -1.16254280E+00
 -8.31241691E-03 -1.23326837E-02 -5.19891471E-02  7.57731915E-01  2.36410701E-02
 -1.53134887E-01 -4.51383429E-03 -2.64894260E+00  3.08181119E+00  4.63255504E-01
 -1.53943944E-01 -9.75009428E-02 -5.72731795E-01 -4.78381193E-01 -1.60442081E-01
  1.48122508E-02  5.94085790E-02 -6.85636318E-01  9.55797612E-02  2.50881074E-01
  2.71549818E-02 -1.62146232E+00 -2.49956424E+00 -2.61404396E-01  3.59057809E-01
  2.07560557E-01  1.05324487E-01  3.81801058E-01 -7.26667369E-01  2.56297717E-02
  1.06213731E-01 -6.25115940E-01 -3.25671556E-02  6.09613696E-03  9.60115333E-02
 -1.55660510E-04  5.63788232E-02 -1.15180634E+00  3.26800968E-01 -6.22517019E-01
  1.68591904E-04  1.35170236E-01 -4.53619263E-03  2.38434352E-03  1.55038269E-02
 -2.32607272E-01 -1.34342068E-01 -2.35474121E-03  9.20479097E-02 -1.91355049E+00
 -4.88039475E-02 -7.42904551E-01 -6.26830011E-01  2.61941718E-01  2.76840494E-02
  1.22575943E+00 -1.92152911E-04 -3.99813965E-01  2.27598065E+00 -8.37348310E-01
  1.47013806E-01 -7.98426917E-02 -3.96440606E-01  2.26135390E+00 -8.14027070E-01
 -1.63889832E-01 -1.10452657E-01 -3.38526804E-03 -1.27733148E-02  9.20460054E-02
  2.98639585E-03  2.40857741E-02 -1.48036687E-03  1.13469161E-01  2.15430106E-02
  3.45432454E-02 -2.14067751E-01  1.74925084E-01  8.01250068E-03 -7.21178910E-02
  1.11875157E-01 -2.68208101E-03 -9.94855429E-03  6.53207283E-02  2.14009948E-03
 -2.59643164E-02 -5.18662203E-03  1.18476955E-01  8.01411067E-03  4.58301137E-02
 -2.08023648E-01  1.80631097E-01 -1.70604992E-02 -6.95012001E-02 -9.82160005E-02
  2.35132591E-01 -3.95786853E-01  2.95510293E-01 -5.82971537E-01  7.32123199E-02
  2.51745377E-01 -1.32014114E+00  3.18417966E-01  8.00984935E-02  2.36419816E-01
  2.47359125E-01 -1.27073380E+00  4.60648651E-01 -1.68400289E-01  2.45624570E-01
  2.39830641E-01 -4.17196646E-01  4.50555881E-01  6.72172124E-01  5.54826346E-02
 -3.45642710E-05 -2.66474807E-05 -7.57113952E-03  4.11355612E-03 -4.58531041E-02
  5.99661694E-03  1.12609920E-02  2.87803560E+01  4.86578104E-02 -2.66847939E-02
 -2.35027885E-02  2.03867608E+00  1.03846732E-03  4.60297154E-01  4.17558034E-03
  1.62336144E-02 -2.37934396E-01  9.22154117E-02  5.78635740E-03  1.32922148E-01
 -2.60710645E+01  1.57166646E+01  8.74605172E-01 -1.41541942E-01 -1.33151860E+00
  2.69494369E-01 -1.16506136E-01  1.07257144E-01 -8.03420860E-03 -3.39161371E-02
  5.50645904E-01  6.74977330E-02  1.76043107E-02  1.63877076E-01 -2.61821408E+01
 -1.51767033E+01  2.38661829E+00  2.69664691E-01  1.82577269E-02  6.65147871E-01
  1.30141386E-01  1.06644453E-01  4.69959803E-04  2.14602954E-03 -2.44941167E-02
 -2.06267974E-02  1.03062346E-02  1.94676587E-03 -1.06906518E-02 -2.87492578E+01
 -2.18725292E-02  2.85262514E-02  2.62657685E-02  1.92578699E+00 -3.64238075E-02
  2.86950389E-01  7.31136217E-03  3.08562831E-02 -5.05307442E-01 -6.54218340E-02
  8.18582918E-03 -1.64759238E-01  2.60562435E+01 -1.50228114E+01 -2.37880067E+00
 -2.78191290E-01 -1.68761349E-02  6.27458857E-01 -1.58826265E-01  9.91933168E-02
 -3.28248844E-03 -1.26194488E-02  1.95206369E-01 -8.61001718E-02  2.04102874E-02
 -1.30879291E-01  2.60238125E+01  1.55911034E+01 -8.85065959E-01  1.60204064E-01
  1.35321856E+00  2.78884234E-01  1.39772687E-01  6.53299145E-02  7.50615739E-04
  3.10786717E-03 -1.82282229E-02 -4.17881737E-04 -1.95550327E-01  3.45727921E-03
  2.64870718E-03 -1.90378655E+00 -3.42966192E-02  8.50605104E-03 -2.16045936E-02
  1.17251529E-03  4.79277322E-03  1.36108516E-01  6.13847355E-05  4.25779905E-04
 -6.75876764E-03 -3.86381500E-03  7.84247401E-02  3.01073827E-03 -6.45613459E-02
  1.69710745E+00 -2.38393923E-02 -1.85131997E-02  8.39367294E-03 -9.27176779E-01
  3.54761872E-02 -2.97097383E-02  3.96339229E-02 -1.53645075E-01  3.53510760E-01
  2.97028044E-01 -5.12507863E-01 -6.40699545E-02  3.01899258E-01 -4.02744117E-01
  2.82374975E-01  5.05503751E-01  1.11776336E-02  4.49423946E-02 -4.27198420E-01
 -1.55911104E-02  3.43834831E-02 -6.44776651E-02  1.00673843E-01 -4.93275985E-01
  1.96400911E-01  1.00607374E-01  1.01123706E-01  1.53982531E-01  4.28396295E-02
 -2.06107717E-01 -1.13933931E-02 -4.57650533E-02  4.33467669E-01  1.64773320E-02
  3.32235800E-02  6.51959044E-02 -9.54511468E-02 -4.95240594E-01 -1.97605839E-01
 -1.11659099E-01 -9.03396083E-02  1.54604625E-01 -4.92874367E-02 -2.13111733E-01
  6.33986994E-02 -2.35996147E-01  2.60930379E+00 -1.49222666E+00 -3.16698370E-01
 -3.89288820E-02  6.63536286E-01  2.40261382E+00  1.45488123E+00  1.75488749E-01
  5.59181594E-02 -7.44063856E-01 -2.37644625E+00  1.44942343E+00 -1.58341845E-01
 -4.87532703E-02  2.04567668E-01 -2.58867454E+00 -1.45387957E+00  3.19805981E-01
  4.04108456E-04  2.75724203E-03 -1.23946598E-01 -3.75903716E-04 -7.18280899E-04
 -3.26398858E-01  8.62658865E-02  4.02621795E-02 -8.42894363E-01 -3.14107909E-01
  2.37581627E+00  1.26053422E-03  8.21418819E-02  6.78321795E-04  5.52467185E-03
  2.18423535E-02 -2.49885083E-01 -1.95283253E-03 -7.43446944E-02 -6.72974262E-02
 -3.41270876E-01  7.78493134E-01 -8.86268485E-01  1.30043655E-01 -9.96031016E-01
 -4.23653375E-01  7.23898360E-02  2.22996072E-01 -5.81610327E-03 -2.46077006E-02
  3.49425847E-01 -9.87737789E-03  8.94777126E-02  3.58808483E-02 -8.63728161E-01
 -1.37830954E+00  4.91108337E-03 -1.59183350E-01 -2.30029043E-01 -1.23377304E+00
 -2.41756298E-01  5.81612197E-02  9.88374176E-03  4.34385970E-02 -5.23961800E-01
 -2.58975879E-01 -5.94282951E-04 -1.11467106E-01 -5.82164075E-01 -4.28725567E-02
  1.09126726E+00  5.84730027E-01 -2.30126489E+00  1.54217944E-03 -6.50824820E-01
  8.52660928E-04 -5.81032643E-03 -2.45945066E-02  3.49388022E-01 -9.94949443E-03
 -9.02963918E-02  3.57746832E-02 -7.85079808E-01  1.33165483E+00  6.31574210E-03
 -1.59156186E-01 -2.32898273E-01  1.23373689E+00 -2.43927609E-01 -5.98672739E-02
  5.46293714E-03  2.15918390E-02 -2.46455636E-01 -2.08585187E-03  7.36046127E-02
 -6.75501195E-02 -2.61740491E-01 -7.31196613E-01 -8.91502034E-01  1.31683700E-01
 -9.97078644E-01  4.25723945E-01  7.10288925E-02 -2.19145928E-01  8.29691561E-03
  3.44230107E-02 -2.05368042E-01 -3.25852186E-02 -8.07396879E-04 -1.59947389E-01
 -4.75612927E-02 -2.38162596E-03  2.32430583E+00  8.40578032E-02  1.29347652E+00
  8.72080117E-04  2.71920718E-02  1.71076204E-03 -2.80006965E-03 -8.95945675E-03
 -1.00390460E-02 -3.96064587E-02  6.43902922E-05 -2.38394380E-02 -1.19727483E+00
  3.54253102E-03  9.59124472E-01 -2.89474914E-01 -1.17460667E+00  4.37388901E-04
  4.20612338E-01 -4.06192282E-04 -1.68426234E-01  1.31813127E+00 -3.12159627E-01
  2.37353138E-01  4.86138364E-01 -1.69561380E-01  1.32094925E+00 -3.13296137E-01
 -2.37704493E-01  4.85695032E-01  6.37403289E-05  4.44567335E-04 -1.20775096E-02
 -5.01690924E-03  4.62956255E-03 -2.21822630E-02  4.11322785E-02 -4.05679249E-03
  1.00757304E-02 -5.62930716E-02 -3.25718144E-01 -9.59433448E-03 -2.45959080E-03
  3.54513798E-02 -1.89512729E-05  1.10616178E-04 -8.94391728E-03 -4.87219880E-03
 -4.52997594E-03 -2.20288465E-02  4.08226708E-02  9.80455740E-04  9.51550156E-03
 -5.66156315E-02 -3.25930402E-01  9.44091858E-03 -2.49243917E-03 -3.76997186E-02
  9.25548403E-02 -1.96593807E-01  3.71291741E-02 -1.93648159E-01 -4.26906284E-01
  1.19737244E-01 -7.98987220E-01  3.10993105E-01  9.60117433E-02 -6.93091183E-01
  1.20817073E-01 -8.01955777E-01  3.05898983E-01 -9.17477981E-02 -6.92193621E-01
  9.21935060E-02 -1.92546704E-01  2.55136820E-02  1.87337894E-01 -4.27686978E-01
 -6.10850808E-05 -2.87356895E-04  4.77554342E-03  2.35982619E-04  3.78224397E-01
 -5.60456204E-04  2.37899949E-03 -7.43955975E+00 -2.64167534E-03  1.38094232E-03
  2.41967107E-03  5.15704500E-01  7.60593427E-04 -1.05216640E+00 -1.28920674E-02
 -5.75879310E-02  1.04704640E+00  8.69427137E-02  5.05814665E-02  1.79828047E-02
  7.16529768E+00 -3.07074193E+00  6.96002423E-02  5.33472706E-01 -4.26028594E-01
  1.08750974E-01 -1.21604996E+00 -9.48983078E-01 -1.47396651E-02 -6.51069950E-02
  1.02185647E+00 -3.37313878E-01  1.14432197E-01  4.11031513E-02  9.05646641E+00
  6.14421706E+00  5.76197025E-01  9.62185483E-02 -1.78327773E-01  8.80150311E-02
 -9.85228927E-01  1.05613392E+00  3.24075110E-05  1.52863517E-04 -2.23277827E-03
 -3.00185918E-04  4.77426880E-01 -1.23307922E-05  1.73507976E-02  9.78641449E+00
  1.16560799E-03  5.71013612E-04 -2.40264334E-03  3.31843798E-01 -2.46374124E-03
  4.09734389E-01  1.47845153E-02  6.53091069E-02 -1.02449351E+00  3.39588231E-01
  1.13917975E-01 -4.11126377E-02 -9.06542520E+00  6.14868107E+00 -5.72582126E-01
 -9.61056679E-02  1.77609458E-01  9.12198152E-02  9.78088010E-01  1.05578342E+00
  1.28648700E-02  5.74352692E-02 -1.04405580E+00 -8.56353005E-02  5.06218363E-02
 -1.80270597E-02 -7.16352285E+00 -3.07182014E+00 -7.19661124E-02 -5.34663110E-01
  4.23308331E-01  1.08983115E-01  1.22333206E+00 -9.52039314E-01 -7.43853399E-05
 -3.04874574E-04  1.82643148E-03 -2.40938790E-05  3.19970740E-01 -5.10160683E-04
 -7.30244378E-04 -8.83989610E-01 -2.67739693E-03  3.13338212E-04  3.38831791E-03
  1.62248292E-02 -2.81792495E-04 -5.24060231E-01  3.59050787E-05  1.48991765E-04
 -1.01008100E-03  3.97241285E-05  2.77179178E-02  4.50414344E-05  5.15039312E-04
 -1.71436177E+00  7.26881848E-04 -1.90240783E-03 -1.52079484E-03 -3.91499468E-01
  6.43531134E-04  1.86685663E-01 -2.20514777E-01 -2.47321389E-01  3.03753915E-02
 -5.16317898E-02 -1.71235824E-01  2.19648846E-01  2.44722014E-01 -3.08960038E-02
 -5.10055860E-02  1.73005279E-01  9.56199540E-04  4.14444242E-03 -6.78106543E-02
 -1.42340226E-01  1.01154296E-01 -1.34150016E-02  1.98701409E-01 -1.12245059E-01
  5.32394647E-02 -9.55939337E-02  1.90676323E-02  4.36155516E-02  1.70641344E-01
  2.14372426E-01 -9.47515156E-04 -4.10761418E-03  6.74493523E-02  1.41833971E-01
  1.01195518E-01  1.21589619E-02 -1.97550673E-01 -1.11860911E-01 -4.67394157E-02
  9.52212575E-02 -1.89607431E-02  4.03038655E-02 -1.69660015E-01  2.14827683E-01
  1.43023699E-01  1.28016852E+00 -1.35054092E+00  8.45210306E-01 -6.93747334E-02
  3.10070290E-02  1.31368469E+00 -4.32693139E-01  1.82266129E-02  5.55252454E-02
 -3.03039599E-02 -1.31881344E+00  4.37813710E-01  1.66065165E-02 -5.78452972E-02
 -1.42270497E-01 -1.27607891E+00  1.35537933E+00  8.47099681E-01  6.96498033E-02
 -3.97637078E-02 -1.77317458E-01  2.75598186E+00 -1.42507465E-01 -1.00789418E-03
 -3.34978329E-02  3.63051750E+00  8.12658560E-02 -2.86141088E-01 -4.42942956E-02
 -5.08390952E-02  3.27725989E-03  4.96592102E-01  1.89895741E-03 -4.04773230E-03
 -2.12591373E-02  4.32993858E-01  2.81803246E-01 -7.77562143E-02 -1.08422607E-02
 -8.12216790E-01  1.26320334E+00 -1.47370111E-02  2.01597472E-01 -7.79277943E-02
  1.54854188E-01  1.95754834E+00  1.80167496E-01  1.17256809E-02  5.87191711E-02
 -1.03679686E+00  2.46584480E-01 -3.92721570E-02  1.12879808E-02  5.81375446E-01
 -1.25089117E+00 -1.13507945E-01 -9.20154452E-02 -1.48778105E-01 -2.12035106E-01
 -1.11854587E+00  3.48967877E-01  2.06161484E-02  1.03359911E-01 -1.84633764E+00
 -8.54077130E-02 -3.24817130E-04  3.07055695E-02  1.25094827E+00 -9.05646272E-02
  6.45169384E-01 -4.79829233E-01 -3.23186838E-02 -6.33374903E-04 -3.44718886E-01
 -1.84783052E-03  1.17154673E-02  5.86709571E-02 -1.03541484E+00  2.46792841E-01
  3.93638484E-02  1.09503361E-02  7.29942695E-01  1.16194885E+00 -1.16510097E-01
 -8.92945458E-02 -1.44249367E-01  2.11785643E-01 -1.12434735E+00 -3.49372614E-01
 -4.11735550E-03 -2.15451314E-02  4.36862219E-01  2.83317055E-01  7.75692044E-02
 -1.10962359E-02 -6.71274752E-01 -1.18037766E+00 -1.58906298E-02  2.00831443E-01
 -7.30128320E-02 -1.54379183E-01  1.95667017E+00 -1.78071488E-01 -1.00923971E-02
 -4.15163593E-02  2.84068546E-01  2.05507715E-01 -3.34368633E-04 -1.09767578E-02
 -1.90680243E+00 -7.10891867E-03 -1.07538680E-01  6.51826476E-01  8.99582417E-02
  6.67296181E-04 -2.02991499E-01  6.80843910E-05  8.77443843E-03  3.11358544E-02
 -8.80817352E-02 -2.23348715E-02 -6.78722539E-04 -1.88294327E-03 -5.04086174E-01
  1.28189402E-02 -2.17845787E-01  5.64408978E-01 -2.18229137E-02 -1.12207805E-03
  1.21283440E+00 -5.15621225E-03  5.61529363E-01  1.05232131E-01 -3.76450894E-02
 -5.15247791E-01  2.08901881E-02  5.60738637E-01  1.07331288E-01 -3.68475702E-02
  5.16317720E-01  2.14973581E-02  1.09418073E-03  5.94472933E-03 -1.07826202E-01
 -1.06448856E-01  8.15930298E-02 -1.09389367E-02  6.86938882E-01 -3.24689453E-01
  7.92869987E-02 -4.02358009E-01 -4.43184041E-03  5.20358608E-02  3.18676015E-01
  8.49251101E-02  1.03774921E-03  5.71591982E-03 -1.05521547E-01 -1.06416623E-01
 -8.13056375E-02 -1.07702154E-02  6.86106456E-01  3.21830804E-01  7.85532827E-02
 -4.03022376E-01 -4.22239644E-03 -5.11280675E-02  3.18986161E-01 -8.56235405E-02
  1.85359591E-01  1.06559119E+00  1.32428779E+00 -7.22665817E-01  5.05675405E-02
 -1.01141647E-01 -1.11611832E+00  6.34251801E-01  2.73590239E-01 -7.62606594E-02
 -1.00726626E-01 -1.11534609E+00  6.23864409E-01 -2.67533032E-01 -7.71989056E-02
  1.84605440E-01  1.07376178E+00  1.31044801E+00  7.12532730E-01  5.12918939E-02
 -4.99448122E-05 -1.95287036E-04  2.23724344E-03 -5.58505114E-04  3.45244961E-01
 -3.91045525E-04 -3.01262572E-03 -2.08438073E+01 -7.82417268E-03 -1.80524475E-03
 -2.97658249E-04  3.23753562E-01 -2.46820683E-03  1.93415258E-01 -1.08794057E-02
 -4.46729424E-02  4.51582170E-01  5.09803514E-01  8.61747030E-02  7.78979819E-03
  1.52832733E+01 -9.75621481E+00  8.36615928E-02 -8.15890018E-01 -2.42613460E-01
  1.17535198E-01  5.98708409E-01 -3.29886523E-01  7.13402901E-03  2.86369528E-02
 -1.83693215E-01  4.16445475E-01 -4.82961053E-02  1.63067118E-02  1.57979436E+01
  9.89808625E+00  1.69234805E-01  8.68345482E-01 -1.39020053E-01 -3.52755494E-02
 -1.08276757E+00  1.14718483E-01  4.94403813E-05  2.33720773E-04 -3.82168820E-03
  3.28132816E-04 -2.52474242E-02  2.88854953E-04 -1.74940123E-02  2.13758934E+01
  4.63472223E-03  9.35834774E-04 -1.72435026E-04  8.30136429E-03  3.05514681E-03
  6.88468664E-01 -7.17171089E-03 -2.87639948E-02  1.83971578E-01 -4.17925523E-01
 -4.85597818E-02 -1.60077048E-02 -1.57791351E+01  9.92258990E+00 -1.65725751E-01
 -8.73010059E-01  1.35797809E-01 -3.18178521E-02  1.08811528E+00  1.09306747E-01
  1.09233466E-02  4.48719471E-02 -4.53388503E-01 -5.10237686E-01  8.65502127E-02
 -7.73771751E-03 -1.52905800E+01 -9.76074149E+00 -8.44516077E-02  8.20483661E-01
  2.42414813E-01  1.15221555E-01 -6.00889057E-01 -3.29178422E-01  4.36419964E-05
  1.80422830E-04 -1.16240873E-03  4.24936150E-04 -3.20392380E-01 -5.19181606E-04
 -6.05405506E-03  3.27096668E+00 -2.91652476E-03  4.50375007E-04  3.39782948E-03
  1.95425883E-02 -1.22673367E-03  8.99138010E-01 -3.62999766E-05 -1.57146687E-04
  1.24213838E-03  7.27749933E-06  3.41566804E-01 -1.56712923E-04 -8.81315479E-03
 -5.10526829E+00 -1.75722144E-03  3.09255814E-03 -4.95055377E-04 -3.33678292E-01
  3.37462587E-03  1.21459683E+00 -3.01771023E-01 -6.61567846E-01  2.93083735E-01
 -6.71517888E-02 -7.39429417E-02  3.05220219E-01  6.74841412E-01 -2.93749674E-01
 -6.78651589E-02  7.32270090E-02 -6.71195803E-03 -2.78452989E-02  3.36532609E-01
  1.28713095E-01 -1.73588061E-01 -9.44786388E-03 -2.11052542E-01  4.59309161E-01
  4.23597573E-02 -4.05560101E-02  1.56060924E-02  2.91781528E-02 -2.04292611E-01
 -1.20263020E-01  6.77333629E-03  2.81017212E-02 -3.39309310E-01 -1.29296851E-01
 -1.73899130E-01  8.64527052E-03  2.13520403E-01  4.61085256E-01 -3.70716899E-02
  3.90952715E-02 -1.54922093E-02  2.61183805E-02  2.05953709E-01 -1.20700863E-01
 -1.74128272E-01  8.01613000E-02 -7.46397708E-01  7.53492120E-01 -1.66664215E-02
  2.36059010E-01  2.08905212E-02 -3.41192597E-01 -5.62172942E-01  1.86699548E-02
 -2.36947574E-01 -2.74429677E-02  3.40692091E-01 -5.63573485E-01 -1.96139681E-02
  1.77113995E-01 -8.23382285E-02  7.44533934E-01  7.55339290E-01  1.75153071E-02
 -8.33341364E-03 -3.39613254E-02  5.41470853E-01 -8.09843946E-01  3.71941840E-04
  2.56562404E-02  5.05182108E+00 -6.99702886E-04  1.17735583E-01  1.91202331E-01
 -9.76783764E-03 -9.85787306E-04  7.88327720E-01  1.89186154E-03  9.00867816E-04
  5.68597985E-03 -1.97802393E-01 -1.34825328E-03  1.13472299E-01  5.83428620E-03
 -2.72390571E+00 -1.00470456E+00  8.19447536E-02 -5.95737117E-01  6.44576549E-02
 -7.58871322E-02  4.34574661E-01 -8.51743461E-01  7.75549359E-05  1.58041324E-03
  5.32804343E-02  2.96165012E-02  1.45134623E-01 -6.33965461E-03 -4.31831841E-02
 -6.10824153E-01  3.23483869E-02  1.18330351E-01  9.99046913E-02  1.66795020E-01
  1.19017501E-02  6.86345811E-01 -1.37255194E-02 -6.36062252E-02  1.05441158E+00
  4.71912543E-01 -3.58256522E-05 -4.22643059E-02 -3.89879124E+00 -1.81921496E-03
 -4.15986326E-01  2.56746103E-01  8.50070329E-02  9.94354467E-05 -6.52531463E-01
 -6.64984850E-04  6.40677668E-05  1.53387187E-03  5.38162765E-02  2.95080532E-02
 -1.44783819E-01 -6.46105107E-03 -4.11760497E-02  6.12653726E-01  3.62248616E-02
  1.18879570E-01  9.72995827E-02 -1.67779911E-01  1.17057788E-02 -6.85736700E-01
  9.24756562E-04  5.80097083E-03 -1.99854686E-01 -1.03441856E-03 -1.12514196E-01
  5.81572004E-03 -2.72570527E+00  1.00646730E+00  7.93856244E-02 -5.96224181E-01
  6.21792278E-02  7.58275819E-02  4.35333897E-01  8.49617767E-01 -3.86374280E-03
 -1.64404600E-02  1.44243286E-01  2.57376764E-01 -7.43826857E-05  1.06799620E-02
 -2.47851850E+00  1.13350772E-03  9.96198761E-02  8.59814595E-01 -9.17693902E-02
  6.60510306E-04 -3.34672785E-01  1.21851263E-04 -1.79003072E-02 -7.22143566E-02
  4.02565364E-01 -1.04125981E-01 -1.13068797E-04  4.36134270E-03 -2.75939515E-01
 -2.92028673E-04 -4.76455219E-03  1.71512902E-01 -3.76071814E-02  3.90657674E-04
 -1.37756186E+00 -1.27792054E-03 -4.48784612E-01  1.09846986E+00  1.08146263E-01
  7.98866928E-01 -6.63107449E-02 -4.48039943E-01  1.10304131E+00  1.08148822E-01
 -7.99242991E-01 -6.70948662E-02  6.58349108E-05  1.99833846E-03 -8.10588634E-02
 -6.42637047E-02  4.11549125E-02  1.20935737E-02  6.32216001E-01 -1.48612448E-01
 -8.17348415E-02 -3.85944039E-01  1.50864835E-03 -4.99504818E-02  3.33869469E-01
  2.52405802E-01  8.64499854E-05  2.08330989E-03 -8.19772831E-02 -6.46933349E-02
 -4.15455153E-02  1.23475379E-02  6.33152220E-01  1.50682643E-01 -8.25861916E-02
 -3.85979846E-01  1.21204204E-03  4.95843902E-02  3.35255780E-01 -2.52202831E-01
  1.17614077E-01 -1.14332958E+00  4.23319561E-03 -6.04282444E-02 -2.79991532E-02
  4.58883336E-01 -8.58835527E-01  6.32761235E-01 -1.06551156E-01  9.00419272E-02
  4.58502444E-01 -8.59225099E-01  6.32517309E-01  1.06240104E-01  9.08007077E-02
  1.17138153E-01 -1.14462910E+00  5.97893843E-03  6.10424394E-02 -2.70372616E-02
 -2.19816342E-03 -9.56022538E-03  1.39040815E-01  5.31775117E-02 -7.75700793E-03
  9.42611932E-02 -3.56912637E-01 -5.40732928E-02 -1.42267203E+00 -8.84999040E-02
  4.45080463E-01 -8.50929486E-03 -3.19572770E-01 -3.55609703E-02  4.06646326E-05
 -4.46667085E-04  3.82280216E-02  9.05538510E-02 -2.71793736E-02 -6.82419388E-02
  1.96721782E-01  2.73943666E-01  6.65141660E-02  9.39078939E-02 -7.54859991E-01
  7.97498720E-02  2.12852567E-02  7.23849308E-02 -1.30161471E-03 -5.29972442E-03
  4.90245989E-02  7.79285398E-02  1.66563657E-02  8.32981988E-02  1.30595669E-01
 -2.32717663E-02  5.60371114E-01 -7.54768588E-02 -4.42648560E-01  1.35181436E-01
 -1.65139384E-01  5.03302566E-02  1.56281047E-03  6.22639939E-03 -7.25495542E-02
  1.03283817E-01 -5.72922826E-03  1.62019582E-02  4.58461893E-01  9.26860068E-02
 -2.72976819E-02  7.02907434E-02  3.50314771E-01  4.66613731E-03  3.94497245E-01
  2.87970726E-02 -1.32389625E-03 -5.54665947E-03  5.51612576E-02  8.03931532E-02
 -3.11328496E-02  8.38356932E-02  3.61661063E-04  6.99346418E-02  5.65987745E-01
 -8.32863411E-02 -4.56665041E-01 -1.28210697E-01 -1.44579597E-01 -8.03687778E-02
 -1.59591709E-04 -1.43740483E-03  5.81000849E-02  8.26218893E-02  7.38126306E-03
 -6.84215396E-02  1.48240348E-01 -3.31773487E-01  6.55825700E-02  9.96027118E-02
 -7.69766546E-01 -8.82011586E-02  3.15040184E-02 -4.44938818E-02  2.34187276E-03
  9.98497958E-03 -7.43047526E-02  6.27706640E-02 -9.59774998E-04  1.99579533E-01
 -1.19580767E-01 -4.79218786E-03  4.32567620E+00 -3.15979253E-02 -1.53074922E+00
 -1.87421437E-03 -3.69671735E-02  1.11158672E-03  3.10537534E-03  1.31272249E-02
 -8.59922577E-02  4.92417604E-02  2.39167280E-03 -1.59820227E-02  2.94307557E-01
 -3.22327190E-02 -1.07367744E-01 -1.08724681E-01  5.61527076E-02  7.70558555E-04
 -1.52612613E-01  2.54225063E-02 -2.25236385E-02 -3.48648316E-01  7.23040540E-02
 -2.60132537E-02  3.73646390E-03 -2.42736325E-02 -3.76092624E-01  6.24573972E-02
  2.83000679E-02  4.87760964E-03  1.21789153E-03  5.30162498E-03 -6.06978555E-02
 -7.04824470E-03 -1.35008580E-02  3.60425386E-01  1.67114960E-02  3.00824048E-02
 -2.36496537E+00 -1.57069275E-02 -3.64590225E-01 -1.27335611E+00 -2.50930329E-02
  4.28595077E-02  1.09834420E-03  4.82745854E-03 -5.65415894E-02 -1.79047764E-03
  1.60170357E-02  3.59871478E-01  3.10159924E-04 -4.87845709E-02 -2.36232364E+00
 -2.15403184E-02 -3.64918660E-01  1.27135052E+00 -3.92852868E-02 -3.70161861E-02
  6.14398493E-02  1.32286592E-02  1.82274030E-02 -7.57423082E-02 -2.11841215E-01
 -1.33999120E-01  2.84434187E-01  9.96466583E-03  1.66771162E-01  1.94780052E-01
 -1.15466923E-01  2.70878527E-01  2.62694884E-02 -1.59400727E-01  1.94709695E-01
  8.19227846E-02  4.28180348E-03  8.16840482E-03  8.56346814E-02 -2.11625344E-01
  8.07516344E-03  2.92121014E-02 -2.18631280E-01  2.57476165E-02 -1.71797478E-02
  5.56176198E-03  3.83828305E+00 -2.14912061E-02 -2.20610792E-01  9.40201578E-01
  4.97982974E-02 -1.02200696E-02  1.79841163E+00 -6.64694764E-02 -1.12163748E-02
 -4.62055477E-02  4.09808261E-01  9.05632190E-02  4.76021391E-02 -9.55483988E-03
 -1.40754570E+00 -2.06067345E+00  8.47459449E-04 -1.05235390E+00 -9.69117299E-02
  3.84751065E-02  1.30488745E+00 -2.78409224E-02  1.58935239E-02  6.76056661E-02
 -7.66474187E-01  1.36515492E-01 -1.71497512E-01  1.28705415E-02 -2.19290302E+00
  2.21549445E+00  2.45855208E-02  1.09810362E+00 -7.13612170E-02 -5.06776228E-02
 -1.00267547E+00 -7.01097748E-01 -5.55241584E-03 -1.78715154E-02  4.66613743E-02
 -5.06366769E-01 -1.45788064E-02  3.25926241E-02  5.55257332E+00  9.53906717E-02
  1.86772486E-01 -9.08279702E-01  1.24952499E-02 -8.81696287E-04 -2.09775468E+00
  5.88192752E-02  1.57123121E-02  6.65131535E-02 -7.44533109E-01  1.39122708E-01
  1.41519351E-01  1.37545766E-02 -2.30144535E+00 -2.20624079E+00  3.82510198E-02
  1.08277433E+00 -8.13002537E-02  5.19301538E-02 -9.71777331E-01  6.29784196E-01
 -1.16575056E-02 -4.83993495E-02  4.54797377E-01  7.62309003E-02 -8.64616663E-02
 -9.54111220E-03 -1.36118895E+00  2.01653847E+00  2.68621088E-03 -1.03842285E+00
 -1.12788465E-01 -4.50040597E-02  1.31491839E+00  8.47033990E-02 -2.07696837E-02
 -8.63401829E-02  5.89613364E-01 -1.66231689E-01 -3.55833699E-03  2.45523533E-02
  1.20942847E+00 -1.15685967E-02  5.39564662E-01  1.35276766E-01 -1.85850004E-01
 -1.48361046E-03  4.17529310E-01  5.78813148E-03  9.71989885E-03  3.79750149E-02
 -2.38569082E-01 -9.13085155E-02  3.95107274E-03  2.36961253E-02  2.67587104E-01
 -6.63166058E-02 -6.77441894E-02 -2.14891377E-01  6.51325321E-02  8.59003776E-04
  5.90897713E-01  3.82357869E-02 -4.21375501E-02 -2.37683979E-01 -2.01859466E-01
 -3.07148259E-01  3.28159592E-02 -4.04022735E-02 -2.64720847E-01 -2.17428128E-01
  3.07710459E-01  3.31667764E-02 -1.39435276E-02 -5.80933964E-02  6.18206043E-01
  9.56658801E-02  6.10724706E-02  4.51767422E-02 -1.12052251E-01 -3.43632572E-02
 -2.95321963E-01  1.37135682E-01 -4.80129721E-02 -1.57648100E-01  7.74967973E-03
 -1.58040767E-01 -1.41361992E-02 -5.88500875E-02  6.24409265E-01  1.05838401E-01
 -5.66682002E-02  4.45385498E-02 -1.46222625E-01  4.76692913E-04 -2.91243289E-01
  1.28470445E-01 -4.69253963E-02  1.55711120E-01 -1.90548114E-02  1.70730609E-01
 -6.24947312E-01  7.14223247E-01  9.08230382E-01  3.17863600E-01 -1.16630194E-02
  4.60689339E-01 -4.46797014E-01  4.66563933E-01 -4.67251971E-01 -1.77419977E-02
  4.98522591E-01 -4.70154605E-01  4.94346598E-01  4.84345518E-01 -1.72863093E-02
 -5.81587360E-01  6.96013694E-01  8.71031563E-01 -3.06147078E-01 -1.27905806E-02
  2.70898604E-04  9.82924691E-04 -7.57223336E-03  2.06657742E-03  5.06940719E-01
  1.72065040E-03  1.22714925E-01 -6.74238708E-01 -4.08774964E-02  3.18096652E-02
  6.73901953E-03  2.59892662E-01  5.82217310E-02  1.88510819E+00 -7.00573492E-03
 -3.40396900E-02  6.56016444E-01 -1.70420353E-01  5.54697305E-01 -2.09810052E-03
  1.49543889E+00 -9.65466441E-02  2.75944531E-03  9.94039174E-02 -2.42933392E-01
  1.15674562E-01  2.50395590E-01 -8.45821725E-01 -8.16694715E-04 -7.98882782E-03
  2.14063849E-01  6.89902318E-02  4.05692126E-01  1.37495169E-02 -6.70054615E-01
  5.13418551E-01  1.40125726E-01 -1.39622642E-01 -2.01477520E-01 -7.11590368E-02
  3.55655921E-01  9.55252675E-01 -1.74746851E-04 -5.46951539E-04  7.97689101E-04
 -1.74426818E-02  3.95470379E-01  1.44482080E-03  1.95743547E-01 -1.54422701E+00
  1.23250846E-02 -3.00695114E-02  1.11755432E-03 -6.61068764E-02 -6.86515442E-02
 -1.54517030E+00  1.86078250E-03  1.24171593E-02 -2.63926031E-01 -5.82194986E-02
  4.16278014E-01 -1.01782560E-02  5.13518504E-01  3.61343572E-01 -1.28156499E-01
  2.13230982E-01  1.82837452E-01 -6.41754145E-02 -4.22314736E-01  1.00200342E+00
  6.24061587E-03  3.08759408E-02 -6.27240833E-01  1.77365929E-01  5.50514318E-01
 -3.14818462E-04 -1.58445772E+00  3.87929331E-02  1.02601474E-02 -1.69568617E-01
  2.09468340E-01  1.02619031E-01 -1.62854908E-01 -8.45538326E-01 -6.85388922E-04
 -2.84575407E-03  1.93580635E-02 -5.62361806E-03  7.19500582E-02  4.43976877E-03
  4.25947086E-02  6.16572496E-01  9.84804385E-02  3.23901996E-03 -3.49166784E-02
  2.90043348E-02  1.47111019E-02 -8.91983397E-02  3.75475006E-04  1.48220805E-03
 -9.40290719E-03 -2.64364478E-03 -9.61923300E-02  6.47814451E-04  1.07947444E-02
  1.54677964E+00 -3.04025333E-03 -8.95128061E-03  1.45177928E-03 -2.56969099E-02
  2.01869217E-02 -1.03943625E+00 -5.69516630E-05 -4.56162314E-01 -2.21415159E-01
 -3.26336542E-02  1.20036695E-02 -2.75244591E-03  4.33985099E-01  2.06938871E-01
 -1.00905561E-02 -8.63867532E-03 -4.01867916E-03 -1.60786406E-02  1.48070405E-01
  1.55534083E-01 -7.02394177E-02  1.48378785E-03 -5.01540626E-01  5.13356578E-01
 -1.62888878E-02 -1.10408938E-01  5.04458214E-03 -4.94393816E-03 -3.87367360E-01
 -1.82782432E-01  3.08650761E-03  1.21955772E-02 -1.06735481E-01 -1.48570323E-01
 -7.41954445E-02  1.50654665E-02  4.91447876E-01  5.14701154E-01 -9.23683815E-02
  1.20066568E-01 -2.17245532E-02  5.35783182E-02  3.86413546E-01 -1.70641339E-01
  5.81177750E-01 -2.75429473E-01 -5.51108045E-01 -1.18339158E-01 -1.32230781E-02
  5.60981326E-01 -4.05566148E-01  3.60057664E-01 -3.14001903E-01  8.50922959E-03
 -5.31008987E-01  3.83073018E-01 -3.29481411E-01 -2.83694652E-01 -6.11084422E-03
 -6.21518005E-01  3.21687681E-01  6.11879731E-01 -1.38692220E-01  7.31717357E-03
 -1.63183536E-03 -1.05703320E-02  2.93483495E-01  1.69671635E-01  1.12312240E-03
 -7.90650636E-04  1.04548150E+00  3.29250092E-04  1.97506920E+00  2.65535801E-01
  1.47356729E+00 -2.79313133E-03 -4.68046562E-01  6.52193609E-03 -9.52853008E-03
 -4.31122689E-02  6.06935011E-01  5.45744887E-01 -1.29933867E-02 -7.54749623E-02
 -4.05704070E-01 -3.32417407E-01 -1.83620522E+00 -3.93064516E-01 -4.96812601E-01
 -1.18832894E+00  8.19549406E-01  2.07769912E-02  2.17198910E-03  8.58279888E-03
 -4.94876190E-02  5.22510737E-01  4.84521885E-02  7.44983225E-02 -1.64888887E+00
  2.04113693E+00  1.84716060E+00  4.66224683E-01 -4.00498848E-01  1.13824690E+00
 -1.63403489E+00 -1.47059575E-01 -1.12786974E-03 -6.50405387E-03  1.07844631E-01
  3.37457042E-01  4.18923556E-04 -3.99371322E-02  6.99255113E+00 -9.30440876E-03
 -2.13429933E+00 -2.46281641E-01  1.26593303E+00  5.30416750E-04  5.95077020E-01
 -4.17702914E-03  2.14375925E-03  8.48566395E-03 -4.89450575E-02  5.20312182E-01
 -4.68049274E-02  7.44919034E-02 -1.63182095E+00 -2.04789872E+00  1.84892403E+00
  4.65055387E-01 -4.03651107E-01 -1.13666834E+00 -1.63361158E+00  1.50830749E-01
 -9.48503262E-03 -4.29063599E-02  6.03728005E-01  5.45012865E-01  1.58434272E-02
 -7.55793345E-02 -4.01401891E-01  3.41154510E-01 -1.83543265E+00 -3.89892898E-01
 -5.00804014E-01  1.18620409E+00  8.14711214E-01 -2.45787384E-02  9.20926392E-04
  5.38778470E-03 -7.10384624E-02  2.72620032E-01 -5.11100032E-04 -5.75171164E-02
 -5.54431287E-02  6.62383241E-03 -5.21581013E-03 -6.10477529E-02  6.77542391E-01
  2.11912602E-04 -5.09570307E-03  2.00820417E-03  2.30275611E-02  9.63808508E-02
 -6.58734726E-01  2.42849471E-01  5.92934206E-05 -7.60254971E-03  2.22902201E+00
  9.84901457E-04 -5.79202297E-02 -9.26332208E-01  3.46238785E-01  6.94756213E-04
 -1.01589461E+00 -3.78461005E-04 -3.73123476E-01 -2.49614739E+00  3.50626139E-01
 -1.98754018E-01  1.90807843E-02 -3.73315798E-01 -2.49449478E+00  3.50253346E-01
  1.99283653E-01  1.99378951E-02 -2.26578600E-03 -7.87565726E-03  5.15528862E-02
  4.72207649E-02 -5.94377479E-02 -8.34097593E-02 -4.53385621E-02  2.66053875E-01
  4.57864356E-01 -2.49782051E-02 -1.29542458E-02  2.15073414E-01 -1.86308752E-01
  1.64489571E-01 -2.21868954E-03 -7.68343602E-03  4.94341043E-02  4.61061856E-02
  5.87148370E-02 -8.34656634E-02 -4.30687083E-02 -2.62867200E-01  4.58290964E-01
 -2.43821469E-02 -1.25914859E-02 -2.15458269E-01 -1.83773287E-01 -1.65900662E-01
 -4.57680641E-02  1.87028354E-01  4.86682327E-01 -8.65472337E-02 -4.37391472E-01
 -3.05397010E-01  1.61506768E+00  4.72850268E-01  5.79128424E-01  4.07788035E-01
 -3.08069347E-01  1.61886459E+00  4.68147374E-01 -5.79659781E-01  4.07350158E-01
 -4.78881576E-02  1.85282412E-01  4.84976594E-01  8.50993153E-02 -4.37750285E-01
  1.27741097E-03  3.44082434E-03  2.51270476E-02  7.34851402E-02  4.14377553E-03
 -9.35450784E-03  5.72247442E-01  2.81230191E-01 -2.46315765E+00  1.21400150E-01
 -2.34372112E+00 -7.14167943E-02 -2.07061725E-01  2.48648264E-04 -6.20125973E-03
 -2.88419447E-02  4.38565210E-01  3.37802103E-01 -5.25336518E-03  1.69551671E-01
 -5.90275812E-01 -2.12905194E-02  2.96631696E+00 -2.19994371E-01  1.15912991E+00
  1.67462823E+00  3.91734536E-01 -6.44756440E-02  8.78763535E-05 -2.94393741E-04
  6.62682302E-02  2.76107246E-01  4.51374512E-02 -1.78272639E-01 -1.50445540E+00
  1.02505543E+00 -3.04803670E+00  2.73999660E-01  1.14075449E+00 -1.79766223E+00
 -1.21498445E+00 -1.08069381E-01  2.94118491E-03  1.14878807E-02 -1.75199287E-01
  1.91227454E-01  7.45415107E-03 -1.31394127E-02  4.25270772E+00 -3.04076962E-01
  2.48516244E+00 -5.61919276E-02 -2.68854147E+00  6.94111753E-02  2.18413160E-02
 -3.97800926E-03  3.38788727E-04  7.79682007E-04  4.70293711E-02  2.71848618E-01
 -3.78622282E-02 -1.76618418E-01 -9.58601729E-01 -1.33568181E+00 -3.04783245E+00
  2.68053999E-01  1.02264394E+00  1.87050730E+00 -1.19786618E+00  1.13729695E-01
 -6.25590592E-03 -2.89942712E-02  4.40728006E-01  3.32700593E-01  6.91319193E-03
  1.68716319E-01 -6.38317480E-02  3.27717374E-01  2.97244485E+00 -2.15730145E-01
  1.03891329E+00 -1.74947324E+00  3.90187001E-01  3.48277366E-02  4.62636413E-03
  2.04202703E-02 -1.59987123E-01  1.58458615E-01 -2.51772515E-03  4.08137847E-02
 -1.01145451E-01 -4.40779722E-03 -1.02254157E+00 -9.11343715E-02 -6.93014246E-01
 -1.19460542E-02 -5.00102051E-02  3.70598000E-03  1.27518999E-02  5.39375157E-02
 -3.86106157E-01  1.67602843E-01  3.49887218E-03  5.58141850E-02  1.03602635E+00
  8.56687072E-02  1.02442735E+00 -6.19618914E-01 -7.01336151E-01  6.18717433E-04
 -6.21183448E-01  4.50646277E-02 -2.49463374E-01 -1.13054030E+00  2.16322874E-01
  5.62176865E-03  3.89449604E-01 -2.77927174E-01 -1.28226994E+00  1.99222062E-01
  2.74689663E-02  4.04720309E-01  2.67902622E-04  2.10122999E-03 -4.28506918E-02
  2.15760273E-02 -4.90522528E-02  4.33560134E-02 -2.68305821E-02  1.83640946E-01
 -1.54214350E-01 -1.70488463E-02  1.12507743E-01 -4.65812959E-02 -1.19269443E-01
  1.33251688E-01  2.72037159E-04  2.13268204E-03 -4.38536834E-02  2.34851222E-02
  5.01456898E-02  3.91417875E-02 -3.84154515E-02 -1.94717758E-01 -1.28018669E-01
 -2.12887754E-02  1.21714431E-01  3.19617051E-02 -1.27150578E-01 -1.31280731E-01
 -1.28920836E-02  1.06333570E-01  2.32973382E-01 -2.95285918E-02  6.99698021E-01
 -1.55335419E-01  8.05442955E-01  4.63972257E-01  4.18302023E-01 -7.92651487E-01
 -1.65052487E-01  8.32556126E-01  3.93956968E-01 -3.91730027E-01 -7.96260873E-01
 -2.03526857E-02  1.11936670E-01  1.97026088E-01 -8.24182388E-04  7.01055632E-01
  7.10449077E-05  2.54714282E-04 -2.08259048E-03  2.20289519E-03 -1.62366785E-01
 -2.88887829E-04  1.01480958E-02 -9.54100024E+00 -7.71702975E-02  3.98337613E-03
 -6.47550078E-02  2.44155548E+00 -8.64959186E-03  1.58440152E-02 -1.97755446E-03
 -7.00362050E-03  1.00101773E-01 -5.75884262E-02 -3.26792106E-02 -7.45685690E-03
  8.99201887E+00 -5.40071254E+00  2.07688790E-01  1.19325923E-01 -1.99455661E+00
  1.33660026E+00  8.74007179E-02  4.89275782E-01  6.00598359E-03  2.60349636E-02
 -4.53882702E-01 -4.76763139E-02 -1.55515557E-01  2.06271995E-02  9.38588354E+00
  5.40783812E+00 -1.37181822E-01 -1.22878498E-01 -1.99840758E+00 -1.31961364E+00
  1.67840997E-01 -1.59829098E-01  8.08402664E-05  2.93536706E-04 -3.96810776E-03
  6.70548654E-03 -2.64409084E-01 -4.51360803E-04  1.29936681E-01  1.03378043E+01
  7.09749504E-02 -8.29854616E-04 -7.73206497E-02 -2.39875939E+00  4.94951642E-03
  2.85000266E-01 -6.05292829E-03 -2.62888397E-02  4.61267623E-01  6.37600969E-02
 -1.58429410E-01 -3.03924385E-02 -9.45299452E+00  5.33722683E+00 -3.08864592E-02
  1.36612516E-01  2.05652991E+00 -1.21549265E+00 -2.37445570E-01 -1.54840230E-01
  1.61174997E-03  5.31073660E-03 -7.42011608E-02  7.79834981E-02 -3.22669602E-02
  1.65426127E-02 -9.00973212E+00 -5.38783644E+00 -3.85448953E-02 -1.30729495E-01
  2.05369683E+00  1.23823806E+00 -6.88670965E-02  4.92144631E-01  1.04103850E-04
  4.64241143E-04 -3.82599400E-03  4.42923965E-03  8.01071336E-02  1.51249986E-03
 -1.12956409E-03  2.19104134E-01 -1.94079317E-02 -3.47289301E-03 -2.22079970E-02
  4.04549837E-01 -1.36045955E-03 -1.39008937E-01  3.78329552E-04  1.60768788E-03
 -1.16418797E-02  5.22281934E-03 -1.18981238E-01  1.48636151E-03  3.50662751E-02
 -3.05091271E+00  2.88516243E-02 -1.98772469E-02 -2.09393899E-02  2.34281240E-02
 -2.23755309E-02 -1.47571481E+00 -5.01302316E-01 -2.61800276E+00 -2.74526150E-01
 -5.70652932E-01  2.77984898E-01  4.83937115E-01  2.53800406E+00  2.87868328E-01
 -5.69852471E-01 -2.55136835E-01 -5.61458179E-04 -2.07238255E-03  1.08785269E-02
  3.87013662E-02 -1.94768419E-02 -7.23901475E-02 -2.05988827E-01  2.00757447E-01
  4.51291723E-01 -6.56368431E-02  1.65090598E-01  2.52917846E-01 -1.42171934E-01
 -3.23617563E-02  5.66297868E-04  2.14488906E-03 -1.27164322E-02 -3.71697235E-02
 -1.65344179E-02  7.60811466E-02  2.02595375E-01  1.89358513E-01 -4.68692553E-01
  6.52046641E-02 -1.60486453E-01  2.59939774E-01  1.34802204E-01 -3.91518467E-02
 -1.39122448E-01  1.33051695E-01 -5.74107505E-01  5.05893441E-01  5.46877948E-02
 -1.90523429E-01  4.04531119E-01 -1.16981047E+00 -4.43428799E-01 -8.46205735E-02
  1.79348314E-01 -3.48664694E-01  1.19255529E+00 -4.69398942E-01  3.98685979E-02
  1.38683694E-01 -1.28358406E-01  5.83694600E-01  5.05345901E-01 -1.61522104E-02
  2.38677005E-02  1.06720015E-01 -1.69745983E+00 -4.46226906E-01 -2.13553826E-05
 -2.45630010E-03  9.35164913E-01 -5.67307794E-03  1.10532223E-01 -2.08645443E-01
  1.61582072E-01  1.96819707E-04  1.19086956E+00 -2.27667078E-04 -1.89671049E-02
 -8.27444091E-02  1.36331389E+00  1.80014351E-01  1.43688148E-01 -1.64844495E-02
 -1.47265033E+00 -7.14150644E-01 -2.09579721E-01  6.84353373E-02 -9.29794050E-02
 -9.29111902E-02 -1.13716189E+00 -1.24807816E+00 -1.69008684E-03 -1.12334979E-02
  4.55781728E-01 -4.25873543E-01 -7.54734595E-02  2.09132452E-02  9.45856897E-01
  2.42956200E+00  1.72901295E-01  8.85638843E-01 -1.22059828E-01  9.14234217E-02
 -1.20717451E+00  5.33802583E-01  2.35181486E-02  1.10055636E-01 -2.15681282E+00
  1.05546938E-01 -3.16716801E-04  1.75652541E-02  1.78849416E+00  6.67633458E-03
  8.05785958E-02 -1.67299112E+00  2.51715622E-01  4.49325424E-03 -4.44449720E-01
  1.45854913E-03 -1.71254036E-03 -1.13208583E-02  4.56858457E-01 -4.24978163E-01
  7.51990879E-02  2.04473799E-02  9.26172293E-01 -2.41977321E+00  1.67797891E-01
  8.86964285E-01 -1.24487216E-01 -8.88848933E-02 -1.20831928E+00 -5.32045207E-01
 -1.89480000E-02 -8.26504507E-02  1.36083658E+00  1.80592674E-01 -1.43291869E-01
 -1.68885621E-02 -1.48880829E+00  7.07056921E-01 -2.11177937E-01  6.62762514E-02
 -9.25767869E-02  9.28522733E-02 -1.13530277E+00  1.24810876E+00  3.14962016E-02
  1.32624145E-01 -9.03252717E-01 -3.84506525E-02  9.57691734E-05 -1.94442746E-03
 -8.93172647E-01  5.28080449E-05  1.08492659E-01 -3.55868422E-01  4.19702396E-02
 -6.25813186E-04 -3.82187727E-01 -1.25449037E-03  1.49060357E-02  5.82266639E-02
 -3.13404375E-01  1.18691151E-01 -3.48577943E-04 -6.53776509E-03  5.07476622E-01
 -8.00988050E-03 -1.23290328E-01  3.47591213E-01  1.60093781E-01 -2.96934369E-03
  6.17851514E-01 -5.32227277E-03  2.29976061E-01 -5.60881627E-01 -4.79072983E-03
 -5.17017476E-01 -3.08794925E-02  2.33205627E-01 -5.43782673E-01 -3.56661983E-03
  5.14090277E-01 -2.95658315E-02  1.15214852E-02  4.91214992E-02 -5.55265377E-01
 -3.82377275E-02 -1.00479069E-01  8.31116551E-06  4.46140679E-02  1.70498797E-01
 -8.02002496E-03 -4.61326443E-02 -1.29464077E-02 -5.35971259E-03 -5.90343636E-02
  2.92441127E-01  1.15432281E-02  4.92159897E-02 -5.56378746E-01 -3.79213575E-02
  1.00804869E-01 -6.43689954E-05  4.38409177E-02 -1.71050235E-01 -7.85501196E-03
 -4.64100482E-02 -1.27877331E-02  4.84791777E-03 -5.98102070E-02 -2.92031211E-01
 -4.82104465E-02  5.78642937E-01 -6.14208430E-01  6.72906488E-01 -4.20947499E-02
  2.93103270E-01  6.28454670E-01  3.05036062E-01  4.83089208E-02  4.37377643E-02
  2.93100395E-01  6.27825471E-01  3.08141806E-01 -4.94434265E-02  4.32699565E-02
 -4.92877714E-02  5.76539222E-01 -6.11430233E-01 -6.71611823E-01 -4.24902880E-02
 -1.08788671E-05 -3.73030005E-05  2.92279815E-04 -3.84961588E-04 -1.23634442E-01
 -2.08225356E-04 -3.26452442E-03  6.55785698E+00  1.07884831E-03 -4.26918357E-05
  1.33054967E-03 -8.50926697E-01 -3.33742349E-03  2.02374479E+00 -2.07341754E-02
 -9.15197529E-02  1.61189181E+00  8.81649551E-04  3.07155031E-01  6.92449182E-03
 -2.45046942E+00  3.06427816E+00 -1.35473383E-01  8.19040118E-01  6.58896500E-01
 -5.62929142E-01 -1.71574397E-02  2.87330073E-01  1.24622237E-02  5.60769233E-02
 -1.01129918E+00 -1.00644255E-01 -3.78016121E-01  3.58563881E-02 -2.66858424E+00
 -1.41594158E+00  6.18967345E-01 -5.93390438E-01  8.00430377E-01  7.20488044E-01
 -8.24125047E-01 -2.29877134E-01 -3.18459302E-05 -1.45641396E-04  2.68349529E-03
 -2.04039647E-03  3.03678998E-02  5.72551229E-05 -4.26490720E-03 -4.87503345E+00
 -1.16683665E-03  1.29715597E-03  2.72191896E-03  1.62681220E+00 -2.92845943E-04
  1.51613310E+00 -1.24607915E-02 -5.60780707E-02  1.01172323E+00  1.00392769E-01
 -3.77710213E-01 -3.57596974E-02  2.65776475E+00 -1.41802158E+00 -6.16505158E-01
  5.94823323E-01 -8.01330772E-01  7.18096691E-01  8.30259167E-01 -2.23221709E-01
  2.08086612E-02  9.18536417E-02 -1.61787556E+00 -1.33692839E-03  3.07727306E-01
 -6.88690206E-03  2.45157396E+00  3.06962799E+00  1.35189443E-01 -8.21587267E-01
 -6.60680502E-01 -5.60740718E-01  1.35955168E-02  2.86204352E-01 -3.53129956E-05
 -1.49149768E-04  1.03002410E-03  1.55040562E-04  2.47332943E-01 -2.08672191E-04
 -3.64811610E-04 -1.16972279E+00  9.66437795E-04  1.07712526E-03  1.27884881E-03
 -2.33386958E-01  9.65071264E-04 -7.75719968E-01 -7.12705583E-07 -3.44959654E-07
 -2.63802221E-05 -1.19134222E-04 -8.62772279E-02 -3.22129575E-05 -6.93375432E-03
 -1.57914962E+00 -2.28482975E-03 -3.07310768E-04  1.04875488E-05 -6.29371869E-01
  2.72861530E-03 -6.77591199E-01 -3.72896526E-01 -1.27904219E+00  1.64832044E-02
 -1.68115180E-01 -1.81250627E-01  3.73814141E-01  1.28852145E+00 -1.88549090E-02
 -1.68792025E-01  1.80061918E-01 -1.85821427E-03 -7.13643639E-03  1.86599674E-02
  1.55710636E-01 -8.61110621E-04  3.36178234E-02 -6.67000178E-01  4.31838601E-01
 -2.33328188E-01 -1.21177673E-01 -8.29939648E-02 -1.13033414E-01 -5.15623551E-01
 -1.98890590E-01  1.84829421E-03  7.08734837E-03 -1.80104162E-02 -1.55771995E-01
 -1.35877404E-03 -3.36916518E-02  6.66913046E-01  4.33827655E-01  2.33364401E-01
  1.21084765E-01  8.31157818E-02 -1.12591147E-01  5.16427053E-01 -1.97136428E-01
 -7.57071519E-02  2.08051047E+00  6.60660043E-01  1.90953998E-01 -6.24633583E-02
 -5.01677187E-01  2.61293278E-01  2.35358167E-01  5.17288268E-01  6.97229629E-02
  5.01229742E-01 -2.57834271E-01 -2.38131224E-01  5.18390032E-01 -6.88389615E-02
  7.60006570E-02 -2.09120003E+00 -6.60653817E-01  1.92345772E-01  6.23601970E-02
  8.26613835E-03  4.24447913E-02 -7.40823453E-01 -7.14016474E-01  1.70570953E-03
 -5.69269028E-03  1.23821704E+00  1.87438929E-01 -4.61139951E-02  7.34246069E-01
  3.85629938E-03  8.07539708E-03 -1.01228882E+00  2.45034008E-02  5.77924717E-03
  2.87739917E-02 -7.74259840E-01 -9.21877764E-02 -1.63505893E-02 -1.25393205E-03
 -2.35451490E+00 -4.39218125E+00  1.76236651E-04 -1.27713743E+00 -2.35559179E-02
  3.13729453E-02 -1.33715967E+00 -1.44004170E+00 -2.25323056E-03 -1.46793252E-02
  5.23958127E-01 -2.18565099E-02 -2.19972378E-02  3.13142723E-03 -3.07605899E+00
  3.52421235E+00 -9.70362732E-02  1.06513780E+00 -4.39110109E-02 -9.94599318E-02
  1.46191094E+00 -2.04768768E+00 -1.44317346E-02 -6.50987902E-02  1.03340864E+00
 -9.45488800E-01  4.09808677E-03  4.13583443E-02  5.53919867E-01 -1.91073656E-01
  3.12900465E-01 -2.46391775E-01 -5.97287606E-02 -2.54167789E-02  3.32887970E-01
 -8.47354899E-03 -2.07889557E-03 -1.39274359E-02  5.12030441E-01 -2.09645020E-02
  2.35513682E-02  4.72568072E-03 -2.73708259E+00 -3.68187159E+00 -7.30599834E-02
  1.06726516E+00 -2.47252704E-02  7.78685023E-02  1.48686820E+00  2.04404457E+00
  6.03667307E-03  3.00034107E-02 -7.96947378E-01 -9.28519478E-02  2.17652634E-02
 -8.70912189E-04 -2.05886683E+00  4.62114429E+00 -5.33299166E-04 -1.28510677E+00
 -1.01221424E-02 -1.68733473E-02 -1.31748866E+00  1.43281341E+00 -1.23012289E-02
 -5.11430322E-02  3.35102786E-01  4.00659865E-01 -9.06902214E-04  3.32881892E-04
 -1.94301700E+00  1.44552382E-03  1.98821521E-02  3.97435306E-01  1.47368933E-03
  4.77957325E-03 -4.64393841E-01 -4.07773388E-03  1.83975519E-02  7.92364718E-02
 -5.70887462E-01  2.40211492E-01  1.02845626E-03  1.26456065E-02 -2.49647588E+00
  6.39528471E-02 -1.99010575E-01 -3.43320294E-01 -1.65541000E-02  1.34418672E-02
  1.28897881E+00  2.29504223E-02  2.82425241E-02  1.44837460E+00 -4.60245828E-01
 -3.87571965E-02 -3.98888709E-02  9.09527063E-03  1.34824835E+00 -4.65613298E-01
  5.82704043E-02 -4.44610658E-02  4.75539784E-03  1.88103233E-02 -2.06703717E-01
 -3.40946846E-02 -2.64408475E-02  6.23597509E-04  2.08582854E-01  6.61805061E-02
 -2.87998877E-03 -1.26755283E-01 -2.05642216E-03 -8.14592440E-04  1.40129980E-01
  1.74748479E-01  4.95223187E-03  1.96348349E-02 -2.15769179E-01 -3.52125514E-02
  2.83866464E-02  1.82924954E-03  2.09311541E-01 -6.95566937E-02 -1.17127811E-02
 -1.29820837E-01 -5.15070847E-03  3.95895266E-03  1.39030815E-01 -1.77497355E-01
  8.76976554E-02 -3.65398023E+00 -9.93615376E-01  1.56303708E-01  9.01551242E-03
 -9.82488975E-02  2.66139881E+00 -9.42010087E-01 -2.15277747E-01 -4.56501953E-02
 -9.14755294E-02  2.63977368E+00 -9.74916762E-01  2.43281156E-01 -4.37812834E-02
  8.99759770E-02 -3.70031889E+00 -1.01904149E+00 -1.59905168E-01  8.61647078E-03
  4.09880983E-05  2.35331171E-04 -3.72218179E-03 -6.94526644E-03 -6.16420833E-02
 -4.28543218E-05  1.04687425E-02 -1.47243285E+01 -6.55680634E-03  9.51404034E-03
 -2.17652215E-03 -7.06994920E-01 -1.16921906E-02 -2.37649203E+00  1.54561876E-02
  7.28660485E-02 -1.37275220E+00 -4.27480899E-02 -3.11899996E-01  7.66453801E-03
  1.09481428E+01 -8.77565628E+00 -1.67701820E-01 -6.11006980E-01  5.26656557E-01
 -5.54618880E-01  3.07418519E-01  4.56446018E-01  7.82555656E-04  2.10404293E-03
  3.54010258E-02  9.73415601E-03  2.36590834E-02  6.88821303E-02  1.26915123E+01
  6.13822009E+00  9.84504664E-01  3.72534734E-01  7.41525971E-01  8.17521531E-01
  1.23675409E+00  1.51324778E-01 -1.80305189E-04 -8.18709188E-04  1.36335315E-02
 -1.08756093E-02 -3.78994590E-01  4.43900189E-04  1.59676000E-02  1.50775428E+01
  5.70036514E-03  6.59295769E-05 -2.07169036E-03  2.05028033E+00  3.50678430E-03
  1.40671260E-01 -8.14673883E-04 -2.32920113E-03 -2.66999799E-02 -8.40567182E-03
  2.37862709E-02 -6.88497676E-02 -1.27601882E+01  6.06759915E+00 -9.85429597E-01
 -3.51326848E-01 -7.42586007E-01  8.23236336E-01 -1.20314546E+00  1.99933195E-01
 -1.53103901E-02 -7.21510081E-02  1.35383966E+00  3.98004327E-02 -3.11418314E-01
 -7.92307200E-03 -1.09950260E+01 -8.67344611E+00  1.69143189E-01  5.81462731E-01
 -5.26930676E-01 -5.57695644E-01 -3.30474149E-01  4.83785256E-01 -1.15751917E-04
 -4.76206858E-04  2.91358927E-03  4.86111502E-03  1.74780760E-01 -6.11074374E-05
 -2.05098912E-02 -7.16398515E-01  9.05451546E-04  3.79688430E-03 -1.05802186E-03
 -3.19759445E-01 -5.45598922E-03  2.08418741E-01  1.90780032E-04  8.26721878E-04
 -6.11321020E-03  2.41572757E-03 -7.01516504E-02  1.16465603E-04 -2.74591515E-02
 -4.94651498E+00 -3.27862161E-03 -5.86804704E-03 -2.35752725E-03 -1.13995717E+00
  1.19599072E-02 -2.03873642E+00 -7.50527283E-01 -4.21612958E+00 -2.64801857E-01
 -8.43703958E-01 -1.88273547E-01  7.49927368E-01  4.24544521E+00  2.53823954E-01
 -8.42923735E-01  1.87084563E-01  1.01826133E-02  4.27972348E-02 -4.85358493E-01
 -2.20169240E-02 -1.25532961E-01  3.85066585E-02 -1.27247297E-01  3.64631636E-01
 -2.93527502E-01 -1.66557682E-01 -1.03822535E-01 -1.27605400E-01 -2.09503374E-01
  1.59898293E-01 -1.00606556E-02 -4.23013313E-02  4.79704879E-01  2.14368896E-02
 -1.24363501E-01 -3.83031180E-02  1.31280193E-01  3.61614590E-01  2.92125076E-01
  1.63790525E-01  1.04202129E-01 -1.25898595E-01  2.11978406E-01  1.55649827E-01
 -8.81646511E-02 -2.06677415E+00 -1.19251264E+00  3.28701328E-01 -8.12863863E-02
  3.24841687E-01 -3.25733477E-01 -1.46237063E+00 -1.11811583E+00  8.47715231E-02
 -3.28362904E-01  3.81446222E-01  1.44064461E+00 -1.11395872E+00 -8.71908846E-02
  8.91711240E-02  1.98887302E+00  1.17190642E+00  3.25419339E-01  8.10326802E-02
  7.47324053E-05  3.33228697E-04 -7.68343407E-03  8.05141765E-04  5.90652010E-01
 -8.09975300E-05  1.94675077E-03  8.89706379E+00 -1.46116977E-03 -8.86152970E-03
 -1.55694656E-03  5.37408170E-02 -3.64072839E-03  1.06936847E+00  2.14515167E-03
  1.01618513E-02 -2.86359674E-01 -1.02091713E-01  3.39721341E-02  6.26637230E-04
 -7.43012219E+00  5.51236966E+00  3.11726774E-02 -4.98060434E-01 -2.69530935E-02
  4.86957860E-02 -2.23007217E+00 -4.22849419E-01 -2.09498050E-02 -9.52423726E-02
  1.74662307E+00 -1.73852483E-01  2.28745273E-01 -9.95152234E-03 -9.40205183E+00
 -2.20992908E+00 -1.21525166E-01  7.62663864E-01 -4.71240533E-02 -7.74673222E-02
  2.73131951E-01 -6.22987348E-01  1.08104679E-04  4.96502259E-04 -8.94263205E-03
  3.61809017E-03 -2.84411363E-01 -8.93546431E-05  4.72913493E-04 -8.13587333E+00
  1.22813337E-03 -3.05553249E-03 -1.90619099E-03 -2.04256488E-01 -1.51270626E-03
 -1.85216086E+00  2.08761504E-02  9.49338725E-02 -1.74118948E+00  1.71847946E-01
  2.28956647E-01  9.86188481E-03  9.42259428E+00 -2.19911269E+00  1.15965057E-01
 -7.63066592E-01  4.82712562E-02 -7.47659411E-02 -2.93394627E-01 -6.41888705E-01
 -2.15235962E-03 -1.02350409E-02  2.90682711E-01  1.07739774E-01  3.51321743E-02
 -3.82648394E-04  7.43270828E+00  5.47442506E+00 -2.48587775E-02  5.09042833E-01
  2.64989039E-02  4.42368722E-02  2.22576939E+00 -4.29620571E-01 -1.08744947E-04
 -4.75628663E-04  3.81299117E-03 -2.41271844E-03  4.26232396E-01 -2.62301575E-04
  1.19568483E-02 -2.16919673E+00 -1.28292687E-03  3.95594737E-03  5.59461726E-04
  3.15947911E-02  4.53200699E-03 -7.41263261E-01  8.50092372E-07 -9.46456750E-06
  2.69102543E-04  3.06295934E-05  1.02685128E-01  4.10595883E-05  8.94393953E-03
  1.84299850E+00  1.37052955E-03  1.00473078E-03 -3.65310397E-04  1.62040678E-01
 -3.43523146E-03  2.31223664E-02  2.69571779E-01  2.68838762E-01 -1.10731589E-02
  1.53302723E-02 -1.88750252E-03 -2.69555097E-01 -2.80188720E-01  1.41853725E-02
  1.65326140E-02  3.14055999E-03  2.41069119E-03  1.13055227E-02 -2.14144727E-01
  1.87699840E-01 -1.32924702E-01 -3.65083287E-03 -9.02803401E-01  9.35714297E-01
  2.86074022E-02 -1.58600496E-01  1.02443773E-02  1.15777693E-02 -8.25792706E-01
  3.37212399E-02 -2.61965242E-03 -1.21985551E-02  2.24526581E-01 -1.86709296E-01
 -1.34998185E-01  3.45928585E-03  8.98789650E-01  9.39536723E-01 -2.75398472E-02
  1.59890842E-01 -9.53915738E-03  1.20671147E-02  8.25954993E-01  4.05153266E-02
 -6.14677764E-01  1.30717662E+00 -9.73231770E-02  7.61858101E-01  1.06427461E-02
 -1.41241440E-01  2.73639174E+00  5.80692293E-02  6.75337810E-01 -8.44182905E-03
  1.42492610E-01 -2.74287004E+00 -4.97488560E-02  6.71079308E-01  8.13019895E-03
  6.16751218E-01 -1.29141373E+00  1.01904426E-01  7.62763510E-01 -9.51680144E-03
 -1.85214390E-02 -8.59825916E-02  1.87329077E+00  1.61249177E-01  1.21279180E-01
  9.50769720E-05 -5.57032835E-01 -3.15895719E+00  4.03389387E-02  1.47853020E+00
  3.46314444E-02 -5.05553815E-02  1.25610578E+00  7.25556295E-01 -6.00332256E-03
 -2.47815101E-02  2.47263304E-01 -4.38097854E-01  2.12728977E-01 -3.64770205E-03
  3.72828381E+00 -2.02315671E+00 -7.59992605E-02 -5.99997546E-01  1.62537050E-02
 -7.19357691E-02  5.60225973E-01  2.66551467E-01  7.91631478E-03  3.37982087E-02
 -6.32426538E-01  1.34123551E-01  1.13233722E-02  1.18246720E-02  1.15587103E+00
  1.59767676E+00  1.69667183E-01 -1.95698236E-01  3.20255474E-02  1.09530322E-01
  6.39642748E-01 -8.26166746E-01 -1.02761309E-02 -4.65926367E-02  8.74756848E-01
 -2.10475236E-01 -1.12496311E-01  5.47646646E-03  5.62604211E-01  2.94413757E+00
 -3.21683003E-02  4.61295822E-01  6.40507274E-02  2.09289571E-01 -6.81077722E-01
 -2.65505296E-01  1.33552992E-02  5.97919737E-02 -1.13739276E+00  2.49467006E-01
  4.53670453E-02 -5.14207390E-03 -3.07330165E+00  2.14836207E+00 -5.15015779E-02
 -4.26974757E-01 -8.81308354E-02  4.53130238E-02  3.27809314E-01  4.90192473E-01
 -4.51256934E-03 -1.66324358E-02  1.10067387E-01 -2.94545777E-01 -9.05612468E-02
 -4.46249497E-03 -1.48464398E+00  1.61317728E-02 -4.17048751E-02 -4.95204500E-01
 -5.88117110E-02 -2.32238092E-02  1.50189553E+00 -6.58130364E-01  3.55125704E-02
  1.52697519E-01 -1.16735579E+00  2.89104198E-01 -1.46348922E-01  4.81232686E-04
 -8.83441370E-01  1.33143294E+00  2.02399487E-02 -1.06701229E+00  5.37325646E-03
 -3.97636640E-02 -8.49876336E-01  8.99954394E-02 -8.33109807E-03 -3.47683239E-02
  2.29502576E-01 -1.55951508E-01  6.03423069E-03  2.76861950E-03 -1.34290039E-01
 -7.79093550E-01 -4.59970577E-02  2.28206099E-02  9.45265759E-03 -1.42133923E-01
  1.03279335E-01 -3.39981955E-01 -6.47973269E-02 -5.41903272E-01 -9.76393611E-02
 -1.20613205E-01 -2.52201478E-02  1.04845584E-01  1.01490711E+00 -3.19422312E-02
 -2.17375852E-01 -1.24250881E-02  1.30154762E-02  5.71503550E-02 -6.60480744E-01
 -5.78175938E-02 -1.99322211E-01  4.33280922E-03  4.46018611E-02  4.73200856E-01
 -3.65254894E-02  2.27949537E-02 -1.44316080E-02 -1.51738105E-02 -5.95222119E-02
  4.62724398E-01  2.66305307E-02  1.14260070E-01 -1.34339390E+00 -5.40689761E-02
  2.93916557E-01 -3.85408689E-03 -1.92413776E-01 -7.88402068E-01  2.97263385E-02
 -1.73559223E-01  9.15008753E-03 -1.20982911E-02 -4.19372379E-01 -5.57633355E-01
 -4.28056631E-01  1.01495426E+00 -2.08218753E-01  5.21010244E-01 -1.76145160E-02
 -6.89474666E-02 -2.13092466E-01 -4.79584309E-01 -3.18657304E-01  2.23970735E-02
 -1.44570494E-02 -1.26606267E+00  2.67874954E-01  1.81707681E-01  8.29937735E-03
 -3.28120311E-01  4.33135959E-01  3.59990508E-01  9.94767384E-03 -6.49098594E-04
 -4.94086637E-03 -2.29525941E-02  5.01018502E-01  4.29532682E-02 -4.40590775E-01
 -1.35297809E-04 -1.42899039E-01  1.19958083E+01  1.64109873E-02  3.96681206E-01
  9.11882981E-03  2.04880423E-01  3.39694790E-01 -2.67885798E+00  1.31499446E-03
  9.39707915E-03 -2.05353631E-01  1.67661582E-01 -1.84688166E-01 -2.33057866E-03
 -9.58990500E+00  3.58830290E+00  5.34482205E-02  4.35342957E-02 -1.54278474E-01
  1.80196436E-01  1.99245342E+00  8.36804704E-01  1.26613957E-02  5.95245124E-02
 -1.15219629E+00  2.62224215E-01 -1.07616043E-01 -3.07919203E-02 -8.34850502E+00
 -7.10983668E+00 -4.03001697E-01 -5.03810633E-01 -2.40713795E-01 -2.88170860E-01
 -4.51457036E-01  4.32504609E-01 -2.74376544E-03 -1.24387780E-02  2.33285925E-01
 -5.59169292E-02  4.14912820E-01  1.41828868E-03  1.46818304E-01 -1.11775221E+01
 -1.06189853E-02  1.21950207E-01  1.84867891E-02 -7.99185540E-01 -1.83156978E-01
  9.66347015E-01 -6.94439339E-03 -3.43782273E-02  6.77129084E-01 -1.59935801E-01
 -9.82564566E-02  3.27214178E-02  7.83602549E+00 -6.96898635E+00  4.33445623E-01
  3.38025806E-01  2.26122730E-01 -3.08602327E-01  7.09115326E-01  7.84505781E-01
 -4.16719240E-03 -2.06511120E-02  3.03771263E-01 -3.64127810E-01 -2.66444787E-01
 -9.49898758E-06  1.01885577E+01  4.13529901E+00 -8.75471576E-02 -3.36977522E-01
  1.43486117E-01  1.95610731E-01 -1.43757092E+00  5.93827751E-01  9.54895587E-03
  4.10540917E-02 -3.13755137E-01  7.74873405E-02  5.53184227E-01 -2.03268502E-04
 -2.35711223E-01 -5.00081264E+00  3.00352105E-03 -2.86379226E-01  1.79333657E-03
  1.42275041E-01 -2.27664206E-01 -3.55687467E-01 -2.23092760E-03 -9.31532009E-03
  6.15939511E-02 -4.18500739E-02 -2.08182473E-02  7.48408779E-04 -3.49008293E-02
  2.95147959E+00 -1.15376678E-02  7.31432475E-03  3.95941702E-03  5.37399738E-01
  2.86258348E-02  1.27456569E+00  3.28310782E-01  2.98532065E+00  1.05444159E-01
  6.45663238E-01  2.01802588E-02 -3.17062116E-01 -2.85904973E+00 -1.39319832E-01
  6.19747448E-01 -2.99310717E-02  3.06554764E-02  1.29297753E-01 -1.54181161E+00
 -3.72478870E-03 -2.45005819E-01 -1.49391704E-02 -4.78961934E-01  7.74324315E-01
  1.23169141E-01 -3.87896932E-01  4.29703240E-02  4.97024176E-02 -7.51147426E-01
  3.14078109E-01 -2.00271508E-02 -8.33374909E-02  1.00431505E+00 -2.58381786E-02
 -1.12317504E-01  1.48748268E-02  4.38881115E-01  4.35217354E-01 -1.22349896E-01
  3.47226480E-01 -4.38440272E-02  5.01982042E-02  6.21798871E-01  4.05336369E-02
  7.41864524E-02 -8.55716486E-01  1.07781487E+00 -9.07455588E-01  3.14523165E-02
  8.55490873E-02 -2.11393564E+00  1.36861391E+00  2.02929764E-01 -2.32082534E-02
 -1.06740746E-01  1.71576535E+00 -1.42424911E+00  3.38359711E-01  3.25571518E-02
 -2.77122890E-01  1.24673975E+00 -1.03759916E+00 -1.04511722E+00 -3.72222700E-02
 -6.89276818E-06 -2.72260630E-05 -6.94727872E-05 -4.31223335E-04  7.20824981E-01
  1.75941015E-04  1.63965704E-03  1.57658835E+01  6.38508153E-03 -6.59551395E-04
  9.94267598E-04  5.49127500E-02 -2.16684533E-03  3.11058406E-01  7.12051355E-03
  3.45103704E-02 -7.20680207E-01 -3.77291378E-01  7.85501563E-02 -5.59067864E-04
 -1.50770548E+01  4.21687216E+00  1.84720811E-02 -3.19488090E-01 -4.35619385E-02
  6.45061996E-02 -1.01384961E+00 -2.33133083E+00  9.72121247E-03  4.79229960E-02
 -8.20226557E-01 -4.44820912E-01 -4.90630419E-01 -1.53199712E-02 -1.25818736E+01
 -7.93435247E+00 -1.87555676E-01  8.01412590E-02 -8.21344692E-02 -1.19115514E-01
  2.66273619E+00 -2.38354229E+00  5.57668934E-06  2.17327330E-05 -3.45889491E-04
 -2.80404127E-04 -7.72608615E-01  3.09334218E-06 -8.19614432E-03 -1.44170790E+01
 -1.13306936E-03 -1.93108453E-04  8.48796949E-04 -3.75052713E-01  5.19897721E-03
  5.15584701E+00 -9.74557661E-03 -4.80372845E-02  8.22363154E-01  4.44451899E-01
 -4.90829877E-01  1.53357989E-02  1.25816828E+01 -7.93602195E+00  1.85934791E-01
 -7.96377478E-02  8.18543860E-02 -1.19597841E-01 -2.66223578E+00 -2.38350268E+00
 -7.09543363E-03 -3.44055318E-02  7.18839691E-01  3.77594752E-01  7.86319113E-02
  3.93422755E-04  1.50788545E+01  4.20994428E+00 -2.36031546E-02  3.19400936E-01
  4.16438915E-02  6.57067244E-02  1.00939911E+00 -2.33269273E+00 -2.22557299E-05
 -9.59669366E-05  7.45216770E-04  2.21996041E-04  5.48318590E-02 -1.40649447E-05
  7.38325556E-04 -1.19253902E+00 -1.05638127E-03  8.49331006E-04  4.92273859E-04
  8.44763229E-02 -1.35174953E-03 -3.28377594E-01  9.12207309E-06  4.12105989E-05
 -3.07469273E-04  2.32264017E-04 -1.34802514E-01 -6.90345941E-05 -1.27620886E-03
 -3.20826042E-03  3.56309380E-04  1.30612318E-04  6.59285574E-04  1.95119800E-01
  1.20872327E-03  1.77946084E+00 -1.82520787E-02  2.31482231E+00  1.33987404E-01
  2.59928332E-01 -7.92129337E-02  1.84066515E-02 -2.31397359E+00 -1.33671470E-01
  2.59610770E-01  7.96666575E-02  7.09258125E-04  2.53540974E-03 -4.38856605E-02
  3.01173406E-02 -1.91426916E-02 -7.49692938E-03 -1.86836832E-01  1.53781006E-01
  6.84921705E-02  1.92842746E-02  2.35797301E-02  2.65961723E-02 -1.43148981E-01
  7.32485166E-03 -7.04757431E-04 -2.52180789E-03  4.38845200E-02 -3.01161902E-02
 -1.91195749E-02  7.35757686E-03  1.84700730E-01  1.52542157E-01 -6.72999323E-02
 -1.96652405E-02 -2.34476719E-02  2.61357684E-02  1.42553692E-01  8.30743038E-03
  3.73725366E-01 -2.18263266E+00 -2.75660387E-02 -7.12845499E-01  1.52001053E-02
  7.05105955E-02 -1.53943256E+00  6.54258411E-02 -3.77969548E-01 -1.12617985E-02
 -7.09151074E-02  1.54221810E+00 -6.59476451E-02 -3.78284836E-01  1.15375834E-02
 -3.73213287E-01  2.17894482E+00  2.62663516E-02 -7.12644405E-01 -1.60468540E-02
 -2.81335046E-05 -1.42663159E-04  2.73061251E-03  2.04384056E-04 -1.11798878E-02
  2.02843506E-04 -1.94338389E-02 -8.36220239E-01  3.93154785E-04  8.90409541E-04
 -1.62757934E-04 -2.33754982E+00 -1.04535122E-02  3.60280657E-03  2.07693801E-04
  9.64342016E-04 -2.00163575E-02 -1.62610529E-03 -1.70637803E-03 -1.21498862E-01
  7.17136047E-01 -2.55474126E-01 -1.08603280E+00 -1.01691821E-02  4.39972200E-01
 -8.24729031E-01 -2.90024249E-02  9.57379346E-02 -1.75977338E-04 -9.42151773E-04
  2.29143067E-02 -3.38370326E-03  2.28072045E-04  2.69695531E-02  7.10787897E-01
  2.87437076E-01  2.19935620E-01  1.39795289E-02  3.23334853E-01  4.77005151E-01
  1.99283729E-02  8.13941553E-02  3.86622073E-06  9.70728148E-06  1.46769164E-04
 -9.25646804E-05  7.24621066E-05  5.01823184E-05  1.21242521E-02  8.44225974E-01
  2.52374428E-04  1.48812853E-04  6.34108463E-04  6.34362272E-01 -1.15369516E-02
 -2.05802743E-02  2.26628524E-04  1.14031332E-03 -2.62152131E-02  1.24208591E-03
  1.70016982E-03 -2.68488844E-02 -7.20030042E-01  2.88731712E-01 -2.19870435E-01
 -1.54772099E-02 -3.23336994E-01  4.76963319E-01 -2.96778020E-02  8.54551197E-02
 -2.00654328E-04 -9.44947440E-04  2.01161894E-02  2.83558050E-03 -1.04644790E-03
  1.21477924E-01 -6.92384326E-01 -2.72173224E-01  1.08628887E+00  9.76786926E-03
 -4.40594477E-01 -8.24290977E-01  1.96324074E-02  8.51312708E-02 -2.84404244E-05
 -1.20933769E-04  7.21564294E-04  8.24242132E-04 -6.51360190E-03  8.52291636E-05
  2.14884504E-03  8.74825281E-02 -2.96457761E-04 -3.86246616E-03 -2.31443099E-03
  3.67327451E+00 -3.80566376E-03 -2.82349844E-03 -5.47273363E-05 -2.41060843E-04
  1.84972896E-03 -1.38183781E-03  5.45276545E-04  9.25479300E-06  1.42394979E-03
 -3.33687619E-01 -4.30389321E-04  7.83333043E-04  1.05771008E-04 -1.58730668E-01
  7.97864310E-04 -1.37837230E-01 -4.85981751E-02 -3.15413538E-01 -2.60431555E-03
 -5.33230812E-02 -4.50205498E-02  4.94383085E-02  3.16401492E-01  1.92271291E-03
 -5.31291320E-02  4.46275917E-02 -3.82406033E-04 -1.57882960E-03  1.92646925E-02
  1.40992987E-03  1.78632118E-03 -2.31604303E-01 -6.42224055E-03 -5.50273559E-04
  2.63354075E+00  4.30414652E-03  8.81217783E-01  9.40644146E-01  2.37140100E-03
 -4.70880869E-03  4.01039066E-04  1.64840257E-03 -1.98356007E-02 -1.43113896E-03
  2.40111648E-03  2.31644841E-01  3.36260748E-03 -5.40662944E-03 -2.63390673E+00
 -5.92883553E-03 -8.82348070E-01  9.39727767E-01 -4.92296451E-03 -4.66278522E-03
 -2.15383004E-02  2.02098485E-02 -3.60007481E-02  4.15368643E-02 -2.20724252E-01
  1.54839542E-02  1.03650171E-02 -5.30894881E-02 -3.49540157E-02  1.22784799E-01
 -1.62011863E-02 -1.88821096E-02  5.53234966E-02 -3.56923809E-02 -1.22644370E-01
  1.88221601E-02 -1.18247386E-02  3.64469748E-02  3.85343784E-02  2.20335513E-01
  9.69614716E-03  4.38386443E-02 -6.39810320E-01  1.32648245E-01  6.19084721E-04
 -1.85178016E-04  6.32515788E+00  8.30386464E-03 -2.78044242E-02  1.24265480E-01
 -3.66805402E-02 -7.41872558E-03  4.32403754E+00  1.76179086E-03 -5.76821628E-03
 -2.23656846E-02  3.08801594E-01 -3.91520948E-01  2.58568161E-01  6.22607450E-03
 -3.18964879E+00 -2.57028200E+00  8.07133044E-02 -7.80195372E-02  4.25146153E-02
  2.13807353E-02  2.13612562E+00 -1.67889640E+00 -4.28289193E-03 -1.58317844E-02
  2.13978106E-01  4.50895180E-01  2.62285935E-01 -7.71699461E-03  2.27661523E+00
 -4.60041432E-01 -9.39206704E-02  1.35381243E-01  5.87058199E-02 -4.15074714E-02
  1.95551512E+00  8.52714482E-01 -4.29783530E-04  6.13689694E-04 -1.22699567E-01
  1.21789617E-02 -5.09955151E-04 -1.27349422E-02 -4.14521593E+00 -8.49013709E-03
  1.51479627E-02 -5.81028997E-02 -1.28474846E-01  1.75250491E-03  4.35312039E+00
 -3.31097175E-03 -4.25752850E-03 -1.57199335E-02  2.12226658E-01  4.51446950E-01
 -2.62376820E-01 -8.04912755E-03  2.29579188E+00  4.60232501E-01 -9.57477954E-02
  1.35047646E-01  5.68036832E-02  4.37932008E-02  1.95454161E+00 -8.58809876E-01
 -5.74774972E-03 -2.22710336E-02  3.07172584E-01 -3.90988626E-01 -2.57962816E-01
  6.76418719E-03 -3.17541901E+00  2.58010009E+00  8.84624081E-02 -7.83656206E-02
  4.06403047E-02 -2.73079936E-02  2.14216402E+00  1.67358912E+00  1.35635381E-02
  5.74859593E-02 -3.71686523E-01 -3.71374396E-01  1.46102643E-04 -7.72019131E-05
 -3.46372815E-01 -1.44072999E-03 -2.39717087E-02 -2.10663445E-02 -7.24640624E-03
  9.92770248E-03  8.65348995E-01  1.39994143E-03  1.89318080E-02  8.28310104E-02
 -6.29571511E-01  4.82233767E-01 -1.61984143E-04 -5.94761371E-03 -2.59095778E-01
  1.82819689E-05  9.64516869E-02 -2.57710584E-01 -3.75713626E-02 -3.01873554E-04
 -2.83972577E-01 -9.25900564E-04 -7.43838154E-02 -5.17180966E-01  1.80868892E-01
 -5.05308354E-02  4.65152848E-02 -7.40803717E-02 -5.13886535E-01  1.81224253E-01
  4.93843402E-02  4.69740766E-02 -3.72510852E-03 -1.40383829E-02  1.22175466E-01
  7.76737463E-03  7.40176025E-02 -9.38958621E-04  5.56416597E-01 -4.08670057E-01
  1.04510929E-02 -9.64645141E-03  5.56825679E-03  3.79897125E-03  2.58304304E-01
  1.57687344E-01 -3.74181476E-03 -1.41088661E-02  1.23097620E-01  7.72820147E-03
 -7.44023169E-02  2.59795219E-04  5.56322911E-01  4.10749471E-01 -3.28904168E-03
 -9.25712343E-03  1.32652765E-03  1.17687012E-03  2.59696581E-01 -1.56573012E-01
  3.88073522E-01 -3.68565320E-01  1.25096020E-01 -4.16428225E-01  9.39891612E-03
  2.27133051E-01  6.21066201E-01 -3.12603545E-01 -3.23158276E-01 -2.17243741E-02
  2.28769643E-01  6.14262090E-01 -3.10645540E-01  3.24711869E-01 -2.24625765E-02
  3.88758497E-01 -3.72719134E-01  1.25779728E-01  4.17809155E-01  1.07973667E-02
 -1.05899505E-05 -4.88943677E-05  4.82214671E-04 -3.61318816E-04  3.71550735E-01
  3.11434702E-04 -3.14139966E-03 -3.78788494E+00  1.46063680E-04 -7.66514171E-05
 -5.11038967E-04 -5.84789996E-02 -3.41701723E-03  2.02272390E-01 -9.76282692E-03
 -4.51322247E-02  9.44449518E-01  1.69422817E-01 -3.06626034E-02 -5.29739397E-03
  3.04209681E+00 -6.92541384E+00 -5.64440812E-02  1.86081406E-01  3.82864738E-03
 -4.12082879E-02  8.25485550E-01 -3.13218552E+00  2.18716860E-03  5.92474303E-03
 -1.53153609E-01  2.48419978E-01  3.00171037E-01  1.23725758E-02  1.38611838E+00
  8.97090393E+00  1.33248781E-01 -1.25875363E-01  1.09418677E-02  5.68389197E-02
 -1.73793022E+00 -3.03843828E+00 -4.24104615E-06 -2.94012657E-05  8.24928450E-04
 -6.83238160E-04 -4.30567564E-01  3.19626619E-05  4.47677176E-04  1.63447818E+00
 -3.44059754E-04  2.02749315E-04  4.00430775E-04  2.04371057E-01 -2.09913008E-03
 -2.96338595E+00 -2.18113689E-03 -5.92179794E-03  1.53719211E-01 -2.48797739E-01
  3.00264746E-01 -1.21688592E-02 -1.38601618E+00  8.96786842E+00 -1.28760974E-01
  1.26167232E-01 -1.21925973E-02  5.71658121E-02  1.73795963E+00 -3.03795916E+00
  9.78712363E-03  4.52238925E-02 -9.45687941E-01 -1.69228484E-01 -3.02257228E-02
  5.57535366E-03 -3.04236082E+00 -6.92230105E+00  5.34553544E-02 -1.86668124E-01
 -5.37562342E-03 -3.96918575E-02 -8.31737472E-01 -3.13145438E+00 -2.67586140E-05
 -1.12098526E-04  7.99968958E-04  1.68602001E-04  1.13752497E-01 -6.04783642E-05
  2.19643702E-03  9.17883326E-01  6.50824583E-04  2.96934746E-04 -1.46234860E-03
  4.88310121E-02 -4.39805191E-03  1.55080273E+00 -6.02417066E-06 -2.38940094E-05
  1.67844604E-04 -6.89079713E-05  8.66254212E-02 -2.79814887E-05 -9.27166029E-04
 -2.98823753E-01 -8.63229299E-04 -2.71744457E-05 -4.41399158E-04 -1.37144109E-01
  3.62169029E-05 -1.50976213E+00 -5.62958565E-02 -2.22159522E+00 -1.39281398E-01
 -4.89407995E-01  1.07063766E-01  5.66951971E-02  2.22273548E+00  1.38537844E-01
 -4.89049595E-01 -1.07956882E-01  1.25616852E-02  5.20242263E-02 -5.83858844E-01
 -1.17954786E-01 -1.53340125E-01 -2.07205676E-03  7.12192364E-01  1.44729423E-01
  3.12336724E-02 -2.45829700E-01  9.98476614E-03  1.11654012E-02  2.07605916E-01
  3.20083745E-01 -1.25510514E-02 -5.19836183E-02  5.83559808E-01  1.18235292E-01
 -1.52970432E-01  2.37768597E-03 -7.16070846E-01  1.41784383E-01 -3.25996725E-02
  2.45847059E-01 -1.04680643E-02  1.20935835E-02 -2.09473185E-01  3.21145518E-01
  5.57364653E-01 -2.39074449E-01 -9.16428949E-01  1.08827033E-01 -1.40469770E-02
 -7.19175645E-01  2.04375387E+00 -8.60701211E-01  4.42859827E-01 -4.88926989E-03
  7.19025884E-01 -2.04166901E+00  8.59894018E-01  4.42515999E-01  4.54249616E-03
 -5.57041523E-01  2.34823226E-01  9.14713247E-01  1.08591344E-01  1.42954937E-02
 -1.03010744E-02 -4.43742807E-02  1.74403603E-01 -4.51456696E-01 -5.46485035E-04
 -1.74053716E-04  5.11613747E+00 -9.19854696E-03 -5.95491637E-03 -6.69298406E-01
 -3.63677924E-03 -1.35301698E-03  2.75400413E+00  1.18188439E-04  2.03567215E-03
  3.31760297E-03  3.75256672E-02 -4.11559615E-02  1.52427102E-02  4.57576181E-04
 -2.79998012E+00 -1.02966011E+00  4.02362402E-03  3.66081692E-02  2.51637579E-03
  4.35847959E-03  1.23930980E+00 -1.15997511E+00  2.89047965E-04  1.69511152E-03
  1.98084948E-02  1.29076704E-01  9.00615554E-02 -7.99503937E-04  1.53751681E-01
  4.22262417E-01 -4.65270589E-03  1.59750616E-01  3.67348044E-03 -7.98372700E-03
  1.36903879E-02  8.79407059E-02  7.30038478E-04  3.11896539E-03 -6.58651532E-02
 -2.23561848E-02  4.51599062E-04 -3.38071253E-04  3.20799057E-01  8.99828769E-03
  1.38101470E-03 -1.24467980E-01 -1.93173238E-02  8.31819314E-05  3.99716512E-01
 -6.40914176E-07  2.85629454E-04  1.68036003E-03  2.00388039E-02  1.28678787E-01
 -9.02334267E-02 -8.69994888E-04  1.38858708E-01 -4.24032341E-01 -5.38343281E-03
  1.59364054E-01  3.98528773E-03  8.12719752E-03  1.32905776E-02 -8.26094225E-02
  2.03967972E-03  3.31912472E-03  3.78024996E-02 -4.14096114E-02 -1.48873709E-02
  5.11070901E-04 -2.81446670E+00  1.03156374E+00  7.01561638E-03  3.71427470E-02
  2.63459283E-03 -5.97572984E-03  1.23874893E+00  1.16509969E+00 -5.65693403E-03
 -2.19761113E-02  2.05908752E-01 -3.19768958E-01 -4.03115747E-04  1.88137823E-04
  4.63073815E+00  4.05674051E-03 -2.34728211E-03  5.18157470E-01 -1.95726853E-03
 -1.86558181E-03 -4.27815962E+00 -4.50258151E-03  3.05090733E-03  1.25213940E-02
 -9.04747971E-02  5.47256419E-02  2.23405367E-06 -3.06338678E-04  2.01348327E-01
 -1.25536786E-03  3.45828851E-02 -5.16740583E-02  3.80940777E-03 -6.96729869E-05
  1.52924648E-02  2.74958427E-04  6.43686706E-03 -2.79565578E-01  3.86327183E-02
 -1.02625020E-01  1.59677992E-02  6.56059090E-03 -2.79444546E-01  3.85670085E-02
  1.02708498E-01  1.60933000E-02  4.71409982E-03  2.25098923E-02 -2.12797938E-01
  1.82867899E-01 -1.62193069E-01  1.09714138E-05 -3.14038517E+00  1.57948946E+00
 -8.66492790E-04 -3.20350001E-02  5.82252663E-04 -4.62280336E-04 -1.01873789E+00
 -1.08970362E+00  4.72311815E-03  2.25463416E-02 -2.13309158E-01  1.82560401E-01
  1.62542636E-01 -2.31147955E-04 -3.13862897E+00 -1.58407135E+00  1.11466629E-03
 -3.23183885E-02 -4.26559730E-04 -4.60139501E-04 -1.02101219E+00  1.08686947E+00
  2.07073581E-01 -1.62335391E-02  4.47303880E-01 -3.90800501E-01  1.48380354E-03
  7.75580175E-02  1.30987360E-01  6.32255786E-02  1.82833840E-02 -7.00924333E-03
  7.66256570E-02  1.33184365E-01  6.26224291E-02 -1.91821461E-02 -7.20471675E-03
  2.08024315E-01 -1.77893161E-02  4.45044166E-01  3.90826854E-01  1.31149105E-03
 -2.09241376E-05 -8.45469592E-05  1.28408920E-03 -2.44825088E-04 -1.16400282E-01
  1.77062829E-04 -4.85735443E-03 -2.44913840E+00 -1.31590290E-04  5.84495290E-05
 -4.27359638E-04  6.36874005E-03 -3.93904424E-03  5.27422702E+00 -5.29916978E-03
 -2.82449470E-02  5.16565043E-01 -3.82314239E-01  4.95860596E-01  9.62050799E-04
  4.44670991E-01  5.72897275E+00  1.36442350E-02 -8.13581587E-02  3.89457479E-03
  6.75862823E-03 -2.24340995E+00  1.14801215E+00 -1.16012023E-03 -8.30600366E-03
  2.90127766E-01 -2.96860674E-01 -1.81762135E-01 -4.25357292E-03 -1.89837717E+00
 -3.76039551E+00 -4.32198398E-02  3.89190214E-02  1.83322857E-03 -1.36418431E-02
  1.08349103E+00  1.27210727E+00  8.57827617E-06  4.35774810E-05 -8.66229637E-04
  1.71441059E-04  1.27911680E-01  4.22122015E-06 -5.32447037E-03 -1.46761128E+00
  5.05762665E-04  2.09767618E-04 -5.20703640E-04 -6.35308796E-02  2.50253876E-03
  1.38782041E+00  1.14769020E-03  8.24881028E-03 -2.88908052E-01  2.96580739E-01
 -1.81584289E-01  3.98805449E-03  1.90155702E+00 -3.74907390E+00  4.00101242E-02
 -3.94232927E-02 -6.33060303E-04 -1.31175252E-02 -1.08148668E+00  1.26758255E+00
  5.31461449E-03  2.83215341E-02 -5.18031656E-01  3.82828851E-01  4.95945034E-01
 -6.87875561E-04 -4.34781368E-01  5.71767908E+00 -9.95735186E-03  8.12799470E-02
 -2.87932060E-03  3.69084752E-03  2.23920355E+00  1.13938940E+00  1.19922030E-05
  4.36245450E-05 -2.71738495E-04 -2.68317109E-04  1.95884871E-01 -1.13902688E-04
 -7.92706034E-04  4.30435851E+00 -4.10960302E-04 -1.30931203E-04 -1.74979633E-03
 -6.61682608E-03 -4.27127184E-03  4.15553160E+00  1.75193877E-06  9.85362113E-06
 -1.02184580E-04  1.16166712E-04 -4.83591897E-02  1.74494786E-05 -8.11023845E-04
  4.74030459E-02  3.11189043E-04  1.06882681E-04  6.26589390E-05  3.88461364E-02
  2.65424949E-04  6.07122760E-01  2.51508908E-02  7.84941175E-01  6.91134117E-02
  1.75411746E-01 -4.60537662E-02 -2.51813966E-02 -7.83662300E-01 -6.89681726E-02
  1.74944057E-01  4.63492121E-02  1.59100233E-02  6.80833877E-02 -7.76598267E-01
 -1.57537514E-01 -2.67442144E-01  2.38173409E-04  1.75008504E+00  8.55389076E-02
 -4.09554831E-03 -3.15076189E-01 -1.40818428E-03 -1.50415813E-03  5.61538475E-01
  6.60129916E-01 -1.59093805E-02 -6.80908024E-02  7.76887580E-01  1.57717239E-01
 -2.67219026E-01  6.18687602E-05 -1.75042635E+00  8.30313103E-02  3.57175426E-03
  3.15254846E-01  3.92290708E-04 -1.23200996E-03 -5.62994986E-01  6.58825663E-01
 -3.29131230E-01  1.29866124E+00 -1.77313353E-01  5.18337352E-01  2.40682657E-03
  2.17116337E-01  8.23760228E-02  2.36306380E-01  4.91313568E-02  3.85517500E-03
 -2.16703782E-01 -8.40015138E-02 -2.35701366E-01  4.91766625E-02 -3.89975718E-03
  3.28058433E-01 -1.29844345E+00  1.76036802E-01  5.17358911E-01 -8.77822819E-04
 -1.82258853E-02 -8.14825841E-02  1.43229421E+00  6.15443123E-02 -4.57726365E-04
  1.48909429E-03 -1.04135777E+01 -1.34564784E-02 -1.63313283E-02 -2.62916349E-01
 -2.90558584E-02  2.30877251E-03 -5.41145744E+00 -1.58436457E-03  1.22121237E-02
  5.85308763E-02 -1.13857323E+00 -1.10771709E-02  6.21752824E-02  6.09362370E-03
  6.30744692E+00  1.07229739E+01  6.62622310E-02  3.97520544E-01  2.57278976E-02
  1.13744852E-02 -2.42960836E+00  5.42518807E+00 -1.43119534E-02 -6.48653463E-02
  1.17382429E+00  5.25493832E-02 -3.98236266E-02 -6.95917897E-03  6.64080837E+00
 -1.09854179E+01 -6.87434567E-02 -3.91151687E-01  4.70806253E-02 -2.26398806E-02
  2.77044020E+00  5.51882943E+00  1.54139515E-02  7.22846217E-02 -1.38517895E+00
  1.93220989E-01  4.46203677E-04 -2.63905764E-02 -1.08617454E+01  1.80938316E-02
 -3.34848191E-02  2.34927263E-01 -1.11316283E-01  4.31207109E-04  6.39816296E+00
 -5.72697139E-03 -1.43105484E-02 -6.48694326E-02  1.17436553E+00  5.18078887E-02
  3.99803417E-02 -6.82895112E-03  6.61476743E+00  1.09964066E+01 -6.61855204E-02
 -3.90469862E-01  4.49478469E-02  2.37029361E-02  2.76986631E+00 -5.51874141E+00
  1.22020602E-02  5.84752645E-02 -1.13710369E+00 -1.16233511E-02 -6.27560803E-02
  6.27541049E-03  6.27621406E+00 -1.07417492E+01  5.91750277E-02  3.97331672E-01
  2.39148940E-02 -8.38980694E-03 -2.43738309E+00 -5.42078356E+00 -9.47910950E-03
 -4.15568179E-02  2.92019934E-01  3.23853270E-01  9.99763565E-05 -3.37984493E-04
 -1.51010428E-01 -5.22421500E-04 -1.42960930E-02 -4.48268188E-02 -6.74189756E-03
 -5.21391701E-04 -2.72145597E-02 -1.37399679E-03  1.34944265E-02  6.17873068E-02
 -5.32407642E-01  5.09544615E-01 -6.05148396E-05 -1.82403285E-02 -6.68353046E-01
 -7.77956242E-04  5.81398706E-02 -9.01759005E-02 -9.21260228E-02 -1.85509451E-05
 -4.58112103E-01 -4.85904019E-04 -2.03427628E-02 -1.60229036E-01  2.93575069E-01
  2.19041563E-01  3.33806357E-02 -2.00776977E-02 -1.58139037E-01  2.93888904E-01
 -2.19650568E-01  3.34577420E-02  1.62677441E-03  5.18316256E-03 -3.47236960E-02
 -3.75514943E-02 -4.60222329E-03 -5.97230908E-05 -2.18808140E-02 -1.57691157E-02
  7.82507317E-04  3.19720659E-02  2.39589368E-03 -1.31037734E-04 -8.23521558E-02
 -4.18968037E-02  1.64662438E-03  5.26090976E-03 -3.55961602E-02 -3.77108917E-02
  4.87899700E-03 -1.20462699E-04 -2.08559887E-02  1.51171617E-02  1.38699021E-03
  3.16440594E-02  2.46360912E-03 -5.36150197E-05 -8.25342151E-02  4.13894033E-02
 -7.67818346E-01  2.26246145E+00  5.23797987E-01  5.01406337E-01  2.46749020E-03
  7.61654971E-01 -2.10783360E+00  5.06470631E-01 -5.25767846E-01 -2.70033512E-03
  7.61746127E-01 -2.10611406E+00  5.07927268E-01  5.24521526E-01 -2.62424230E-03
 -7.67785367E-01  2.26339278E+00  5.24319047E-01 -5.01418392E-01  1.85384571E-03
 -1.25412245E+00  1.31574656E+00 -5.47413789E-01  4.70783280E-02  9.85682087E-07
 -4.29284773E-05 -3.26143346E-01  5.02752910E-03 -6.18629409E-03 -3.42490636E-02
  8.93817116E-04 -4.62661404E-05 -3.61707127E-02 -5.23032100E-05 -1.43049987E+00
  1.49991970E+00 -5.51913563E-01  3.12180555E-02  1.60200703E-02 -1.08109730E-03
 -3.42490973E-02  3.85697523E-01  2.47344117E-03  1.32716679E-01 -2.00896724E-03
  1.86232933E-03 -3.58162961E-02 -7.17176127E-02 -1.52024212E+00  1.59396922E+00
 -5.87720878E-01 -4.47485942E-02  2.24249150E-02  1.35969028E-03 -2.06310630E-01
 -1.57993874E-01 -2.94970153E-02  7.61846942E-02 -1.26312995E-02 -1.43581627E-02
 -6.41618637E-03 -5.99534314E-02 -1.27264671E+00  1.33581880E+00 -5.62300385E-01
 -8.56897647E-02  3.87831191E-05  3.24941214E-03 -1.11988329E+00 -4.54649758E-03
  8.30972879E-02  1.06290884E-01  4.56613816E-04  4.62149352E-05 -2.92664596E-01
  1.33814399E-04 -1.52022520E+00  1.59395313E+00 -5.87791262E-01 -4.47718801E-02
 -2.24009099E-02  1.36616195E-03 -1.97907565E-01  1.53747025E-01 -2.92957029E-02
  7.61842270E-02 -1.27591940E-02  1.43533662E-02 -6.04975742E-03  5.98282072E-02
 -1.43047926E+00  1.49990061E+00 -5.51986288E-01  3.11596818E-02 -1.60180180E-02
 -1.11790013E-03 -2.63104995E-02 -3.81142308E-01  1.96020960E-03  1.32669307E-01
 -1.99682834E-03 -2.21547620E-03 -3.57521899E-02  7.14824214E-02 -3.15930972E-02
  2.90567042E-02  1.32227297E-02  3.81264817E-03  4.23676517E-05 -2.58718562E-05
  4.45079577E-02 -6.31533742E-04  2.21850445E-03  1.10526539E-02  8.25420257E-05
  1.11652111E-04  3.98735256E-02 -1.17619220E-04 -2.19158592E-02  2.00810455E-02
  1.79683630E-04 -2.19927375E-02  6.52517151E-06  8.70834900E-03 -9.78749196E-01
  1.00901803E-03 -1.41330133E-01  1.35581726E-01 -4.22260955E-02 -2.31633182E-04
  2.14087974E-01 -6.61128332E-05 -1.71191701E-02  1.00486983E+00 -1.32215803E-01
  1.46296394E-01 -2.17669046E-02 -1.71763226E-02  1.00424783E+00 -1.32363881E-01
 -1.45939566E-01 -2.18483376E-02 -3.22592825E-02  2.65903500E-02  3.86760284E-02
  2.01162718E-03  9.40699746E-03 -6.36025524E-06 -1.28265803E-02 -4.38213947E-02
 -2.86590951E-04  1.58399992E-02 -7.93711360E-05 -2.85261687E-04 -9.22708191E-03
 -1.88608336E-02 -3.22803135E-02  2.66067817E-02  3.87434444E-02  2.02543845E-03
 -9.40297932E-03  5.19164857E-06 -1.27815453E-02  4.38004098E-02 -4.00026627E-04
  1.58006760E-02 -1.44223395E-04  3.08760320E-04 -9.20866589E-03  1.89631683E-02
 -2.30537439E-02  6.00762853E-01  6.83596708E-02  1.13028034E-02 -2.47942201E-03
 -2.44837418E-02  2.85463444E-01 -3.77874501E-03  4.30471375E-02 -3.41659168E-03
 -2.44596377E-02  2.85387249E-01 -4.57135357E-03 -4.25896989E-02 -3.40906681E-03
 -2.30697057E-02  6.00492411E-01  6.75803418E-02 -1.16651452E-02 -2.41772555E-03
  1.11617333E-04 -1.20943358E-04  1.03167966E-04 -2.28668265E-06 -8.99877492E-02
 -3.14179798E-05 -5.83882783E-05 -8.23811101E-01 -8.00758444E-05 -4.11736180E-06
 -1.34143976E-04 -1.60714538E-04 -2.58503688E-04 -4.72652358E-01 -1.77182748E+00
  1.90641088E+00 -1.27371340E+00  1.96360290E-02 -7.96957305E-02  2.99023196E-04
 -1.66700999E-01 -7.53946311E-01  7.38262509E-04 -1.07309478E-01 -8.18855749E-05
  8.41820647E-04  1.93252023E-01  1.42214754E-01 -1.83112379E+00  1.97013441E+00
 -1.30520452E+00 -1.53117931E-02 -8.00346213E-02 -4.84498053E-04 -4.59356241E-01
 -1.10978947E+00 -2.93919959E-03 -1.03891286E-01 -1.46820922E-04 -1.43297981E-03
  1.80143220E-01 -1.60086399E-01 -1.69915423E-04  1.82885507E-04 -1.36087157E-04
 -1.79885603E-05 -8.81667311E-02 -6.74664943E-07 -3.66467518E-04 -1.61357848E+00
 -1.28779617E-04 -6.49083470E-05 -1.35525216E-05 -9.69734774E-03  2.31501892E-04
  4.79555769E-01  1.83108224E+00 -1.97009022E+00  1.30513120E+00  1.52798778E-02
 -8.00254589E-02  4.66952425E-04  4.59368955E-01 -1.11021964E+00  2.90645027E-03
  1.03934924E-01  1.46357916E-04 -1.44942639E-03 -1.80333616E-01 -1.59868655E-01
  1.77197248E+00 -1.90656768E+00  1.27376006E+00 -1.95988109E-02 -7.96662378E-02
 -3.70685409E-04  1.66320918E-01 -7.54052259E-01 -1.54468061E-03  1.07311083E-01
  1.68457282E-04  8.02608050E-04 -1.93032134E-01  1.42279584E-01 -1.56101586E-05
  1.39887309E-05  2.50878245E-05  2.88045242E-05 -1.78231349E-02  6.25667103E-06
  3.18701922E-05 -3.17940316E-02 -7.51402471E-05  2.82074467E-05  2.49912222E-05
  2.61836096E-04  7.52274960E-05 -3.61024687E-02  1.34376987E-05 -1.28813357E-05
 -7.69840694E-06 -7.56094734E-06 -2.36368655E-02 -4.99163104E-06  1.23543256E-04
  2.04212342E-01  1.35855386E-04  1.06456624E-05  5.57923619E-05  1.90058523E-02
 -1.06298243E-05  2.85366899E-02  3.11185467E-03  1.93605562E-01  2.67433203E-02
  5.09113454E-02 -1.55992396E-03 -3.13452756E-03 -1.93726023E-01 -2.66883565E-02
  5.09177523E-02  1.58522159E-03 -6.59738818E-03  5.45796541E-03  1.46045555E-02
  6.32206155E-03 -2.96740592E-03  1.90655900E-05 -5.21743806E-02  1.63441640E-02
  7.33947750E-05  1.76337277E-02 -7.01747815E-06  8.67793731E-05 -1.97040065E-02
  4.00097953E-03  6.60404237E-03 -5.46426327E-03 -1.45959296E-02 -6.31603044E-03
 -2.96452573E-03 -2.67610457E-05  5.21017670E-02  1.62634209E-02 -4.52737339E-06
 -1.76416044E-02  4.50209775E-05  9.77549393E-05  1.97179393E-02  4.02252941E-03
  5.67375599E-02 -7.98581550E-01 -9.27160762E-02 -1.96539909E-01  1.16245017E-03
  6.14259344E-02 -8.33992342E-01  1.40049870E-01 -1.80421278E-01  5.24725435E-04
 -6.14637978E-02  8.33979802E-01 -1.40063290E-01 -1.80381427E-01 -6.29486519E-04
 -5.68006553E-02  7.98804160E-01  9.25826226E-02 -1.96665123E-01 -1.45298756E-03
  1.92570835E+00 -2.07787354E+00  1.50106769E+00  8.23739084E-03 -2.50536656E-05
 -2.10894408E-04  3.79673884E-01 -2.11646113E-03  5.21653689E-03  1.03947445E-01
  1.38968677E-03 -1.95668182E-05  1.22954430E-01 -4.26509881E-05  1.18017770E+00
 -1.27306190E+00  8.78592321E-01  7.98944960E-02 -5.47110471E-03 -6.01604153E-04
  8.99877390E-01  8.64871798E-02 -1.41679888E-02  5.91469174E-02 -4.61242996E-03
  7.54194439E-04  3.62147703E-01  9.03768580E-02 -1.01679034E+00  1.09719616E+00
 -7.74084869E-01  8.31473048E-02  1.16990787E-02  1.75858275E-04  8.80849583E-01
  7.46941271E-02  4.67283893E-03 -5.08280042E-02 -9.44943765E-03 -1.11498832E-02
 -3.85169446E-01  1.21456797E-01 -2.12380988E+00  2.29154500E+00 -1.60084517E+00
  1.97469899E-02  1.34884325E-05  5.63425349E-04  7.52722705E-01  1.90476751E-03
  1.39990246E-02 -1.28330697E-01 -1.26594636E-02  6.99283020E-05 -9.71321504E-02
 -5.11279434E-05 -1.01768082E+00  1.09815578E+00 -7.74641243E-01  8.31760167E-02
 -1.16930775E-02  1.46515988E-04  8.77185918E-01 -7.29491813E-02  4.54856694E-03
 -5.07529699E-02 -9.42090915E-03  1.12998034E-02 -3.85442055E-01 -1.21115148E-01
  1.18065397E+00 -1.27357485E+00  8.78797814E-01  7.99385555E-02  5.42437935E-03
 -6.55340265E-04  8.96188001E-01 -8.85686694E-02 -1.46191463E-02  5.90612328E-02
 -4.76443695E-03 -8.96031892E-04  3.62380624E-01 -9.05046641E-02  6.17943852E-02
 -5.94748179E-02 -1.34445713E-02 -2.18864465E-02 -2.82678994E-05  1.86624009E-04
  8.10213347E-02  1.29936480E-04 -1.21068836E-03 -4.63571074E-02 -1.44390911E-04
  1.92852777E-05 -1.65404777E-01 -6.48603013E-05 -5.84346161E-02  5.58847335E-02
  5.07794733E-03 -4.18269530E-02  1.62772356E-05  5.55982913E-03  2.73107057E-01
 -1.87363149E-04  1.60154949E-06  6.15718105E-02 -6.75994696E-03 -1.01331606E-04
  1.47698227E-01 -7.74842849E-05  2.78048988E-02 -1.42876085E-01  2.03784658E-02
 -1.56162289E-01  2.32538977E-02  2.78073811E-02 -1.42846077E-01  2.05229102E-02
  1.56113701E-01  2.34087861E-02  1.94484523E-02 -1.59220112E-02 -4.62206019E-02
 -1.21288543E-02 -1.65310623E-02 -6.84657094E-06  2.43127200E-04  8.24928975E-02
  2.07590505E-04 -3.58363283E-02 -6.96726054E-05  1.24421253E-04  8.35318679E-03
 -3.97348156E-03  1.94611314E-02 -1.59338781E-02 -4.62082138E-02 -1.21487621E-02
  1.65170234E-02 -3.85441105E-05  1.61801305E-04 -8.26394709E-02  1.98634738E-04
 -3.58731655E-02 -7.97095990E-05 -1.13265941E-04  8.30969997E-03  3.97326103E-03
 -3.22543044E-02  5.94207758E-01  1.19972429E-01  6.66685924E-02  1.40939197E-04
  2.77396352E-02 -4.81591131E-01  8.77743318E-02 -6.20645643E-02 -1.13550824E-02
  2.77068681E-02 -4.81567974E-01  8.81242894E-02  6.18488413E-02 -1.13529168E-02
 -3.22371348E-02  5.94292407E-01  1.20271086E-01 -6.65670219E-02 -1.42800902E-04
 -8.03958683E-05  8.74874257E-05 -1.00445436E-04 -1.78995326E-06 -5.37700652E-02
 -2.56120731E-05  3.18208782E-04  4.51075988E-01  1.24078302E-04  2.27826932E-05
  2.55058897E-05 -1.17155884E-03  2.03013931E-05 -3.44807500E-01 -1.86553424E+00
  2.02876431E+00 -1.43047848E+00 -7.74992848E-02 -6.34338219E-02  3.69032503E-04
 -1.06819274E+00  8.20408320E-01  3.99687090E-03 -4.25464375E-02  2.61608962E-03
 -2.40112443E-04 -2.82892912E-01  1.17529832E-01  1.80464165E+00 -1.96239987E+00
  1.36955137E+00 -7.80460601E-02  5.83340153E-02 -4.78167564E-04 -1.07683700E+00
 -8.90663076E-01 -3.92219406E-03  3.19232320E-02  4.23143936E-03  2.27152001E-03
  2.95548129E-01  1.12619453E-01  1.28126454E-03 -1.39304942E-03  9.59613991E-04
  1.64416417E-05  5.23126797E-02 -2.59607295E-07 -3.40057954E-04 -5.11939721E-01
  1.68348855E-05 -5.06234196E-05 -1.11365590E-04  1.15046525E-03 -1.67724017E-04
 -3.06760733E-01 -1.80536261E+00  1.96318215E+00 -1.37000492E+00  7.80267690E-02
  5.83912716E-02  4.51392372E-04  1.07621243E+00 -8.91199639E-01  3.44898063E-03
 -3.18228350E-02 -4.08315902E-03  2.31358782E-03 -2.95268473E-01  1.13048047E-01
  1.86523624E+00 -2.02843780E+00  1.43007650E+00  7.74222339E-02 -6.34582538E-02
 -4.35709083E-04  1.06800212E+00  8.20491254E-01 -4.08029107E-03  4.24229585E-02
 -2.69834506E-03 -4.44993943E-04  2.83146364E-01  1.17522572E-01  1.51010345E-05
 -1.49975264E-05  3.36100506E-06  3.11405728E-05 -1.13415704E-02  1.36761306E-05
 -7.33171245E-05 -2.10751147E-01 -3.66835258E-05  1.12142925E-05  8.96574976E-05
  4.25840062E-04  1.23234698E-04 -6.26848310E-02  3.48195161E-05 -3.41668864E-05
  1.20840662E-05  2.40919133E-05  1.06799090E-02  5.60305582E-06  1.64063433E-04
  2.78986426E-01  1.59707377E-04  3.35825504E-05  3.16684729E-05  8.00690109E-03
 -1.04721084E-04  3.52541355E-02  1.41542206E-02  1.70916375E-01 -2.86565380E-03
  1.19026733E-01 -1.06999995E-02 -1.41623025E-02 -1.71064211E-01  2.96685690E-03
  1.18960356E-01  1.07551297E-02 -8.11878451E-03  7.23630646E-03  4.01206181E-03
  3.65687453E-03  8.26916437E-03 -1.04074059E-05 -3.95814487E-02 -4.99608010E-02
  3.02854759E-04  2.47376800E-02  6.43566830E-05  5.74019833E-05 -1.83647349E-02
 -1.13734281E-02  8.10347029E-03 -7.22343622E-03 -3.97890973E-03 -3.64717240E-03
  8.27946594E-03  9.02066121E-06  3.95880750E-02 -4.99795874E-02 -1.94209637E-04
 -2.47074747E-02 -5.35720623E-05 -1.21474368E-05  1.83742226E-02 -1.14715211E-02
 -1.43705513E-02 -6.56678404E-02  9.09700072E-03 -4.78496718E-03  1.78537053E-04
  1.61719023E-02  8.97562554E-03  3.58881243E-02 -3.85143288E-03  4.13205579E-03
 -1.61911857E-02 -8.69315051E-03 -3.60581513E-02 -3.77716361E-03 -4.13267628E-03
  1.43832958E-02  6.54918506E-02 -9.03912104E-03 -4.71754757E-03 -1.70612108E-04
 -2.28689550E+00  2.49107870E+00 -1.82855501E+00 -3.21053941E-02  1.26705281E-05
 -2.44647253E-04 -3.68446678E-01  9.68189786E-04  1.86896943E-03 -2.77487275E-02
 -8.49743396E-05  5.04741985E-05  1.10682048E-01 -3.49924095E-04  8.36548874E-01
 -9.10672923E-01  6.40630101E-01 -2.12133749E-02  6.78852358E-02 -2.43124401E-04
 -2.46144226E-01  2.79257583E-01 -6.80827459E-03  3.92529396E-02 -2.11321017E-03
  7.87328758E-04 -3.19678840E-01 -1.89938154E-01  1.06076330E+00 -1.15480107E+00
  8.24110619E-01  2.91492635E-03  6.85108751E-02 -2.69431584E-04  1.63856725E-01
  3.72597326E-02 -3.57941706E-03  2.13960356E-02 -5.66597973E-03 -1.13716225E-02
 -2.09733819E-01  2.07438292E-01 -2.16043315E+00  2.35304446E+00 -1.68725347E+00
  2.31769847E-02 -1.28320403E-06  1.46676395E-03 -1.59792954E-01 -3.21452333E-04
  1.24604731E-02  3.31209453E-02 -1.99449647E-02 -1.94107852E-05  1.46337974E-01
 -1.14830060E-04  1.05974652E+00 -1.15369378E+00  8.23227077E-01  2.92932438E-03
 -6.85094618E-02 -2.79858983E-04  1.64867762E-01 -3.82064364E-02 -3.76490542E-03
  2.13028890E-02 -5.54408153E-03  1.13276982E-02 -2.10088730E-01 -2.07157148E-01
  8.37493434E-01 -9.11702201E-01  6.41360163E-01 -2.12005407E-02 -6.79223617E-02
 -2.83410646E-04 -2.44759989E-01 -2.78113623E-01 -6.89537929E-03  3.92176785E-02
 -1.67204704E-03 -5.15939499E-04 -3.19447542E-01  1.90243750E-01 -1.72755456E-02
  1.79428358E-02 -3.34789253E-02 -2.88379965E-03  1.39516832E-05  9.84079905E-05
  2.24890337E-02 -4.58674052E-04 -1.04918389E-03 -8.59119556E-02 -3.12355211E-04
  1.38549171E-04  2.10346681E-01 -4.43535863E-05  1.43111000E-04  8.54376471E-04
 -5.18302150E-02 -1.07340544E-02  8.46476832E-07  5.26523692E-03 -3.52480019E-01
  1.60571583E-04 -4.20339957E-02 -3.88193273E-02 -3.64099496E-02 -1.18253924E-04
  1.61106990E-01 -8.26488481E-05 -4.72332392E-03  2.62076987E-01 -2.62506384E-02
  1.11061726E-02  1.40399641E-02 -4.71489235E-03  2.62097639E-01 -2.62789176E-02
 -1.10149717E-02  1.40993411E-02 -1.52531081E-02  1.31139365E-02  2.42939775E-02
  3.47821683E-03  6.35474576E-03  8.18393710E-06  3.51653615E-02 -6.96410585E-02
  1.17549934E-04  4.48248944E-02 -1.47807055E-05  1.30443462E-04  7.34687327E-03
  1.17285063E-02 -1.52656515E-02  1.31255852E-02  2.42992030E-02  3.49270156E-03
 -6.35079309E-03  2.55061448E-05  3.52930760E-02  6.98166561E-02 -1.02972216E-04
  4.48215450E-02 -4.38460118E-05 -5.47232934E-05  7.42969382E-03 -1.16873981E-02
 -2.14967353E-03  7.23707289E-02 -1.76595304E-01  9.95726292E-02  2.23495311E-04
  1.14351702E-03  4.01601843E-02  1.57297192E-01  9.65173721E-02 -8.74766579E-03
  1.09579360E-03  3.99374881E-02  1.57246608E-01 -9.65667391E-02 -8.74791165E-03
 -2.15387158E-03  7.20548640E-02 -1.76689352E-01 -9.94892923E-02  2.04393789E-04
  1.65938445E+00 -1.82158464E+00  1.34515615E+00  4.88640927E-02 -7.67684074E-05
  1.18821637E-04 -1.36244460E+00 -2.49048555E-03 -2.36324036E-03 -3.40892752E-01
 -1.68601511E-03  5.40037924E-04 -9.11679223E-01  3.92867349E-04 -1.53802544E+00
  1.68775178E+00 -1.24560845E+00 -3.25639149E-02 -8.31373888E-02  2.65478479E-04
  9.62962684E-01  1.80673002E+00  1.45861177E-03  3.10908999E-01 -1.21528467E-03
  1.65909559E-03 -3.31707694E-01  8.24288531E-01  1.41533098E+00 -1.55317501E+00
  1.13064872E+00 -3.53422373E-02  6.51902845E-02 -8.28003606E-04  1.03320157E+00
 -2.05774554E+00 -6.16076311E-03 -3.24868094E-01 -9.70140222E-04 -7.36033038E-03
  3.76357712E-01  7.85118442E-01 -1.55970504E+00  1.71184860E+00 -1.27490839E+00
  4.71125754E-02  3.05004239E-05 -1.38044338E-03 -1.98632923E+00  3.09839266E-03
  4.35247126E-04  3.59833712E-01 -2.03553471E-02  1.61334421E-04  8.64056315E-01
 -5.28472239E-04  1.41456181E+00 -1.55233018E+00  1.12997487E+00 -3.53002352E-02
 -6.52010235E-02 -7.73858194E-04  1.02937041E+00  2.05896807E+00 -5.95702614E-03
 -3.24805402E-01 -1.46919918E-03  7.71166641E-03  3.75524329E-01 -7.85136231E-01
 -1.53732572E+00  1.68698093E+00 -1.24485888E+00 -3.24145931E-02  8.31377385E-02
  3.34899823E-04  9.58046182E-01 -1.80861401E+00  3.56208640E-04  3.10877633E-01
 -1.41685348E-03 -1.41509052E-03 -3.32088064E-01 -8.23821026E-01 -8.61166406E-03
  6.77420059E-03  4.77576815E-02  1.49812235E-02  2.16167395E-05 -9.39724016E-06
 -5.55901649E-02  3.53231978E-04 -4.84440254E-04  1.23707603E-01 -4.73875769E-04
 -1.82767718E-04 -1.16595421E-01  1.32180802E-04 -3.46288804E-02  3.57955159E-02
 -4.69308757E-02  1.67960380E-02 -3.42407722E-06  1.70554042E-03 -5.02511475E-01
  4.30149099E-05 -4.31630172E-02 -4.85756418E-02 -4.53459646E-02 -9.56040142E-05
  6.10613426E-02 -1.83579052E-05 -3.87034832E-03  3.43309862E-01 -7.07346579E-03
  1.23604974E-01  5.74184180E-03 -3.83204530E-03  3.43272227E-01 -7.07862316E-03
 -1.23563563E-01  5.76761885E-03  1.51069076E-02 -1.37379245E-02 -4.21618309E-03
 -3.49921238E-03  7.08525258E-03 -1.85747042E-05 -2.97786109E-02 -9.23213242E-03
 -9.91405929E-05 -2.36362608E-02  9.88265247E-05 -1.37021316E-04 -9.61460018E-03
 -3.15998135E-02  1.51189945E-02 -1.37500068E-02 -4.20058601E-03 -3.49724358E-03
 -7.07478287E-03 -2.53550490E-05 -2.99604939E-02  8.96266725E-03  1.76856936E-04
 -2.36348509E-02  1.36219962E-04  6.54731036E-05 -9.77682066E-03  3.15973970E-02
 -3.55543968E-02  4.55166297E-01  1.05506165E-01  2.83455194E-02 -6.78779719E-04
  5.42098687E-02 -7.00915521E-01  1.27841527E-01 -6.43041886E-02 -2.68498321E-03
  5.41755752E-02 -7.00745398E-01  1.28130622E-01  6.40030589E-02 -2.52889060E-03
 -3.55250449E-02  4.55042907E-01  1.05632264E-01 -2.82532361E-02 -8.66718688E-04
 -4.95188417E-02  5.72807577E-02 -8.16654656E-02 -4.91160366E-03  2.15023302E-06
  2.34707409E-04 -1.25426398E-02 -4.80684789E-04 -2.39557147E-04  9.98654592E-03
 -1.21759158E-03 -3.98807031E-05 -2.11227010E-02  8.61641423E-06  6.50844018E-03
 -8.12359935E-03  2.56264883E-02  1.48942519E-02  9.86523763E-03  9.50112194E-04
 -8.01551174E-02  5.40267880E-02  8.72632788E-03 -5.85674577E-02  3.55720610E-03
 -6.16411865E-04 -1.31129804E-02  5.31284257E-02  1.81471353E-02 -2.23678818E-02
  1.10913466E-01  4.34560066E-02 -2.09296474E-03 -4.21453331E-04  3.49900733E-02
 -6.83217266E-02 -8.19201004E-03  1.48251672E-01  8.67448561E-03  9.48719737E-04
  6.96988448E-02  1.69014427E-01  7.58797993E-02 -8.58242409E-02 -1.02816222E-01
  1.85649493E-02 -2.53310815E-06  3.73227627E-04  1.70322353E-01  2.42276586E-04
  5.58904158E-03 -1.87345438E-01 -5.06846413E-03 -3.14877280E-07  5.93312037E-01
 -3.79163170E-04  1.81474919E-02 -2.23676221E-02  1.10885394E-01  4.34454849E-02
  2.06956594E-03 -4.28425206E-04  3.44060011E-02  6.84794574E-02 -8.10876633E-03
  1.48231467E-01  8.61788101E-03 -9.72036022E-04  6.95874655E-02 -1.69025608E-01
  6.55403943E-03 -8.17664228E-03  2.57258176E-02  1.48905817E-02 -9.86961037E-03
  9.34020587E-04 -8.09299875E-02 -5.42506099E-02  8.79131722E-03 -5.85181591E-02
  3.44534130E-03  6.68654472E-04 -1.31391568E-02 -5.30382517E-02 -7.64259706E-02
  8.20827670E-02 -2.29835452E-02  5.15176222E-03  1.00118411E-06 -3.11650927E-05
 -1.15733331E-02  6.62365483E-05 -7.52543453E-04  6.47453428E-04 -8.32514617E-05
 -1.64079107E-05  1.25816617E-02  8.06091170E-06 -3.62992940E+00  3.89833234E+00
 -1.08775064E+00  9.88508744E-02 -2.30242367E-05 -7.69598567E-03 -1.19653419E-01
  8.93799942E-05 -7.85703859E-03 -1.07317060E-01  1.08688016E-02  2.28434622E-05
  5.38775127E-02 -2.21785351E-05  4.29344059E-02 -9.15099565E-02 -4.46235896E-02
  4.81824173E-02 -3.32036706E-03  4.29365386E-02 -9.16993923E-02 -4.46092673E-02
 -4.81068916E-02 -3.32623641E-03  4.96231881E-03 -5.00609154E-03  1.30785454E-03
  1.60988278E-03  8.28329404E-04 -5.72914578E-06  1.70604710E-03  1.80447637E-03
  1.65819918E-04  3.37444109E-04  1.08057758E-04  6.30337234E-05 -4.02309901E-03
  6.50001393E-03  4.97753775E-03 -5.02076634E-03  1.29380523E-03  1.60566949E-03
 -8.27315434E-04 -3.77037250E-06  1.74696103E-03 -1.76966227E-03  1.85394741E-04
  3.38913339E-04  1.17424512E-04 -7.02193165E-05 -3.99417470E-03 -6.51357526E-03
 -3.44007349E-03 -9.01350022E-02  1.85525841E-02 -3.50733263E-03 -9.24876903E-05
  3.62357423E-02  2.13781314E-01  5.17733706E-02 -9.64445601E-03  1.80916096E-03
  3.61945519E-02  2.13942677E-01  5.19484379E-02  9.45495859E-03  1.76028751E-03
 -3.41984773E-03 -9.01341058E-02  1.86775578E-02  3.58213880E-03 -1.10798094E-04
  7.56442792E-02 -8.53931664E-02  3.41150822E-03 -7.47775439E-03  2.99489333E-05
 -3.82660368E-06  1.40774406E-01 -7.07857978E-04  7.94951157E-04 -5.52703516E-02
  4.38417527E-04 -4.10363524E-05  5.69613588E-01  4.36194651E-04  4.63563755E-02
 -5.52523148E-02  1.45768425E-01 -3.07549813E-02  1.06341224E-02 -9.66900226E-05
 -1.73623001E-01 -2.84462311E-01 -2.00228860E-03  6.30497464E-02 -2.29814101E-04
 -7.70672294E-05  1.16973131E-01 -2.02078257E-01 -1.39129050E-02  1.62054026E-02
 -2.51474638E-02 -3.89454352E-03  8.75219057E-03  3.06071682E-05 -5.23001744E-02
  2.65063332E-01  2.51792940E-03 -2.08525565E-02 -6.79521646E-04  9.75930268E-05
 -5.13295213E-02 -1.01936024E-01 -1.55853077E-02  1.79276051E-02 -2.16338857E-02
  1.92897940E-03  5.72788698E-06  3.29666921E-04  2.83794976E-01  4.69980168E-04
 -2.07995370E-03 -1.58617614E-02  6.02995724E-04  7.52906666E-06 -9.02965873E-02
  7.20598157E-05 -1.39655888E-02  1.62689438E-02 -2.53537660E-02 -3.81201263E-03
 -8.75898894E-03  1.98497017E-05 -5.30942395E-02 -2.64591798E-01  2.32387032E-03
 -2.08723594E-02 -6.16827620E-04 -8.92830719E-05 -5.13970865E-02  1.02146899E-01
  4.63578759E-02 -5.52496661E-02  1.45548245E-01 -3.07249519E-02 -1.05013360E-02
 -1.05914382E-04 -1.75136349E-01  2.84972302E-01 -1.85860783E-03  6.29790983E-02
 -3.06208789E-05 -1.35701158E-08  1.17838082E-01  2.02133292E-01 -3.67138496E+00
  3.97335725E+00 -1.30009516E+00  6.08004916E-03  3.41898254E-05  3.85242653E-05
 -1.54510179E-01  9.15523305E-05  6.40442374E-05 -1.39697303E-01  1.77219986E-04
 -9.36745148E-05 -1.84850864E-02  2.40759996E-05  7.57924098E-02 -8.21309098E-02
  2.92500823E-02 -8.43718155E-03  9.20910674E-07  3.89297855E-04  9.94400063E-02
 -1.13035040E-04  8.39441243E-03  2.66450847E-04  4.62912460E-03  2.46826128E-06
  4.72107971E-03  3.09000134E-06  1.38148531E-03 -6.94973680E-02  2.88455966E-03
 -3.06565477E-02  2.37390932E-03  1.38401140E-03 -6.94298446E-02  2.91170553E-03
  3.06131907E-02  2.38801066E-03 -1.17586598E-01  1.19042320E-01 -1.10240718E-01
  1.14811174E-02  1.01537547E-02  4.26300907E-07  8.75359335E-02  1.28608808E-01
 -2.16179207E-05 -7.94228059E-02 -1.04450173E-04 -3.19269541E-05 -6.63923542E-02
  1.62036664E-01 -1.17663369E-01  1.19119293E-01 -1.10267949E-01  1.14923937E-02
 -1.01885881E-02  1.59714919E-05  8.76668087E-02 -1.28317365E-01  6.39156983E-05
 -7.94235970E-02  5.11108949E-05 -2.10111310E-04 -6.60427187E-02 -1.62095905E-01
  1.94015486E-02  1.30025801E-01 -7.07761406E-02  2.06491317E-02 -6.24940351E-06
 -1.34985991E-02  2.63827999E-02 -3.30012946E-02  3.78793952E-03 -8.50348129E-04
 -1.35035385E-02  2.60595821E-02 -3.28792977E-02 -3.75848327E-03 -8.42253132E-04
  1.94823508E-02  1.29320061E-01 -7.04339452E-02 -2.02965993E-02 -1.56959964E-04
  8.87950869E-02 -1.08158908E-01  2.55266234E-01 -3.20583446E-02  4.23046127E-05
 -2.50528226E-05 -1.92218494E+00 -1.63858188E-03 -5.80986209E-04 -2.89719361E-02
 -1.36293933E-04  3.01478507E-04  1.19549160E-02  4.58370270E-05  2.36882684E-02
 -2.82300850E-02  5.81385569E-02 -2.37338712E-02  3.65668884E-03 -1.00671797E-04
  2.61435923E-01  7.20522917E-01  7.62768484E-04  5.01719108E-02 -2.50012669E-05
  2.14658766E-04 -1.39638894E-01  5.33801024E-02  2.66029218E-02 -3.20443803E-02
  4.56171942E-02 -1.57091232E-02  6.70494538E-03  2.73197521E-04 -1.95785233E-01
 -1.97284820E-01 -5.73254567E-03 -3.98301820E-02 -1.66294328E-03 -1.81344509E-03
  5.85919868E-02  1.42451462E-02  1.01025043E-02 -1.17187043E-02  1.79498186E-02
 -1.39090763E-02  3.08273691E-06  7.75163143E-04 -2.45017176E-01  1.56188820E-03
  1.54536584E-02  4.63059134E-02  1.72832560E-03 -6.26948736E-06  2.57695462E-03
 -2.69473877E-05  2.66228828E-02 -3.20680550E-02  4.56329920E-02 -1.57065368E-02
 -6.70458573E-03  2.79780560E-04 -1.98067425E-01  1.99241255E-01 -5.49446934E-03
 -3.98709397E-02 -1.77437593E-03  1.79122627E-03  5.86947520E-02 -1.42771068E-02
  2.36817292E-02 -2.82207282E-02  5.80806043E-02 -2.37589476E-02 -3.65728584E-03
 -1.28124518E-04  2.58770998E-01 -7.22730909E-01 -7.31850995E-05  5.02346731E-02
 -6.99781977E-06 -6.64593718E-05 -1.39624510E-01 -5.33122808E-02  2.11411267E-01
 -2.39217322E-01  6.66679394E-02 -3.94072042E-03  1.95247302E-05 -2.79830238E-05
 -1.16015537E+00 -5.68309551E-04  2.06354924E-04 -2.39569958E-01  5.33101466E-05
 -3.02893883E-04 -2.64907672E-01 -3.11826440E-04 -1.39319797E-02  1.60234707E-02
 -1.33752669E-02  3.68343996E-03  1.94546237E-06  1.12169008E-03 -2.10708259E-01
 -1.63867839E-04 -2.56473732E-02  1.15760122E-02 -6.31480114E-03 -4.26288200E-05
  3.82388068E-02 -3.25562059E-05 -2.94714125E-03  1.76002979E-01 -2.33619514E-02
  3.53601292E-02 -5.16059610E-03 -2.93374491E-03  1.76258094E-01 -2.34094095E-02
 -3.53948892E-02 -5.20822494E-03 -2.55320067E+00  2.71940269E+00 -1.20650649E+00
 -7.89136158E-03 -2.01028093E-02  6.12347365E-06 -1.48416652E-01 -2.88369374E-01
  7.56573435E-05  3.61824324E-02 -4.61556275E-06 -7.74400482E-07  3.89251796E-02
  7.71125532E-03 -2.55333509E+00  2.71954637E+00 -1.20658654E+00 -7.89556352E-03
  2.01150138E-02 -2.02755407E-05 -1.48805848E-01  2.88098543E-01 -2.95205098E-04
  3.61774508E-02 -1.16270800E-05  1.37624254E-04  3.88598466E-02 -7.64602660E-03
 -2.75291596E-02  4.15079943E-01  2.06624405E-02  8.46212355E-05 -6.09488139E-04
 -1.64476766E-02  8.27242354E-02 -2.33004773E-03  3.43583639E-02  2.39606895E-04
 -1.64295254E-02  8.23981619E-02 -2.21472230E-03 -3.43851791E-02  2.64403866E-04
 -2.75974555E-02  4.15882301E-01  2.08150074E-02 -2.29256494E-04 -7.85609273E-04
 -2.96216680E-05  3.43998524E-05 -2.08805198E-05 -4.25111159E-06 -2.25451622E-02
  2.19315971E-06  2.66244413E-04  1.44002699E+00  5.40022789E-04 -4.37182005E-05
 -5.02919583E-05  3.82772859E-04  2.58660883E-05  6.63776290E-03  1.78277412E-02
 -2.16143581E-02  4.82911709E-02 -9.18235762E-03 -3.78558707E-03  1.29015330E-04
 -1.31609737E+00  6.06666117E-01 -1.14317434E-04  2.40267442E-02  1.09136076E-04
  1.87595726E-04 -1.96335137E-02 -1.43575057E-02 -1.39067054E-03  1.64508021E-03
 -1.20617326E-03 -6.40935810E-03 -3.45313358E-03 -1.47229153E-04 -1.30453139E+00
 -6.52488694E-01  9.63885261E-04 -1.76049323E-02  6.79696370E-04  3.69871881E-04
  5.09871928E-03 -2.44482726E-02 -9.95038148E-06  1.16302163E-05 -7.59357798E-06
 -1.25407752E-05  2.97643982E-03 -6.84270980E-06 -3.18284891E-04 -1.54149666E+00
 -2.61460770E-05 -1.82865871E-05  1.63718802E-05 -1.01143489E-03 -5.83368678E-05
  3.09026989E-02  1.37856147E-03 -1.63205983E-03  1.26459856E-03  6.36766025E-03
 -3.44587523E-03  1.53718792E-04  1.30402356E+00 -6.53312102E-01 -1.48603778E-03
  1.76054579E-02 -5.37015819E-04  3.06183821E-04 -5.13534680E-03 -2.43580781E-02
 -1.78372188E-02  2.16232892E-02 -4.81699447E-02  9.15072218E-03 -3.76333488E-03
 -1.34990921E-04  1.31624867E+00  6.06543614E-01  2.38222705E-04 -2.39423747E-02
 -1.20693831E-04  2.03834833E-04  1.94604374E-02 -1.42693846E-02 -6.34507198E-05
  7.31006623E-05 -4.58511183E-05  3.86512363E-06 -6.85384757E-03  1.09050327E-05
  5.70325014E-04 -1.07704732E+00  3.13335548E-04 -7.20172072E-06 -2.89521213E-04
  2.24725038E-04 -5.09616401E-04  4.55972314E-01  1.47827125E-05 -1.70559058E-05
  1.44860114E-05 -7.26848114E-06 -4.19403810E-03  4.29156885E-06  3.70308681E-05
  2.20566598E-01  1.23099293E-05  2.10556694E-05  2.67953136E-05  8.08992353E-03
  4.75936696E-05  6.33732127E-03  7.24289024E-03  1.05895577E-01 -3.99556549E-03
  2.65017234E-02 -6.79214719E-03 -7.20571153E-03 -1.05925001E-01  4.02421947E-03
  2.64997269E-02  6.82977324E-03 -2.57176659E+00  2.74875344E+00 -1.32459874E+00
 -1.23279751E-02 -3.39696450E-02  1.02110529E-05 -1.00665510E-01 -2.54867460E-01
  1.86465031E-04 -3.22193794E-02  4.33931392E-05 -9.76428049E-06  7.55640034E-04
  2.48855824E-03  2.57162689E+00 -2.74860556E+00  1.32456738E+00  1.23638059E-02
 -3.39374672E-02  1.01721632E-05  1.00951517E-01 -2.54847749E-01  2.30002802E-04
  3.22186470E-02  1.10541800E-05  2.38150741E-05 -7.40744425E-04  2.42360186E-03
  1.06069151E-02 -7.84037922E-02  3.11902136E-02 -6.48130401E-02  2.32612651E-04
 -9.83986032E-03  5.77990478E-02  8.79614056E-02  6.72021419E-02  6.89839727E-04
  9.83515254E-03 -5.74513817E-02 -8.79758559E-02  6.71877008E-02 -6.34891393E-04
 -1.05184833E-02  7.79580360E-02 -3.12913192E-02 -6.46243837E-02 -2.74954235E-04
Total SCF Density                          R   N=       14535
  1.86459069E-01  4.47683857E-01  1.08286798E+00 -5.53827668E-02 -2.11375343E-01
  7.91461242E-01 -6.02820126E-03 -2.03186821E-02  5.33535049E-02  4.53232335E-01
 -7.42334011E-05 -2.57429390E-04  1.01808910E-03  5.35661720E-04  5.85289054E-01
 -1.15781908E-05 -3.76211730E-05  2.13935938E-04  1.53869590E-04 -6.39752372E-07
  5.74072168E-01  4.02519172E-03  1.32644535E-02 -2.56897637E-02  4.14004885E-02
  3.51392105E-04  1.02655190E-03  4.13498833E-01  1.77202712E-04  6.08750446E-04
 -1.77505175E-03 -4.38476461E-04 -2.14689275E-01 -6.05631378E-04 -8.46635424E-03
  3.33731797E+00 -4.37293435E-05 -1.63616157E-04  4.46505269E-04  5.54534636E-04
 -6.71430945E-05 -4.62693331E-04  8.89708161E-04  5.22415516E-04  1.32878410E-03
  9.09293784E-03  3.16761133E-02 -9.16432654E-02  2.58798719E-02  1.76207869E-04
 -1.30715947E-03  6.06261061E-02 -6.70574848E-04 -1.08732366E-04  3.17188676E-02
 -7.67828198E-06 -2.50347568E-05  6.45005770E-05 -1.41628643E-04  2.07971360E-05
  9.18383199E-03 -7.45865735E-05  1.63694643E-04 -8.64984282E-04 -3.05375558E-05
  7.11633848E-03 -3.68807292E-06 -1.37946322E-05  4.73031932E-05  4.48640332E-05
 -1.45486193E-04 -4.04407921E-04  6.92958353E-05  3.68603435E-05  2.78834221E-05
  7.69853958E-06  9.35349833E-06  1.95846194E-02  1.35884017E-03  6.46072578E-03
 -2.04649770E-02 -1.91818973E-01  4.10111896E-04  3.29738940E-05  1.04245247E-01
  3.85799196E-05 -3.97126115E-04  9.11025497E-03  6.56872703E-05 -2.29542224E-05
  1.76654189E-01 -2.02563514E-05 -6.97422289E-05  2.34723304E-04 -2.48105173E-04
  1.07808337E-01  4.88339727E-06  4.88292152E-04 -3.02147056E-01 -4.00844838E-05
  1.32546732E-05 -8.51343445E-07 -8.52163165E-05  2.18303392E-04  7.14717674E-02
  1.61230620E-03  5.65419426E-03 -1.34516499E-02 -1.19185810E-02  2.44490664E-02
 -2.47761491E-05  7.34284370E-03 -1.56112394E-02 -1.01931286E-04  6.87640296E-03
  2.09550154E-06  4.40967474E-06  1.62605504E-02  1.30309200E-02  1.86610486E-01
  5.69226455E-03  1.94374719E-02 -4.37328450E-02 -4.05944200E-02  8.48792852E-02
 -7.51391282E-05  2.15885873E-02 -5.47835996E-02 -3.81854907E-04  2.27250443E-02
  3.70993981E-06  1.29442143E-05  5.36847587E-02  4.27635887E-02  4.48477829E-01
  1.08619376E+00 -1.50750462E-02 -4.86726401E-02  8.92945819E-02  1.11025755E-01
 -2.78268620E-01  2.05613892E-04 -4.09672641E-02  1.45145085E-01  1.31584449E-03
 -6.03822897E-02 -5.77611997E-06 -2.72372698E-05 -1.44891878E-01 -1.17135448E-01
 -5.95209847E-02 -2.25721150E-01  8.40087894E-01  1.57918903E-02  5.50081560E-02
 -1.80227133E-01 -6.07677044E-02  1.98308252E-01 -3.68460884E-04  8.61446673E-02
  7.37379598E-02  2.02773745E-04  5.37273399E-03 -1.27450245E-06  5.01029021E-06
  1.09379797E-01 -2.35137311E-02  5.79929233E-04  2.26032284E-03 -2.06403257E-02
  5.72325670E-01 -2.42226527E-02 -8.37833365E-02  2.71152812E-01  1.79710457E-01
 -3.04542925E-01  2.85601782E-04  8.21335199E-02  1.35618593E-01  8.80493379E-05
  1.14051658E-03 -4.70967399E-05  1.55229754E-04  1.22278128E-02 -6.37070472E-02
  3.44737811E-03  1.17882290E-02 -4.96887504E-02  2.04342453E-02  5.69325127E-01
  4.22146093E-06  1.77320170E-05 -7.24584864E-05 -8.93456383E-05  2.14298295E-04
  2.58413052E-01 -8.91237318E-05  1.89104993E-03  6.10648901E-03 -3.61013265E-04
  1.55534798E-02 -6.57715693E-02  1.22909210E-04  8.43463820E-05 -3.61145016E-05
 -1.21837431E-04  2.85099774E-04 -1.98526381E-04 -1.19462273E-04  4.38477571E-01
 -1.16062064E-02 -4.59937909E-02  1.70789983E-01  1.76083628E-01  6.10272672E-02
 -3.68467995E-04  2.57149613E-02 -2.23719692E+00  4.21698005E-04 -1.88187541E-02
 -1.15045544E-04 -6.55829713E-05 -1.23512037E-01  1.59729958E-01 -1.12823905E-02
 -4.28988167E-02  1.74578247E-01 -1.10644925E-01  7.40999492E-03  4.19346085E-04
  1.73922514E+00  4.04926390E-03  1.21742533E-02 -3.26304200E-02  2.35174107E-02
 -5.31219049E-02 -4.30560175E-04 -1.47317215E-01  1.92014506E+00  3.41971895E-04
 -1.96699460E-02  2.72316991E-06 -3.72030682E-04 -8.67879794E-02 -1.45417638E-01
 -2.62399679E-02 -8.62688201E-02  2.25735504E-01 -2.98878307E-02 -9.44546856E-02
  1.76463100E-03 -1.30329418E+00  1.36030854E+00  1.41674156E-04  5.01699223E-04
 -1.38374562E-03 -7.22646826E-04  4.89173126E-04  7.84559562E-02 -1.09434147E-03
 -1.19217933E-03  7.16945934E-04  2.94726938E-04  3.34284902E-03 -9.54826389E-03
  7.98994710E-04  2.33893295E-04  2.28269267E-04  8.39912708E-04 -2.85481221E-03
 -3.01670188E-04 -2.10851520E-04  8.52432854E-02 -1.96231599E-05 -1.35740837E-03
  1.93827416E-02  5.69998452E-03  1.90667445E-02 -4.95850032E-02 -2.43444999E-02
  7.50668641E-03 -2.53577611E-04 -8.02798747E-03  6.25086226E-02 -2.74445075E-04
  9.38175437E-03 -1.00087596E-04  1.75093176E-04  2.01209730E-02  2.86818664E-03
  8.45820705E-03  2.97820673E-02 -9.08624718E-02 -2.32245537E-03  5.82123603E-05
 -1.39861838E-03 -7.79037967E-02  3.25500531E-02  6.54906067E-05  2.34141031E-02
 -6.28332533E-07  2.18729906E-06 -1.91580042E-05 -2.49350565E-09 -2.38738662E-04
 -4.84153226E-02 -1.96811312E-04  5.18221164E-04  2.26395375E-03  2.34756129E-04
 -1.63313653E-04 -8.72321583E-03  9.53572144E-05 -2.77879497E-05  1.45445223E-05
  5.78821229E-05 -2.35869438E-04 -2.80056698E-04  1.66169766E-04  2.79528328E-02
  8.24407107E-05  1.70262134E-04  1.02588302E-03 -1.66243506E-04  1.31068676E-02
  2.42943438E-05  8.40247811E-05 -2.31082043E-04 -1.62746221E-04  1.25161347E-04
  6.60252707E-02  1.11551932E-04  5.34914648E-04 -3.31505584E-04 -1.27995066E-04
  6.77190904E-04  1.45705714E-03  1.00606635E-04 -3.19869016E-05  3.02103044E-06
  1.88760259E-05 -1.02350366E-04  6.33876515E-05 -2.11962069E-04  2.34576274E-02
 -6.05556739E-04  4.07073983E-04  8.12120953E-03  6.17142599E-05 -6.71876456E-03
  7.91158996E-03  8.64115344E-03  2.88445975E-02 -8.14409837E-02 -6.52802616E-02
 -2.13180062E-02 -1.25326428E-04  7.15053816E-02  1.68022810E-01  1.05413720E-04
  1.30069331E-02  8.37089054E-05  2.19251159E-05  5.70740883E-02 -2.84524995E-02
  7.92184307E-04  1.55447576E-03 -2.61158490E-04  1.15546179E-01  7.44066594E-03
  3.90962796E-04 -1.41387378E-01  4.12902227E-02  8.02963028E-05 -1.69715517E-03
  7.86385936E-05  3.21851012E-05  6.10536787E-02  1.38114922E-02  4.50137891E-02
 -1.27404476E-01  1.89781185E-02  7.01586975E-02 -3.54560481E-05 -7.61352763E-02
 -2.36870367E-02 -7.79624880E-06  1.81172710E-03 -1.91580520E-05 -6.08667728E-05
 -5.27135803E-02  1.54983457E-02 -3.89375115E-03 -1.10813474E-02  2.31442446E-02
 -1.49561855E-02 -1.30407735E-01 -7.95037838E-06 -2.50135664E-03  7.95251652E-02
 -2.79011621E-05  3.99621758E-03 -1.09316034E-04  3.17827281E-05 -1.82008698E-02
  7.68657913E-02 -4.93597458E-04 -1.71201888E-03  6.85283547E-03  2.01834880E-03
 -2.84420308E-03 -1.71849090E-05 -1.25520766E-02 -9.95089903E-03 -6.32376469E-05
 -1.07197100E-03 -2.56054723E-05  1.05699541E-05 -5.19429436E-03  5.33684694E-03
  1.62581574E-03  5.76033383E-03 -1.43034369E-02 -2.90740306E-02 -3.72774622E-05
 -6.00720624E-05  4.15109626E-03  1.23582961E-02  9.03587625E-05  7.73895839E-03
  2.44686721E-05 -7.55131465E-06 -1.67120825E-02  4.41502610E-03  1.86497438E-01
 -1.65978946E-03 -6.07697925E-03  2.60366962E-02  7.75900879E-03 -1.01632737E-02
 -2.73600098E-05 -3.94810306E-02 -3.92473249E-02 -2.18780913E-04 -3.07846031E-03
 -8.21823461E-05  3.77396325E-05 -1.63664412E-02  1.80153265E-02  5.75647590E-03
  1.97584032E-02 -4.55464682E-02 -1.00517979E-01 -1.09062196E-04 -2.17460641E-04
  1.80904882E-02  3.49816547E-02  2.81362086E-04  2.61600905E-02  6.26464532E-05
 -1.78344351E-05 -5.50246982E-02  1.40928173E-02  4.48080272E-01  1.08475783E+00
  5.75940818E-03  2.27966334E-02 -1.01294693E-01 -3.93247613E-02  4.59631891E-02
 -9.64982816E-04  9.35892224E-02  1.55275817E-01  5.76083688E-04  7.22350481E-03
  2.45136898E-04 -1.29296738E-04  4.97005671E-02 -4.86680440E-02 -1.43706349E-02
 -4.58995550E-02  7.66782846E-02  3.18055330E-01  2.24601946E-03  1.06557301E-03
 -9.25864202E-02 -6.38334140E-02 -2.24725314E-04 -7.18749557E-02  2.26800228E-04
 -9.86815112E-05  1.52966675E-01 -4.01685671E-02 -5.79733603E-02 -2.19849310E-01
  8.13876859E-01 -5.34937034E-03 -1.93719982E-02  8.48156940E-02  2.20202239E-02
 -3.35388093E-02  3.37792620E-05 -1.86955901E-02 -1.09694136E-01 -4.56612608E-04
  2.81051275E-02  7.67313411E-05 -6.96205601E-05 -3.00075804E-02  5.80934482E-02
  2.86459641E-02  9.91187943E-02 -3.16483650E-01 -4.05558107E-01  1.68948394E-03
  4.26361992E-04  2.31748858E-02 -1.17846279E-01  1.25213043E-03  8.13919969E-03
  3.85423209E-04 -5.64347913E-05 -4.92447689E-02 -7.85212100E-03 -7.72403775E-04
 -2.93092973E-03  2.17617414E-02  5.51921213E-01  1.94170328E-03  7.24079959E-03
 -3.02139812E-02 -1.35271441E-02  1.86280734E-02  1.80813433E-06 -3.69678283E-02
  3.36658436E-02  5.26707532E-05 -4.23047490E-03  1.00018096E-04 -1.56382529E-04
 -7.39005963E-03 -6.28580715E-03 -5.41226703E-05 -1.53719857E-04  1.51813733E-03
 -3.72089540E-04  2.65899982E-02  6.09037690E-04 -6.34150447E-02  1.51374223E-01
 -1.50932463E-05  1.45827496E-03 -7.11171499E-05 -4.24408325E-05 -9.83753224E-04
  1.01803899E-01  3.21013700E-03  1.10335450E-02 -4.64570046E-02 -1.68197511E-02
  5.43475387E-01  3.10756820E-06  2.16278697E-05 -2.78490627E-04 -6.68449547E-06
 -2.18565144E-04 -7.36675388E-02 -8.65507161E-04  2.37588204E-03  1.51471138E-02
  3.84234290E-04  1.17101127E-02 -6.51332394E-02 -2.34156871E-05 -3.91112419E-05
 -4.04374272E-05 -1.43327251E-04  3.84711023E-04  6.13886177E-04  3.07267466E-04
  3.39916772E-01  9.07682904E-04  2.32802093E-03  4.54278617E-02 -1.29705559E-03
  7.18594670E-02 -1.74070171E-02  4.30017362E-04 -9.18751089E-05 -2.26834467E-06
 -2.90765313E-05  1.12290646E-03 -3.75260494E-04 -2.40659477E-04  5.02961971E-01
 -3.26304556E-03 -1.70271327E-02  9.06515603E-02  8.67888212E-02  5.51331113E-02
  3.75735886E-03  8.43929668E-02 -1.97020339E+00  2.39799572E-04 -3.45732641E-03
 -6.23675760E-04 -1.26998843E-04 -3.90473129E-02  1.27073342E-01 -2.71122900E-03
 -1.55106300E-02  1.12277032E-01  7.10888127E-03  2.90393707E-02 -3.47101957E-03
  1.50142293E+00 -1.13994325E+00 -2.26763775E-03 -4.40288372E-02 -1.66546516E-03
  2.46506810E-04 -1.01274033E-01 -1.29829084E-02  1.03763553E-02  3.66257472E-02
 -1.24370577E-01 -7.88190843E-02 -3.37750742E-02 -5.21578532E-03  1.42950365E+00
 -1.51328631E-02 -4.77601984E-02  1.18330503E-01  3.19310423E-03 -4.60302371E-02
 -3.71900710E-03  1.28819416E-01 -1.36974710E+00 -5.77160281E-05  3.02789953E-03
  4.49953104E-04  1.27830795E-05  5.96015496E-02  5.09721965E-02  4.79190886E-03
  5.06778582E-03  5.75632852E-02  1.19380464E-01  1.55186557E-01  4.01647209E-03
  1.01997203E+00 -9.97081900E-01  3.17359103E-03 -7.07380112E-02  1.68800462E-03
 -9.75907939E-04  1.42209291E-02 -9.92530330E-02 -3.03417919E-02 -1.02676510E-01
  3.04081502E-01  5.18538136E-03 -1.12184964E-01  4.93142988E-03  8.71169166E-01
  9.27875491E-01 -3.37080800E-04 -1.21434452E-03  3.53156798E-03  1.89965078E-03
 -9.78019138E-05 -1.82425830E-02  3.67239149E-03  2.50743579E-03  2.92473242E-03
 -7.46489963E-04  7.81840743E-04 -1.02344637E-02 -1.46450067E-03 -8.35816484E-05
 -3.86363430E-04 -1.42806905E-03  4.74318996E-03  5.12500189E-04  8.20338692E-04
  4.51137583E-02  4.10962299E-04  1.97454585E-03  2.44983809E-03 -8.86536726E-04
  1.12633073E-02 -3.37941828E-03  1.03897045E-04 -3.59529996E-04 -1.89696995E-04
 -6.77988390E-04  1.40464635E-03 -1.60013504E-03 -1.47502960E-04  8.16638386E-02
  3.03941104E-03 -5.23012558E-03  2.36738314E-02 -5.22879021E-05  5.50802200E-04
 -2.21859909E-03 -1.19437090E-02  1.81817771E-02 -6.77168447E-04 -8.27099147E-03
 -3.72923126E-02 -3.11075463E-04  3.37776849E-03  2.34358661E-05  1.20320696E-04
  1.54573265E-02  1.20384634E-02  6.83925985E-03  2.28396564E-02 -6.06031458E-02
 -5.85122045E-03  3.74615813E-03 -5.63359427E-05  2.26274797E-03 -1.52375433E-02
  8.45641936E-04  1.37795016E-02  2.31237043E-04 -7.13797442E-05 -1.17326836E-02
 -5.92469239E-04  7.57119605E-03  2.65389027E-02 -7.90700928E-02 -2.48438780E-03
  1.16333680E-03 -4.49580969E-05  1.48274701E-02 -1.66591843E-02 -2.02561851E-03
  1.83001756E-02 -5.90707431E-05 -2.15271679E-04  6.47530761E-04  4.86768264E-04
  6.19932186E-05 -4.41512191E-02  8.66670289E-04  8.64776968E-04  5.77436713E-04
  4.42752402E-05 -1.38504325E-03  8.59553877E-03 -1.78133385E-04 -2.75819358E-05
 -7.63688893E-05 -2.59955511E-04  7.04799775E-04  1.35822027E-04  1.87492087E-04
 -5.16819478E-02 -2.52753254E-04  1.29416364E-04 -1.13172620E-02 -1.09156022E-04
  4.69426102E-06 -4.68664338E-03  1.32600061E-04 -1.53468009E-04 -3.89166287E-05
 -1.79877004E-04  8.50351076E-04 -4.96778377E-05 -1.21661236E-04 -2.14078816E-02
 -3.44282017E-04 -2.92429345E-04 -9.70778185E-04 -9.52291786E-05  8.16232920E-03
 -6.26135050E-05 -2.26023172E-04  6.17990288E-04  3.83944155E-04  6.25375166E-05
 -1.85589514E-02  1.16201891E-03  7.64903813E-04  1.42180016E-03 -8.71643881E-05
  9.54734854E-05  5.92351999E-04 -1.91910670E-04 -2.39544253E-05 -8.24804165E-05
 -2.93279947E-04  8.85408789E-04  3.05577620E-04  1.31558750E-04 -4.89355447E-03
 -4.96347837E-04  1.71880955E-04 -3.65932392E-03 -1.96337215E-04  3.31029956E-03
 -2.48045157E-03  1.70381446E-04 -1.99677031E-04 -7.13924939E-05 -2.76361161E-04
  8.42704670E-04 -2.25794044E-04 -3.32588245E-04  1.93509100E-02  2.31336763E-04
 -1.80809347E-03  9.07259111E-03 -5.54077882E-04  3.24978819E-03  5.40814100E-03
 -2.05062113E-03 -7.45644579E-03  1.84304841E-02  2.40381352E-02 -2.21871445E-02
  4.65800890E-04 -2.11450080E-02  6.66557500E-02  2.72026708E-04 -1.61588726E-02
 -1.34816305E-04 -7.79967821E-05 -2.63757035E-02 -2.22779143E-02 -1.65449561E-02
 -5.43637656E-02  1.50382290E-01  4.81168308E-02 -2.05342380E-03 -4.16513448E-04
  1.37741222E-02  8.43359007E-02 -1.09040948E-03 -1.03102600E-02 -3.34300276E-04
  1.04710396E-04 -5.16409842E-04  8.27095258E-03  2.38173571E-04 -4.54374758E-04
  6.24476354E-03 -1.07046186E-01  7.79694913E-03 -5.10984918E-04  4.12215932E-02
 -2.62224764E-02  1.36632148E-03 -5.31465361E-03  4.17883588E-05  5.03574878E-05
  5.10735143E-02  6.84780135E-03  2.22068607E-02 -6.57242196E-02 -1.36768322E-02
  4.79376703E-02  1.56552977E-04 -5.25827039E-02  1.04471077E-02  2.64122050E-04
 -7.02132731E-03 -6.10427179E-05 -6.25739840E-05 -3.53451012E-02  5.70422793E-03
 -5.70719203E-03 -1.89101330E-02  5.56003928E-02 -5.44290166E-03 -1.03431131E-01
 -3.76191676E-04 -1.85464638E-02  9.49999591E-02 -8.53650767E-04 -3.88903863E-03
 -3.25657349E-04  3.01751582E-05 -7.10495719E-03  6.27347235E-02  2.78912098E-03
  7.13923687E-03 -1.25698642E-02 -1.84845709E-02  1.23791332E-01 -4.45183631E-04
 -7.71766167E-03 -8.96361666E-02  1.07059732E-03 -7.08609626E-03 -1.84873693E-05
  7.79997595E-05  1.80669484E-02  7.26089539E-02 -4.45510827E-04 -1.52329742E-03
  5.19470828E-03  3.07417467E-03  2.93363786E-06 -8.27323079E-05  6.65548407E-03
  6.16066008E-05 -1.01291919E-04 -3.16239596E-04  1.41298406E-06 -1.70776741E-06
  4.16268840E-03 -1.34560409E-06 -4.57401300E-04 -1.59150374E-03  6.17133208E-03
  4.85376824E-03  2.29274728E-03  1.00792306E-04  5.99039859E-03 -7.07168216E-03
  3.06874587E-04  7.95136061E-04  1.17927538E-04  1.86238028E-06 -1.60234805E-03
 -8.29036078E-03  1.48771284E-03  5.23776731E-03 -1.34125177E-02 -1.47440394E-02
 -2.34109586E-02  9.52116587E-05  6.53427640E-03  9.08482391E-03 -3.81455828E-04
  5.40653087E-03  8.99503885E-05  3.91500047E-05  6.23217002E-03 -1.49439371E-02
  1.86592964E-01 -1.45830392E-03 -5.28492087E-03  1.95730243E-02  1.14657590E-02
  9.03262413E-06 -2.57472029E-04  2.00856294E-02  1.97037527E-04 -3.40687413E-04
 -1.69863930E-03  5.92789533E-06 -4.71929875E-06  1.28003045E-02 -3.54375097E-06
 -1.58662761E-03 -5.77526535E-03  2.36824122E-02  1.75980001E-02  8.29952792E-03
  3.55045968E-04  2.58898137E-02 -1.89473960E-02  9.90647108E-04  3.61276501E-03
  3.75702844E-04  2.53939956E-05 -5.97071176E-03 -2.74117070E-02  5.23970930E-03
  1.79053888E-02 -4.30053656E-02 -5.12475497E-02 -8.09575271E-02  3.30485535E-04
  2.79904050E-02  2.82539267E-02 -1.35709742E-03  1.79633247E-02  2.37044022E-04
  1.79877119E-05  2.06688249E-02 -4.92867851E-02  4.48079600E-01  1.08400847E+00
  3.79197378E-03  1.53846934E-02 -6.31052554E-02 -4.72589829E-02 -5.56595189E-05
  9.74202843E-04 -5.79208786E-02 -3.29690238E-04  9.02205187E-04  8.20934721E-03
 -9.65495526E-05  7.55931245E-06 -3.18719358E-02 -1.75959199E-05  6.20442040E-03
  2.37998436E-02 -9.85783079E-02 -8.11972918E-02 -3.15326704E-02 -1.58357738E-03
 -1.13771873E-01  3.60171380E-02 -2.73866103E-03 -1.16651279E-02 -1.14151324E-03
 -1.14337924E-04  1.34208233E-02  8.05542128E-02 -1.27349519E-02 -4.07773462E-02
  7.59573145E-02  1.68320976E-01  2.63899707E-01 -1.96416313E-03 -1.12993483E-01
 -8.70142206E-02  4.26267966E-03 -4.89926968E-02 -4.34749479E-04  4.93438321E-04
 -5.77292790E-02  1.39407719E-01 -5.67139156E-02 -2.14859569E-01  7.96711902E-01
 -2.97944310E-03 -1.12216560E-02  4.47715965E-02  3.70373354E-02 -8.24843204E-07
  5.39012041E-04 -2.49918762E-02 -3.38729793E-04  6.72614534E-04 -1.25270222E-02
 -4.82061292E-04  1.31238592E-05 -2.22072970E-02 -1.10654903E-06 -3.20782458E-03
 -1.18263017E-02  5.19680206E-02  3.83884363E-02  1.67301425E-02 -1.68188812E-03
  5.84702997E-02  3.89301535E-02 -2.87999781E-03  1.49348392E-02 -8.13350828E-04
  8.28830791E-05 -2.99528867E-02 -1.49902941E-02  1.29389672E-02  4.41690144E-02
 -1.25110465E-01 -8.54198216E-02 -1.81232293E-01  1.26056816E-04  1.88106575E-01
 -8.58475699E-02  2.97163889E-03  2.05204380E-02 -1.59603213E-04 -2.69700783E-04
  8.63127363E-02  2.30486959E-02  4.16370550E-03  1.41672528E-02 -4.49986250E-02
  5.26064976E-01  2.45572147E-06  7.54940561E-06 -4.48670894E-05 -4.38062972E-05
 -4.95788429E-02 -3.13454301E-05 -2.14658816E-04 -9.17651538E-03  3.88076946E-06
 -4.47552758E-05  1.29252602E-06  1.22593925E-04 -2.06395585E-04 -1.40851104E-02
 -2.79514469E-03 -1.00141767E-02  4.68759560E-02  3.55481836E-02  2.07031475E-02
 -3.39733170E-04 -1.53285407E-02 -6.51077871E-02 -1.10617834E-04  1.86997697E-02
 -6.77163558E-06 -9.95242844E-05 -2.06255403E-02 -4.97826834E-02  2.42620319E-02
  8.42054604E-02 -2.73785890E-01 -1.98944967E-01 -3.01639706E-01  7.59414950E-04
 -2.83210647E-02 -2.60983866E-02  6.74912673E-04  9.31608392E-03 -2.72080842E-04
  3.82653411E-04 -2.66441475E-02 -6.96735807E-02 -7.83161267E-05 -2.70281686E-04
  1.07520507E-03 -5.70488310E-04  5.97831876E-01  8.71264845E-06  5.20990762E-05
 -5.67693518E-04 -1.05788261E-04  5.78723117E-05 -1.52486127E-01  3.77640280E-04
  2.60362982E-06  1.56676822E-02 -9.74946746E-05  5.33657647E-03  7.46349030E-04
 -6.49511972E-04  9.07089770E-06  3.09739555E-05  1.35003398E-04 -5.72833365E-04
 -1.45598476E-05 -2.83109201E-04  1.86467706E-02 -2.59263290E-03  2.88004817E-03
 -1.97061718E-02  8.23397531E-04  3.94351134E-02 -2.20116057E-02 -6.47273112E-04
  6.54200132E-04 -6.43660947E-05 -1.86654098E-04 -6.51901519E-04  6.75206389E-04
  4.09322082E-04  2.49183337E-01  8.38986955E-03 -1.79343595E-02  8.35098767E-02
 -3.26761433E-03  2.44763362E-02  4.64629071E-02  1.31010126E-03  1.74778083E-03
 -4.85391911E-04 -1.61312327E-03  4.48384462E-03  4.65413856E-03  1.04546801E-05
  4.25663322E-01 -2.49760533E-02 -8.59042280E-02  2.50067435E-01  7.08640299E-02
  6.53047871E-05 -1.27244097E-02  2.31643846E-01 -3.75524046E-03  1.34331921E-03
 -1.20060746E-02  1.47965026E-03  1.06148003E-04  4.01833790E-03  1.19877762E-04
 -8.78701868E-03 -3.88650498E-02  1.59338777E-01  1.34872445E-02  9.02296335E-02
  1.34098114E-02  1.16474616E-01 -1.39551357E-01  5.70321591E-03 -6.83308981E-02
  5.33792758E-03 -2.25734714E-03  3.69388015E-02 -8.77575100E-02 -2.23789113E-02
 -7.43536060E-02  2.06178934E-01  5.40176357E-03 -7.58983201E-02  1.90958865E-02
 -2.73199680E-02  2.46617113E-01 -8.13732808E-03 -1.95841253E-02  6.98220251E-04
 -3.91224714E-03 -1.55399368E-02 -6.34889690E-02  1.18114881E-02  3.84046550E-02
 -1.40789967E-01 -1.38621223E-01 -6.69597167E-04 -4.42731901E-02  5.47576918E-01
 -1.19705093E-04 -4.22556627E-04  1.31246272E-03  2.02177257E-04  2.84664786E-02
  5.12191488E-04  6.44921243E-03 -2.26501327E+00 -3.81744225E-04  5.34825809E-04
 -1.43919893E-04 -5.08024310E-04  7.54147104E-05  1.11599392E-01 -5.72970302E-03
 -2.76091753E-02  1.55023482E-01  7.93564973E-02 -8.18532160E-03  5.90113181E-04
  1.63780876E+00 -1.33429740E+00  9.19172933E-04 -7.85582922E-02 -1.25916090E-04
 -3.34671753E-04 -5.73594559E-02  4.14838880E-03 -1.25066877E-02 -4.77034217E-02
  1.70886102E-01 -3.70040845E-02  7.84980196E-02 -1.79139579E-05  1.49439295E+00
  1.15100022E+00 -2.25759520E-03 -6.13969826E-03 -8.50986260E-04 -9.27211258E-04
  1.65202698E-02  7.48152196E-03  7.68748346E-06  3.01544216E-05 -2.26411849E-04
  4.13032085E-04 -1.60726388E-01  1.58191626E-05  2.67263979E-03  1.87834607E+00
  7.92640722E-04  2.87162588E-03 -8.71488095E-03 -5.00703460E-03  1.50163525E-05
 -2.79613088E-02 -8.72322241E-03  6.29794085E-04  2.10836792E-03  1.77591798E-03
  2.70579960E-03  1.15448932E-04  3.39970259E-03 -1.10990575E-05  9.70565431E-04
  3.49873131E-03 -1.11458251E-02 -1.24932963E-03 -2.16758136E-03  2.00414209E-02
 -5.77235902E-03  2.16965551E-04  5.78661303E-03  1.84776548E-03  9.66573323E-03
 -4.28211130E-03  2.87188165E-05  1.21989119E-03  4.56410280E-04  1.72005010E-03
 -4.28599628E-03  3.30182144E-03  1.80601817E-03  4.85872916E-02 -1.30179623E-02
  7.68398004E-03 -7.87803283E-03  4.04996827E-03  2.79386984E-05 -4.49191413E-03
 -3.67688497E-03 -1.99778241E-03  5.53245205E-04  2.09628296E-03 -7.72764349E-03
 -8.31081253E-03  8.09817589E-06 -1.54437802E-02  1.92360447E-02 -5.44812058E-04
  3.44800721E-02  6.26049260E-04  1.66364672E-03  1.39093396E-03 -7.84344925E-05
 -4.44492811E-05 -9.31722434E-04 -3.50371731E-02  7.20213585E-04 -2.33453168E-04
 -2.13067186E-04  1.16044184E-05  4.64464082E-06 -6.01940730E-03 -5.01496221E-05
  8.36775966E-04  3.85464190E-03 -1.43143157E-02 -3.29986162E-02 -7.61925348E-03
  3.46558382E-04  1.00517569E-02  2.58301161E-02  4.81358107E-04  1.33128175E-02
  3.65285484E-04 -4.02022445E-05 -1.76893033E-02  3.37617656E-03  8.06636546E-03
  2.69403807E-02 -7.31443478E-02  6.45346286E-04 -3.57689592E-03  1.57469760E-03
  1.93197245E-02 -3.09683440E-02 -1.14628125E-03  1.04348784E-02 -2.25902181E-04
 -4.09359365E-04  3.45763542E-03 -1.27996497E-02  9.54699410E-03  3.34482612E-02
 -9.54349802E-02 -2.09046330E-02  2.34490606E-04  1.38327221E-03 -6.34039968E-02
 -4.58210009E-04  3.17090514E-03  3.67879943E-02  1.35609466E-04  4.88980229E-04
 -1.54304581E-03 -1.03153472E-03 -1.17684859E-05  3.09380113E-02  4.21444369E-04
 -1.86637315E-04 -2.98308549E-03  1.69285462E-04 -1.94384298E-03 -1.46168547E-04
  8.74939631E-04 -9.28780040E-06  1.83567156E-04  6.47544676E-04 -2.02716469E-03
 -5.06807928E-04 -3.72636120E-04 -1.81275444E-02 -2.93619455E-03 -7.32249167E-04
 -3.51931077E-03  4.38404307E-04 -1.03573931E-02  4.70754980E-03  2.35119172E-04
  5.48387044E-05 -1.66567692E-04 -5.24589100E-04  8.75517022E-04  1.57040396E-03
  1.37613394E-03 -5.51991201E-02  2.62098445E-04 -4.44677317E-03  1.32344277E-03
 -4.68621060E-04 -1.39763999E-03  1.15229648E-03 -9.54923924E-04 -4.39025945E-04
  2.70377549E-04  7.76038549E-04 -1.32275935E-03 -6.45504187E-03  6.22028638E-06
 -1.12976152E-02 -1.57052761E-02  2.18712778E-04 -2.69265118E-02 -2.33340180E-04
  2.39475727E-02  1.30763269E-06  4.05384429E-06 -1.01149620E-05  7.27734045E-06
  2.12090733E-04  6.20656882E-04 -8.81132551E-07 -7.80126980E-04 -2.99770261E-05
  4.16952774E-06  1.12277876E-05  1.68689188E-02  8.05233738E-06  5.40546998E-05
  5.91678472E-05  1.82162796E-04 -3.38999747E-04  2.02977901E-04 -7.22415369E-05
 -6.27552572E-02  3.34262888E-04 -1.02527663E-03 -9.20743045E-03  3.17256856E-04
 -8.46355208E-03  1.02106722E-03 -1.43224020E-04 -2.48576255E-04  2.18753497E-04
  7.21785147E-04 -2.01338507E-03 -9.15632502E-04 -1.29357563E-03 -6.21437904E-02
 -8.45932807E-04  3.06427972E-04 -1.00088223E-02  2.57831588E-04  8.08438824E-03
  5.84622088E-04 -3.87393615E-04 -3.82551862E-04 -1.61907731E-06 -5.22395357E-06
  1.43394238E-05 -8.42320733E-06  1.86451779E-03 -3.64686114E-05  4.76693368E-05
 -1.50617966E-03  6.24694591E-05  2.60432080E-06 -5.04494506E-05  1.60713760E-02
  1.57062410E-03  3.42379842E-03 -3.19352298E-03  3.23652145E-02 -2.47508731E-04
 -1.57603450E-03 -2.98954113E-02 -5.12802904E-04  4.00041414E-04 -1.56123696E-02
 -1.08334224E-04  2.65414298E-05 -3.28983067E-02  3.61343315E-05 -8.37631644E-03
 -2.79482625E-02  8.73840168E-02  3.80988340E-02 -3.40971179E-03  2.91311695E-04
  4.98148278E-02  6.61774226E-02 -5.62340297E-04  6.37467518E-03  1.86012463E-04
 -2.59709530E-04 -2.14478457E-02  2.56321496E-02  1.32758241E-02  4.32154558E-02
 -1.17355006E-01 -1.16713780E-01  9.84712364E-03  1.62296079E-03  1.07512155E-01
 -7.40436124E-02 -1.28461065E-04  1.28362973E-02  5.51146268E-05 -5.95187069E-04
  5.42755902E-02  4.48048310E-02 -2.19654492E-03 -6.32164321E-03  1.12117934E-02
  2.13757487E-01  2.49700277E-04 -3.61393053E-03 -6.22109750E-02  4.97476448E-04
 -1.90969780E-04 -1.05321743E-02 -4.25882846E-03  2.71195632E-07  1.60264698E-01
 -2.49033092E-06 -7.57376867E-06  3.34683609E-05 -1.97202476E-05  1.25803415E-02
 -2.17818661E-05 -3.43938614E-05  1.05522961E-01  1.50636889E-05  3.17002204E-05
  3.03988921E-07 -2.76576633E-04 -3.74926965E-06 -2.13514311E-02 -4.76907295E-03
 -1.58811069E-02  3.88950949E-02  5.42300143E-02  7.00636334E-03  9.09893961E-04
 -5.06928588E-02  7.28297864E-02 -6.33691887E-06 -1.01003794E-02  1.15168838E-04
  1.00018722E-04  2.37168055E-02  6.53760591E-03 -1.42999613E-02 -4.74344272E-02
  1.34466016E-01 -8.34209818E-03  6.44022488E-02  5.70492159E-04 -1.64288192E-02
  4.44859317E-03 -5.04098465E-04 -1.03709676E-02  1.32947356E-04 -4.78485792E-04
  2.17121122E-02  1.65953631E-02  1.62139574E-05  5.40255851E-05 -1.97602049E-04
 -4.85178690E-04 -1.18923153E-01 -3.57637971E-06  4.14209884E-04  3.36583388E-02
  2.40268442E-05 -2.26790310E-05  6.77101455E-06 -2.63448642E-03 -3.23522029E-04
  7.10109846E-02 -4.93112694E-04 -1.71017612E-03  6.84431813E-03  2.00156682E-03
  2.84031534E-03 -2.08630830E-05 -1.25587982E-02  1.00999267E-02 -6.14475353E-05
 -1.07981007E-03 -2.89097722E-05 -2.51365455E-06 -5.20514125E-03 -5.34394750E-03
 -3.86342570E-04 -1.21589758E-03  2.89873100E-03  1.39332847E-03  2.64163123E-03
  3.16444043E-05  6.71080609E-03  1.48379042E-02  1.14732226E-04  1.14086785E-03
  2.76862459E-05  2.52644587E-05 -1.09264385E-03  2.29572453E-03 -4.92184555E-04
 -1.69675453E-03  6.73117286E-03  5.05400347E-04  4.75003570E-03  2.96542454E-05
  1.79484632E-02 -4.35869526E-03 -3.79889837E-04 -5.60705417E-04 -1.87464775E-05
 -1.38492468E-04  7.43220453E-03  2.99075774E-03  1.48661494E-03  5.23653125E-03
 -1.27224906E-02  1.29064742E-02 -2.42023067E-02 -6.43142108E-05 -2.24106548E-02
  1.24763686E-02  4.61349280E-04  8.07373290E-03 -1.66864829E-04 -2.21225197E-04
  1.33087658E-02  1.42803137E-02  1.86501924E-01 -1.65814637E-03 -6.07073505E-03
  2.60078128E-02  7.69940603E-03  1.01484745E-02 -4.08971843E-05 -3.95191128E-02
  3.97470172E-02 -2.11130616E-04 -3.10690237E-03 -9.26088599E-05 -1.19802125E-05
 -1.64106835E-02 -1.80422346E-02 -1.22281768E-03 -4.22394033E-03  1.23905397E-02
  5.23693275E-03  9.88689012E-03  9.83318595E-05  2.10146486E-02  5.32479792E-02
  3.79986264E-04  3.70097915E-03  8.70195052E-05  8.94090420E-05 -3.12351434E-03
  6.19140830E-03 -1.69715239E-03 -6.19522731E-03  2.62516132E-02  1.70089024E-03
  1.73995743E-02  8.03985270E-05  5.96459644E-02 -9.35768193E-03 -1.33635940E-03
 -1.13855505E-03 -8.89692659E-05 -4.87072525E-04  2.48984460E-02  9.41720998E-03
  5.23275063E-03  1.78900613E-02 -4.07235110E-02  4.40496372E-02 -8.39877319E-02
 -1.86143234E-04 -7.44698301E-02  4.76124060E-02  1.73886258E-03  2.69621546E-02
 -5.26368233E-04 -7.30246773E-04  4.33306183E-02  4.73506948E-02  4.48097314E-01
  1.08482103E+00  5.75394935E-03  2.27747201E-02 -1.01173681E-01 -3.90891609E-02
 -4.58191639E-02 -9.02353121E-04  9.39724764E-02 -1.56400557E-01  5.39172588E-04
  7.35528589E-03  2.66271152E-04  5.89289154E-05  4.99577074E-02  4.87855297E-02
  3.02775262E-03  1.27120406E-02 -4.70563770E-02 -2.05110906E-02 -3.87762949E-02
  5.75343840E-05 -5.46536054E-02 -1.79982171E-01 -6.90968450E-04 -7.99794464E-03
  5.87623360E-05 -3.89286476E-04  5.83987685E-03 -1.19678111E-02  6.73842793E-03
  2.62713202E-02 -1.12645086E-01 -1.22607943E-02 -7.71861908E-02  7.68247483E-04
 -1.68193636E-01 -4.09191329E-03  3.44899245E-03  2.07862047E-03  4.03331351E-04
  1.34273534E-03 -7.03941115E-02 -2.95926515E-02 -1.33807731E-02 -4.28971527E-02
  7.55751693E-02 -1.24609442E-01  2.72806634E-01 -6.65549708E-04  2.06684102E-01
 -1.70919943E-01 -4.36079867E-03 -7.32115622E-02  8.90611885E-04  2.03952071E-03
 -1.17781606E-01 -1.34068876E-01 -5.80551945E-02 -2.20149375E-01  8.15257747E-01
 -5.38190287E-03 -1.94853739E-02  8.52283322E-02  2.20203433E-02  3.41928119E-02
  2.36706299E-05 -1.83196579E-02  1.10422680E-01 -4.22469363E-04  2.82113708E-02
  6.67127939E-05  8.53889476E-05 -3.02012392E-02 -5.83311192E-02 -1.33516179E-03
 -5.01542505E-03  1.89523888E-02 -1.37722578E-02  3.20757874E-02 -2.14293769E-04
 -7.40244994E-02  4.54355729E-02  6.38991173E-04 -7.19205686E-03  7.69962597E-05
 -6.59260239E-05  4.68521026E-03 -2.05574931E-02  4.90359392E-04  1.65102529E-03
 -1.21414785E-02 -2.92107519E-03 -8.88852723E-03 -6.67297529E-05 -8.61318612E-02
  3.64578004E-02 -1.23148511E-03 -8.82502234E-03 -4.58103168E-04 -5.13407263E-05
 -2.94177102E-02 -1.42369464E-02 -1.47503053E-02 -5.12729868E-02  1.68472107E-01
 -8.51433192E-02  1.98588103E-01  7.48904769E-04  6.20053852E-03  3.60303611E-02
  3.30641055E-03  6.18047042E-04  1.54714661E-03  9.14132629E-04 -1.16941747E-01
  8.99313091E-03 -8.23714504E-04 -3.10747047E-03  2.23427914E-02  5.52362308E-01
 -1.96555225E-03 -7.31883230E-03  3.04774682E-02  1.37048816E-02  1.88787016E-02
  2.41134238E-05  3.76172850E-02  3.33853859E-02 -3.76595873E-05  4.46446549E-03
 -9.58154862E-05 -1.90400153E-04  7.41728001E-03 -6.34737247E-03 -2.64688773E-03
 -9.89132170E-03  3.88733456E-02  3.18077695E-02  1.91495974E-02  2.06802834E-04
  8.03302398E-03  3.03102748E-02 -3.77245887E-04 -7.79415484E-03 -2.73222861E-05
  9.53178770E-05  8.57120171E-03 -1.12846295E-02 -4.80794083E-03 -1.75971096E-02
  7.78624545E-02  9.53135984E-03  5.54162534E-02 -2.01664457E-04  4.74906081E-02
  1.45004968E-02 -4.97528289E-05  2.07622883E-02  1.71015199E-04 -4.76654898E-04
  5.63784953E-02 -3.21308319E-03  2.34724866E-02  8.11897872E-02 -2.65208165E-01
  1.81427595E-01 -3.02215392E-01 -5.00735707E-04  7.86535845E-02  7.82552516E-02
 -1.83905521E-03  3.02812046E-03 -1.37882870E-03 -1.30931353E-03 -1.12326463E-02
  6.42623529E-02 -3.44008328E-03 -1.18270695E-02  4.93654864E-02  1.88497419E-02
  5.45462889E-01  4.50111033E-06  2.60545270E-05 -2.83596521E-04  2.80305918E-05
  2.63126179E-04 -6.95406595E-02 -7.77077712E-04 -1.59016844E-03  1.49167689E-02
  4.26304815E-04  1.17646140E-02  6.57551284E-02  9.02745619E-05  9.07277712E-05
  1.14739103E-05  3.74082461E-05 -1.71242734E-04  4.66969747E-04 -2.46372970E-04
 -1.49888829E-01  2.03457456E-03 -1.91734298E-03 -2.67067457E-02 -1.48050463E-04
  5.92307865E-03 -9.63737726E-03  2.77307201E-04  1.34790456E-04  2.71855396E-05
  7.06139161E-05  8.31895061E-04 -7.35040572E-05  1.98495236E-04  1.86648106E-02
 -4.30145530E-03  5.63771664E-03  3.64744655E-03  9.54634328E-04  4.18495128E-02
  2.38718650E-02 -9.95109674E-04 -3.30751162E-04  1.04390235E-04  3.62170536E-04
 -2.06710306E-03  1.96469152E-04 -8.41937810E-04  2.50459974E-01  1.91342357E-02
 -8.57075157E-04  4.86148340E-02  1.59137309E-03 -5.52848195E-02  6.17527188E-02
  1.63904750E-03 -5.25826651E-04  1.71101951E-06 -1.51265100E-05  1.06945073E-03
 -3.83717948E-04  2.64957372E-04  5.00143752E-01 -3.00473840E-03 -1.61183378E-02
  8.78747498E-02  8.59671804E-02 -5.57525206E-02  2.83882584E-03  7.29075503E-02
  1.96359599E+00  8.86535293E-04 -4.35938737E-03 -4.08921706E-04  2.22558521E-04
 -3.89089192E-02 -1.26807710E-01 -1.28590644E-02 -3.96459195E-02  7.90528025E-02
 -4.14613081E-02  4.88297520E-02 -2.71075438E-03 -1.26419793E+00  1.21916966E+00
 -3.75308208E-03  5.43693362E-02 -1.23693163E-03  8.36385936E-04  4.21726523E-02
 -1.23111177E-02  1.80210516E-02  5.98816533E-02 -1.68552375E-01 -8.53560696E-02
 -4.87011968E-02 -3.65612047E-03 -1.06252036E+00 -9.77293160E-01  6.67718480E-03
 -1.84142043E-03  8.59005147E-04  1.68853638E-03  7.08956195E-02  1.20718600E-02
  6.57509933E-03  2.81057554E-02 -1.12953631E-01  1.87638335E-01  2.88561331E-02
  8.44625597E-03 -3.30692574E-02 -1.48918597E+00 -1.20858991E-02  2.02683049E-02
 -6.98341101E-05  8.26605889E-04  1.06850140E-01  1.56838277E-02  1.04891244E-02
  3.70097977E-02 -1.25292896E-01 -7.85240233E-02  3.21068831E-02 -4.47173638E-03
  1.42047117E+00  1.50590577E-02  4.75144885E-02 -1.17847952E-01 -3.58779171E-03
 -4.65941974E-02  4.17869252E-03 -1.22479552E-01 -1.36841807E+00 -4.01621856E-04
 -2.63097388E-03 -6.49892871E-04 -6.68388696E-06 -6.01517604E-02  5.09231308E-02
 -4.75973941E-03 -1.79120598E-02  8.40813752E-02  1.69976614E-02 -1.19376943E-02
 -5.31403113E-03  1.02364901E+00 -7.70976968E-01 -1.97321197E-03 -1.85311015E-02
 -1.95286595E-03  4.45601803E-04 -5.63170351E-02  3.75282437E-02  4.41758909E-03
  9.57435838E-03  3.20606441E-03 -3.71796472E-02  1.35362014E-02 -6.13867438E-03
  9.79825836E-01  6.18857784E-01  2.30501467E-03 -6.22131477E-03 -6.63820195E-04
  1.17794630E-03  2.50930613E-02  3.03574975E-02 -9.10203543E-03 -2.83163633E-02
  8.74004515E-02  8.61351115E-02 -2.49198909E-02  1.78909358E-02 -2.45202024E-01
  1.14994822E+00 -8.24641647E-03  3.09019425E-02  4.68135803E-03  2.73038827E-04
  7.56941001E-02  3.94582386E-03  3.05467943E-02  1.03407996E-01 -3.06918960E-01
 -7.21274240E-03 -1.15696145E-01 -5.47473117E-03 -8.66051584E-01  9.30204712E-01
 -3.28873901E-04 -1.18623822E-03  3.44867910E-03  1.86655980E-03  7.86358391E-05
 -1.71804051E-02  3.65918091E-03 -3.97561809E-03  2.84976258E-03 -7.33556133E-04
  7.95331104E-04  1.02188496E-02 -1.45833541E-03  1.65325376E-04 -4.47006396E-04
 -1.60846824E-03  5.07661775E-03  9.37039406E-04  7.09864075E-04 -3.34290341E-02
  5.00955984E-03 -2.33406500E-03 -9.14959825E-03 -1.00351892E-03  6.09968224E-04
 -2.21429692E-03  1.06868384E-04 -3.11539687E-04 -3.77476399E-04 -1.32655420E-03
  3.40800124E-03 -1.21535525E-03  4.60287001E-05  3.78898862E-03  7.67128234E-03
 -1.69309773E-03  1.10692578E-02 -2.02917692E-03  9.12560867E-03  9.77399270E-03
  1.44096854E-03  1.14950371E-03 -3.82302410E-04 -1.36018249E-03  4.28217781E-03
  2.97823960E-03 -6.72874902E-04  8.33743232E-02 -8.29305817E-03  3.39367241E-03
 -8.01032615E-03 -1.13368417E-03  1.44882827E-03  9.71117853E-03 -1.18955153E-04
  4.76500312E-04 -1.82616522E-04 -6.54632860E-04  1.33601978E-03 -1.61189404E-03
  7.98889767E-05  8.01805130E-02  2.11071240E-03  6.00191831E-03  2.33180924E-02
 -5.81886369E-05  5.27325742E-04 -2.12054669E-03 -1.18606529E-02 -1.79598712E-02
 -6.60395199E-04 -8.27351783E-03  3.79172318E-02 -3.03445045E-04  3.36643302E-03
  2.05478678E-05 -1.24723350E-04  1.54425889E-02 -1.20174182E-02  4.15015143E-04
  9.71869318E-04  1.91455548E-03  7.98391494E-03  9.59850726E-03  9.40149884E-04
 -2.12277380E-02  1.91513336E-02  9.66062353E-04  4.99158417E-03  3.89180985E-04
 -5.48441680E-05  4.38733596E-03 -8.51802949E-03 -5.60149027E-04 -1.13723563E-03
  2.05769167E-03 -8.82159076E-03 -2.05318360E-02  9.31232176E-04 -2.09959700E-03
  6.02822989E-03 -2.04046261E-03  6.59355943E-03 -1.84372103E-04 -5.78398307E-04
  5.77844223E-03 -9.95432777E-03  5.40766586E-03  1.79711263E-02 -4.90244628E-02
  2.05893561E-02 -9.72515400E-03 -3.28408915E-03 -1.97040438E-02  5.97021933E-03
  4.06165887E-03  1.04616493E-02 -4.71282320E-04 -2.57778863E-04  1.29389786E-02
  1.04731038E-02  7.59372661E-03  2.66173198E-02 -7.93338049E-02 -2.60058316E-03
 -1.00975000E-03 -1.81194987E-05  1.53407458E-02  1.66780420E-02 -2.02709154E-03
  1.83232929E-02 -6.41054666E-05 -2.31744995E-04  6.98158782E-04  4.89246719E-04
 -3.41979887E-05 -4.39863906E-02  9.07733735E-04 -6.84209584E-04  5.79672774E-04
  4.49612049E-05 -1.38943598E-03 -8.43149119E-03 -1.62872485E-04  1.54582146E-05
 -7.85417861E-05 -2.93900152E-04  1.03713064E-03  2.48527778E-04  3.08046516E-04
  1.26020052E-02  1.07391577E-03 -5.42115905E-04 -1.77925259E-03 -2.97130314E-04
  8.52484180E-03 -5.58584873E-03  5.88920232E-05 -2.22383615E-04 -2.01680382E-05
 -9.38349524E-05  4.19376462E-04 -4.65873065E-04 -1.76328091E-04  4.14682667E-02
  7.38914769E-04  6.16740305E-04  9.13935445E-03 -1.79855181E-04 -1.92167054E-04
  2.58661229E-03  9.40372704E-05 -8.49234259E-05  9.46727561E-05  2.52490788E-04
 -4.76493759E-04 -1.76460557E-04  2.58673553E-04  2.36174720E-02  7.30635678E-04
  7.30742796E-04 -4.20340432E-05 -2.29064739E-04 -1.29054634E-03 -8.10009091E-03
  2.90278856E-05 -1.19619179E-04 -3.95282574E-05 -1.81113342E-04  8.50798293E-04
 -2.34805871E-06  1.76334778E-04 -2.16711085E-02 -2.30308297E-04  1.67701949E-04
 -1.00499938E-03 -9.31450969E-05  8.00923664E-03  6.71045304E-05  2.40256009E-04
 -6.54569652E-04 -3.85175631E-04  3.97254852E-05  1.87544474E-02 -1.20239384E-03
  7.93438439E-04 -1.45541072E-03  8.50967123E-05 -1.20185671E-04  2.48287773E-04
  1.80122039E-04 -2.75808373E-05  9.56424027E-05  3.46908609E-04 -1.11538406E-03
 -2.62013247E-04 -2.48085972E-04  8.96883071E-04 -6.28896237E-04  6.04983416E-04
  3.06326126E-03  3.01779236E-04 -3.90030796E-03  2.52238478E-03 -1.40826091E-04
  7.55092253E-05  1.37890746E-04  4.84381718E-04 -1.33508821E-03  5.17009106E-05
 -4.62645028E-04 -2.35576392E-02 -1.71237941E-03  1.14169323E-03 -9.74502381E-03
  5.67931915E-04 -2.78728177E-03 -5.38838597E-03 -1.97243865E-04 -2.50226714E-04
 -4.36277431E-05 -3.25636578E-05 -4.50550683E-04  2.62504916E-04  3.93329000E-04
 -4.68990236E-02  3.81223775E-03 -9.48645289E-04  4.37544254E-03  4.07532603E-04
 -1.02843513E-03  4.22213526E-04  5.82778996E-04 -4.80953036E-04  7.06026257E-05
  2.73363324E-04 -8.33964317E-04  2.46902723E-04 -3.33694355E-04 -2.07270117E-02
 -2.18738419E-04 -1.76953927E-03 -9.26067835E-03  5.51841612E-04 -3.08533866E-03
  5.46873250E-03 -2.04876852E-03 -7.44888291E-03  1.83873186E-02  2.40203869E-02
  2.21289573E-02  4.72607106E-04 -2.10830698E-02 -6.70185482E-02  2.52804585E-04
 -1.61713929E-02 -1.28989175E-04  8.85543327E-05 -2.63398017E-02  2.23046932E-02
 -1.13558219E-03 -3.26773433E-03  7.01497343E-03 -2.42394272E-03 -1.02777856E-02
 -9.85351195E-04  7.33083297E-02 -2.42398499E-02 -9.36420899E-04  4.14008332E-03
 -3.90504550E-04  6.40157008E-05 -2.38500046E-02  3.77613408E-03  7.41970508E-03
  2.48586428E-02 -7.02743030E-02 -2.94407543E-02 -5.60454552E-02 -1.00005573E-03
  7.13947555E-02 -2.48936330E-02  1.45635793E-03  5.75769350E-03  9.27701729E-05
  1.98591098E-04  1.72910399E-02  7.74937116E-04  6.26068196E-03  2.07715557E-02
 -5.80608583E-02  8.64127619E-02  2.56167719E-02  1.29952932E-03 -1.55973127E-02
 -1.59107550E-02 -3.69021255E-03  3.51788133E-03 -9.53275712E-04  3.78057346E-04
  5.43240190E-02 -2.17918892E-02  2.39441570E-04 -4.43936681E-04  6.15028539E-03
 -1.07281327E-01 -6.94592948E-03 -5.21050893E-04  4.11039575E-02  2.66279604E-02
  1.38536933E-03 -5.34702359E-03  2.31669952E-05 -5.36672424E-05  5.10121601E-02
 -6.83883006E-03 -2.21830309E-02  6.57566631E-02  1.35871359E-02  4.79956574E-02
 -1.11780304E-04  5.27637700E-02  1.03270944E-02 -2.69523017E-04  7.07285384E-03
  6.89427261E-05 -6.78199209E-05  3.57863393E-02  5.74512527E-03  3.74246740E-03
  1.14332661E-02 -2.81599919E-02  1.44958383E-02  1.14891628E-02  6.59379749E-04
 -1.29092522E-02 -6.66175103E-03  7.67504315E-04 -3.58179094E-03  2.78986827E-04
  4.21675068E-05  3.35948412E-03 -2.39237444E-02 -2.99675773E-03 -9.43352645E-03
  2.96044552E-02  1.43425975E-02 -3.06885610E-03  3.00231014E-04 -1.23135347E-02
  3.02852984E-02 -1.16246357E-03  1.00391760E-02  7.27669890E-05 -2.60078679E-04
 -7.38756270E-04 -3.02851409E-02  1.49424717E-02  4.92994860E-02 -1.39693656E-01
 -2.29016247E-02 -6.99502662E-02 -1.74121717E-03  6.37399960E-02  7.45523522E-03
  2.01790525E-03  1.26260561E-02  4.26302512E-04 -3.74013191E-04 -4.49462608E-02
  1.66669238E-02 -2.85594007E-03 -7.37515478E-03  1.34932455E-02  1.80312953E-02
  1.24012044E-01  5.52029234E-04  7.16268027E-03 -9.07056753E-02 -1.11141499E-03
  7.20131490E-03  4.85810178E-05  6.57595855E-05 -1.77609571E-02  7.26788942E-02
  1.61100797E-03  5.65040678E-03 -1.34373027E-02 -1.19038084E-02 -2.43820285E-02
 -3.31610035E-05  7.37820175E-03  1.59096797E-02 -9.86909266E-05  6.88724376E-03
 -5.05678938E-06 -1.81492014E-05  1.62743023E-02 -1.30536523E-02 -4.85542481E-04
 -1.69441912E-03  7.15290779E-03 -7.45617288E-04  4.80904565E-03 -9.21704641E-06
 -2.47071136E-02  4.57783518E-03  1.45396163E-04  1.03274408E-04  4.04772958E-05
  1.01832488E-05  7.20706470E-03 -4.64486931E-03 -3.86430924E-04 -1.22269133E-03
  3.01865929E-03 -1.31961191E-03  2.63759392E-03  8.70666061E-06 -1.30590494E-02
  4.67119713E-03 -4.53468307E-04  4.19587863E-04 -8.00356746E-05 -9.74582602E-05
 -1.13444993E-03 -3.73625369E-03 -4.57199901E-04 -1.58582074E-03  6.19783446E-03
 -3.19136148E-03  2.79658394E-03  3.02328427E-05 -8.80081892E-03  5.55647368E-03
  9.75692404E-04  8.28722372E-04  1.82161350E-04 -6.12957958E-05 -8.37833804E-03
  4.79090398E-03  1.62429100E-03  5.75064583E-03 -1.43378253E-02  2.86528283E-02
  6.70565227E-05 -4.56974889E-05 -2.51656261E-03 -4.97091181E-03 -3.92724747E-04
  6.84673390E-03 -6.70444150E-05  8.41634916E-05 -1.65545323E-02  5.72715909E-03
  1.86615278E-01  5.68680045E-03  1.94206776E-02 -4.36732655E-02 -4.05375249E-02
 -8.46366562E-02 -1.03780804E-04  2.17272412E-02  5.58320432E-02 -3.70792538E-04
  2.27593928E-02 -2.08108668E-05 -5.81797561E-05  5.37355590E-02 -4.28195657E-02
 -1.69470327E-03 -6.21088530E-03  2.76422217E-02 -2.63902907E-03  1.74854066E-02
 -3.90533997E-05 -8.05869862E-02  2.03212639E-02  5.25371045E-04  1.29620262E-03
  1.34511795E-04  3.97430250E-05  2.38883413E-02 -1.51244563E-02 -1.21666888E-03
 -4.22509611E-03  1.26866380E-02 -4.96231463E-03  9.86120233E-03  2.76981018E-05
 -4.03591371E-02  1.75946531E-02 -1.63056322E-03  9.87796723E-04 -2.97724841E-04
 -3.52648426E-04 -3.26370340E-03 -1.14123144E-02 -1.59088033E-03 -5.77268272E-03
  2.37778011E-02 -1.17688284E-02  1.00186410E-02  1.32678903E-04 -3.88987888E-02
  2.69973179E-02  3.51706783E-03  3.82650180E-03  6.43595927E-04 -1.88929450E-04
 -2.79649259E-02  1.59570126E-02  5.75462912E-03  1.97365317E-02 -4.57787437E-02
  9.91494269E-02  2.06898357E-04 -1.61806232E-04 -1.48222480E-02 -5.70492589E-03
 -1.44645992E-03  2.28639950E-02 -2.29678850E-04  2.99529056E-04 -5.44005034E-02
  1.89907202E-02  4.48496398E-01  1.08626348E+00 -1.50443589E-02 -4.85679085E-02
  8.89161836E-02  1.10766167E-01  2.77215242E-01  2.90380189E-04 -4.17546809E-02
 -1.48108195E-01  1.29412092E-03 -6.05157468E-02  7.40342130E-05  1.52607046E-04
 -1.45169375E-01  1.17116599E-01  7.15698733E-03  2.76518867E-02 -1.21819946E-01
  1.85115246E-02 -7.69377433E-02  1.53231903E-04  1.91223351E-01 -7.14275344E-02
 -1.65017026E-03 -5.28243874E-03 -3.81076146E-04 -1.10786103E-04 -6.24365765E-02
  4.46071383E-02  2.91044325E-03  1.24249451E-02 -4.70745174E-02  1.87969242E-02
 -3.88597663E-02 -1.40283649E-04  8.11974689E-02 -8.31262782E-02  5.12513207E-03
  1.85691405E-03  1.04281999E-03  1.13018055E-03  7.00379850E-03  2.81170777E-02
  6.16774107E-03  2.36670530E-02 -9.84664729E-02  5.17710374E-02 -4.67952381E-02
 -5.70128757E-04  1.59221232E-01 -1.53310707E-01 -1.11985907E-02 -1.42032314E-02
 -2.02493156E-03  3.55282963E-04  8.75945827E-02 -3.91760322E-02 -1.42728091E-02
 -4.54330050E-02  7.61150850E-02 -3.16825121E-01 -2.01244077E-03  4.55764597E-04
  1.10303618E-01 -5.52160981E-02  4.77286239E-03 -6.06733038E-02  6.21821304E-04
 -9.07380762E-04  1.50596176E-01 -5.61005300E-02 -5.96139843E-02 -2.26062648E-01
  8.41668578E-01  1.58193634E-02  5.51051836E-02 -1.80589378E-01 -6.07051551E-02
 -1.98194303E-01 -3.51601917E-04  8.60030762E-02 -7.36064849E-02  1.83589861E-04
  5.31798902E-03 -2.79053642E-06 -6.51931154E-05  1.09740897E-01  2.38157758E-02
 -7.35463819E-04 -2.60651744E-03  1.84847994E-02 -1.58547787E-03  8.42276824E-03
 -7.94186206E-05 -5.71786982E-02 -7.99519425E-02 -4.82470865E-04  7.12253775E-03
  3.62376759E-05 -4.60331213E-05  2.61850327E-02 -8.20034522E-03  1.40740031E-03
  5.28380125E-03 -2.06487062E-02 -1.37955255E-02 -3.17744800E-02  3.78985044E-04
 -4.15101106E-02 -1.74561884E-02  9.26406908E-04  8.00705753E-03  2.50717569E-04
  2.65035259E-04 -2.48287117E-03 -1.44286506E-02  4.88150413E-03  1.76953392E-02
 -8.15767573E-02  3.83887941E-02 -3.62039986E-02 -2.00770734E-05  1.28508804E-02
 -7.91718777E-02 -1.22326960E-03 -3.30058062E-02 -5.10053289E-04 -1.58286108E-04
  3.81435807E-02 -5.45578635E-02 -2.90661804E-02 -1.00496175E-01  3.18192878E-01
 -4.05861385E-01  1.46836560E-04  8.55382044E-04  7.33046465E-03 -1.19733606E-01
  5.02513630E-04 -5.84428140E-03  1.01930364E-04 -3.16576725E-04  4.82026043E-02
  6.58392927E-03  6.11713430E-04  2.37068785E-03 -2.09884396E-02  5.72862797E-01
  2.42720405E-02  8.39743963E-02 -2.72301595E-01 -1.80124153E-01 -3.04839197E-01
 -6.05673957E-04 -8.28315134E-02  1.36313928E-01  3.48295831E-05 -1.46828485E-03
  2.65174055E-05  1.17099365E-04 -1.38938921E-02 -6.35642076E-02 -4.86240231E-03
 -1.76679409E-02  7.75449269E-02 -8.95976328E-03  5.34814786E-02 -1.95274527E-04
 -8.99827600E-02  3.00274423E-02 -6.32379466E-05  2.35582214E-02  7.12271803E-05
 -4.37669293E-05  5.53700116E-02  6.52195957E-03 -2.65481425E-03 -9.93048897E-03
  3.88637685E-02 -3.21016309E-02  1.91664265E-02  3.34300598E-04 -4.92013157E-02
 -1.21303466E-02 -6.68111509E-04 -9.74982648E-03 -2.91816210E-04 -2.39186236E-04
  1.03421759E-02  1.17656485E-02 -2.31478010E-03 -8.37327850E-03  3.18449333E-02
 -1.68852689E-02  2.09202527E-02  2.14681060E-04 -8.91099719E-02 -9.25370509E-03
  2.06506750E-03  7.72775739E-03  3.97429528E-04 -1.06526947E-04  3.62869661E-03
  7.08699700E-03  6.37816221E-05  2.10158827E-04 -2.89332001E-03 -1.32056363E-03
  2.65540495E-02 -5.67259769E-04 -2.74316500E-02  1.55933100E-01 -7.11463146E-04
 -4.16114717E-03 -2.19788528E-04  1.61069088E-04  2.23162612E-03 -1.03998474E-01
 -3.66617367E-03 -1.25434010E-02  5.24840906E-02 -2.23075743E-02  5.71204210E-01
  1.34880212E-05  4.93798702E-05 -1.71238392E-04 -1.39058142E-04 -5.08616670E-04
  2.57935983E-01 -1.80088274E-04 -1.84668343E-03  5.99470919E-03 -3.14585817E-04
  1.55579142E-02  6.52749085E-02  1.53391002E-04 -1.34295853E-04 -1.27641709E-05
 -5.21355002E-05  2.10567728E-04 -7.07259053E-05  2.99796847E-04 -5.99471952E-02
  1.63684045E-03 -3.04001104E-03  1.13346843E-02 -1.57755515E-04 -3.82796647E-02
  3.02817487E-02  3.17255999E-04 -1.74084667E-04  3.36625852E-05  1.03769090E-04
  6.86221817E-05 -1.91124359E-04 -1.58232682E-04 -1.48338158E-01 -2.72782000E-03
  5.33746028E-03 -3.37214851E-02  9.37884472E-04  1.29059713E-02  7.72307060E-05
 -1.00554815E-03 -6.82936470E-04  9.91720696E-05  3.48103573E-04 -1.54952532E-03
 -1.72170717E-03  3.88887370E-04  2.31024106E-02  1.36285376E-02 -5.97946146E-04
  2.07206689E-02  4.09170810E-04 -1.89349029E-02  6.28236019E-02  3.12556493E-04
 -8.86001638E-04 -4.50418925E-05 -1.66192858E-04  9.25253243E-04  6.00087457E-04
 -7.10844877E-04  3.40948231E-01 -3.58059587E-03 -3.99011210E-03  4.46744227E-02
 -3.97974419E-06 -5.10469764E-02  3.53080697E-03 -4.64088776E-04  3.70144554E-04
 -3.91372818E-05 -1.32748675E-04  3.41456208E-04 -2.18341998E-04  2.29988042E-04
  4.35793801E-01 -1.13561826E-02 -4.51155361E-02  1.68079708E-01  1.75630676E-01
 -6.18663005E-02 -1.29703872E-03  1.33332718E-02  2.23657937E+00  1.16989988E-03
 -1.98135334E-02  1.25981893E-04  1.86426739E-04 -1.23758776E-01 -1.60174247E-01
 -2.45059113E-02 -7.98759220E-02  1.89052976E-01 -5.69921168E-02  9.06334224E-02
  1.59896646E-03 -1.39212855E+00  1.38928931E+00 -1.88574186E-03  2.58544227E-02
  5.39495258E-04  1.51926230E-04  4.38506632E-02 -5.53606452E-03  6.76123171E-03
  2.11668998E-02 -5.46902876E-02 -7.32756590E-02 -8.19420391E-03  2.72606830E-03
 -1.26819749E+00 -1.02375363E+00  3.97804455E-03 -2.09667087E-02  1.21125058E-03
  5.96286263E-04  7.29028541E-02  1.26634194E-02  6.02902610E-03  2.59916905E-02
 -1.13689820E-01  5.75513703E-02  1.57938769E-02 -2.55276333E-03  1.11360709E-01
 -1.63717695E+00 -4.82199184E-03  1.09591511E-02 -3.25493789E-03 -3.28938415E-04
  4.87952089E-02  5.05558816E-02  4.23004511E-03  1.83610436E-02 -9.32210630E-02
  2.43886381E-02  6.28543471E-02  1.57918812E-03  1.49528524E+00 -1.01818565E+00
 -6.65916559E-04  2.70561039E-03 -1.25217474E-04  4.95820013E-04  1.34990100E-02
  1.78272702E-02 -1.11137117E-02 -4.23136978E-02  1.73053349E-01 -1.11304086E-01
 -4.61998416E-03  4.23514635E-04  1.73788614E+00 -3.92956614E-03 -1.17738235E-02
  3.18437308E-02 -2.38658593E-02 -5.22281571E-02 -2.47390370E-04  1.38991704E-01
  1.91533495E+00  2.99519629E-04  1.91565504E-02  2.12236794E-04 -3.87402639E-04
  8.80205977E-02 -1.45076072E-01 -4.35562819E-03 -1.95410805E-02  6.91268695E-02
  8.03370064E-02  2.93710460E-02  3.05832494E-03 -1.38699536E+00  1.13485054E+00
 -9.98386000E-05  1.70279874E-02  6.09106304E-04  3.45378001E-04  1.25536519E-01
 -4.03072110E-02 -1.47720052E-02 -5.30250676E-02  1.79501883E-01 -4.46059317E-02
  3.08378922E-02  2.38511796E-03 -1.22000820E+00 -7.69700612E-01  1.43633081E-03
 -1.85858876E-02  6.30241992E-04  5.63529739E-04  2.39458052E-02 -6.74944712E-03
  7.16046314E-03  1.92523911E-02 -3.69601080E-02 -3.89725100E-02 -6.57744113E-02
 -2.88725370E-03  1.36080869E-01 -1.33067263E+00  5.58101161E-04 -2.53133750E-02
  4.79950442E-04 -1.02087420E-03 -6.75387192E-02  7.30163247E-02 -1.23899395E-02
 -3.51174199E-02  6.49584565E-02  1.19377456E-01  1.53143130E-01 -1.77109968E-03
  1.13254246E+00 -9.96998185E-01 -2.93558200E-03  1.57180755E-02  2.90109993E-05
  1.83182918E-04 -8.46566551E-02  9.58916679E-02  2.65923604E-02  8.75101656E-02
 -2.29959225E-01  3.07649071E-02 -9.65239439E-02 -1.86023211E-03  1.29841382E+00
  1.35734263E+00  1.37754635E-04  4.90391084E-04 -1.36221926E-03 -7.28091737E-04
 -5.62026870E-04  7.78005277E-02 -1.10109565E-03  2.26968736E-03  7.03454383E-04
  3.01095438E-04  3.29569153E-03  9.22354635E-03  8.62523129E-04 -3.35156856E-04
  1.38676459E-04  4.96309552E-04 -1.53654058E-03 -4.08221664E-04  5.09191746E-05
  1.16269197E-02 -2.68627084E-03  7.43091080E-04  8.37393945E-03  2.17232067E-04
 -8.65219187E-03  8.92725344E-03  2.48126933E-04 -2.82912069E-05  9.88194900E-05
  3.22011963E-04 -4.92315571E-04  6.05199907E-04  4.00400625E-04 -2.61237310E-02
 -4.51943671E-03  1.60015804E-03 -9.17143698E-03  9.42213779E-04 -1.77684187E-03
 -2.90029932E-03 -9.26767078E-04 -7.63341711E-04  3.04469884E-04  9.76911333E-04
 -2.67657161E-03 -2.93154083E-03  9.81879033E-05 -1.89387373E-02  5.84884288E-03
 -1.63581371E-03  5.94506705E-03  4.54810233E-04 -3.69264246E-03  9.18249498E-03
 -6.11868997E-04  6.12768039E-05  8.24055794E-05  2.55625354E-04 -1.42218546E-04
  1.37277263E-03  5.17310782E-05  4.53919513E-02 -1.74441207E-03 -3.75763965E-03
  2.36754155E-03  8.70200587E-04 -1.10834996E-02  3.45286871E-03 -1.16820906E-03
  9.17933866E-04  2.51284809E-04  9.19436040E-04 -3.10261551E-03 -2.23407588E-04
  3.36113534E-05  8.39932063E-02  6.46442857E-04  2.14608507E-03  1.90126867E-02
  5.70163464E-03  1.90766893E-02 -4.96271434E-02 -2.43936714E-02 -7.89650925E-03
 -2.83864227E-04 -7.63495881E-03 -6.12258516E-02 -2.97363597E-04  9.43971699E-03
 -1.19363659E-04 -1.94729278E-04  2.01985576E-02 -2.99002837E-03  9.94394265E-05
  1.28240367E-03 -5.26450019E-03  7.06302165E-03 -2.34158855E-02 -1.86102087E-04
  2.49597292E-02 -1.65323041E-02  2.24598250E-04  7.31587319E-03 -4.99641913E-06
  4.49461596E-05  2.71877774E-03  6.33406068E-03  1.13256517E-03  3.67168213E-03
 -7.90578758E-03 -7.12539657E-03  7.56426817E-03 -1.70148946E-04  5.36427092E-02
  1.84381554E-02 -9.95306763E-04  4.97859484E-03 -2.96651837E-04 -3.03841286E-04
  4.12382706E-03  3.53752269E-03  7.84944495E-04  3.57506899E-03 -1.15427768E-02
  1.48613503E-02 -1.84824511E-02  7.98922020E-04 -6.83306583E-02  7.78812538E-02
  1.84225688E-03  1.32709467E-02  4.44508094E-04 -3.24122061E-04  6.38349869E-03
  1.00355697E-02  7.74391034E-03  2.61756659E-02 -7.19229171E-02  8.08190976E-03
 -1.93335609E-03 -1.33230644E-03 -4.31582406E-02  7.06665361E-02 -8.50719376E-04
  1.38231508E-02 -1.05312959E-04  2.05211108E-04 -1.03291486E-02  3.79325468E-03
  8.47772857E-03  2.98508955E-02 -9.11133798E-02 -2.15149007E-03  2.65725886E-05
 -1.43421564E-03 -7.73142871E-02 -3.17535811E-02  4.49677199E-05  2.34151596E-02
 -1.26630923E-05 -3.77273593E-05  9.94951741E-05  7.44235778E-06  3.09852831E-04
 -4.75278947E-02 -2.02942118E-04 -2.85541148E-04  2.22562944E-03  2.29559521E-04
 -1.55531667E-04  8.86510425E-03  1.33476211E-04  3.97210219E-05  4.32356500E-05
  1.43345269E-04 -4.07498073E-04  4.49982418E-05 -2.99234627E-05 -3.85003679E-02
  3.33237700E-04 -4.54481194E-04 -8.75932018E-03 -5.05121514E-06  4.11287865E-03
 -5.67541337E-03  3.63396352E-05 -5.96097200E-05  2.90747169E-05  9.15067047E-05
  5.33188758E-05  8.74378302E-05  3.58179763E-05  6.02197311E-03 -1.41741520E-03
  1.82295269E-03  6.38787050E-04  4.00268918E-04  8.57055518E-03  3.92171903E-03
 -3.86128316E-04 -2.93893736E-04  1.22147958E-04  3.90385272E-04 -1.18312281E-03
 -7.88340537E-04 -2.70480218E-05  3.94989184E-02  5.30991930E-03 -9.74805961E-05
  9.63156180E-03  3.77671163E-04 -1.03301689E-02  8.35265992E-03  1.76621749E-04
 -9.19362236E-05  3.17822706E-05  8.69250466E-05  1.59437515E-04  4.24839242E-04
  1.05501862E-04  7.11698799E-02 -1.45347658E-03 -1.83727084E-03  1.09859192E-02
  2.41767052E-04 -7.31365256E-05 -3.49630365E-03 -3.45486269E-04  3.73457162E-04
  2.05132921E-05  7.76845825E-05 -2.91241980E-04 -2.91821929E-04 -3.02296755E-04
  2.83159185E-02  2.77801303E-04  2.35489362E-05  1.12600462E-03 -1.60755877E-04
  1.29291071E-02 -3.31615544E-05 -1.14611736E-04  3.13993164E-04  2.19051647E-04
  1.23874226E-04 -6.63089787E-02 -1.32678464E-04  1.00586158E-03  3.33014491E-04
  1.05937482E-04 -7.05433581E-04  1.35654548E-03 -1.69906184E-04 -5.64426056E-05
 -1.78080586E-05 -6.64842633E-05  1.84539800E-04  3.70382040E-05  3.56249819E-05
 -2.99350049E-02 -4.31131307E-04  6.24386659E-04 -8.99337852E-03 -5.94796828E-05
  5.85921702E-03 -7.54218068E-03  3.92752050E-05  2.32577280E-05 -2.88043633E-05
 -1.03253097E-04  4.37035298E-04  6.24292524E-05  1.02784854E-04  1.05829551E-02
 -1.11341961E-03  2.41312940E-04  2.45048854E-03  3.24385695E-05  5.53763161E-03
  2.49639670E-03 -4.83213422E-05  5.77588113E-05 -1.16157728E-05 -5.87251916E-05
  2.15023679E-04 -7.79748448E-05 -6.71965037E-05  2.19294654E-02  2.26213592E-03
 -6.91476039E-04  4.19684300E-03  2.08389789E-05 -4.63857061E-03  6.84485504E-04
  2.72764947E-04  1.15650434E-04  1.05430123E-05  2.63802226E-05  6.74390397E-05
  9.49668975E-05 -8.95429601E-05  1.58890756E-02  7.93842331E-05 -1.12929259E-03
  3.11354295E-03  5.21137909E-05  4.78151849E-03 -2.53102678E-03 -9.21982565E-05
 -1.46239947E-05 -1.59559514E-05 -6.35319161E-05  2.40546874E-04 -1.67083279E-04
 -1.22365456E-04 -2.44448813E-02  9.95259795E-04  6.28276176E-04 -8.24719627E-03
 -8.96346833E-05  6.49046582E-03  7.94121991E-03  8.63556867E-03  2.88334487E-02
 -8.14599400E-02 -6.54304212E-02  2.05545468E-02 -1.29700853E-04  7.20367973E-02
 -1.69381867E-01  5.40423286E-05  1.30502987E-02  7.52243120E-05 -3.70608986E-05
  5.72164789E-02  2.85155336E-02  7.19148762E-03  2.38373377E-02 -6.22779119E-02
  2.61898173E-02 -5.50047874E-02  2.97377419E-04  4.47227469E-02 -1.26520509E-01
  1.72800456E-04  2.62688750E-03  5.45519565E-05 -3.98034847E-05  1.72438203E-02
 -1.95909518E-03 -1.10217845E-03 -3.15390675E-03  5.91429152E-03  4.62438089E-03
 -8.48157686E-03  2.89199301E-04  4.32943179E-02  5.69503041E-02  1.54032318E-04
  4.39730192E-03  5.00381626E-05  1.38788949E-04 -2.38609374E-02 -3.38932011E-03
 -1.59667167E-03 -5.95171513E-03  1.33335728E-02 -2.99246922E-02  2.05452106E-02
 -6.41099140E-04  3.71340502E-02  5.84844867E-02  1.18846619E-05 -1.77459916E-02
  2.27217623E-04  1.47794260E-04 -2.14842122E-02 -2.36911559E-02 -1.67297553E-02
 -5.50860143E-02  1.53219235E-01 -4.92195008E-02  1.35141062E-03  4.61042505E-04
 -1.02206757E-01 -1.37903056E-02  1.45478225E-04 -1.17821665E-02  1.31988849E-04
 -1.75477016E-04 -4.86623344E-04  7.20159273E-03  7.82626169E-04  1.52464251E-03
 -2.41814024E-04  1.15628105E-01 -6.74936762E-03  3.38977581E-04 -1.42684559E-01
 -4.17251085E-02  5.28619302E-05 -1.72803369E-03  6.74412466E-05 -7.39999257E-05
  6.11226881E-02 -1.38376712E-02 -4.51186948E-02  1.27921467E-01 -1.86191500E-02
  7.05452784E-02  8.90867120E-05  7.62023660E-02 -2.50119082E-02 -1.71503426E-05
 -1.70459922E-03  2.75071147E-05 -5.84234023E-05  5.27708410E-02  1.55104864E-02
  4.62977096E-03  1.50695157E-02 -4.44096190E-02  8.26111819E-03  6.39812832E-03
  1.84207791E-04  6.54426898E-03 -4.08307419E-02  2.02895857E-05 -6.48381612E-03
  4.24516990E-05  2.56520062E-05  1.80291519E-03 -3.40890681E-02 -2.31207230E-03
 -6.24845609E-03  1.21238218E-02  2.06391414E-02 -1.10881391E-02 -1.42630493E-04
  1.31147896E-02  3.81838744E-02  3.15498332E-04  8.53012150E-03  2.01632568E-04
  6.36980478E-05 -3.75974594E-03 -2.39282824E-02  8.26905171E-03  2.73473367E-02
 -8.04986722E-02  1.48912158E-02 -4.98213097E-02 -6.50538517E-04  8.80842533E-02
  5.55471925E-03 -1.20874856E-03 -3.48725998E-03 -5.76775300E-05 -2.51691644E-04
 -2.60763725E-02  6.63022993E-03 -4.43051258E-03 -1.41635232E-02  4.06587924E-02
  9.14777647E-03  1.02352650E-01  1.37218396E-04  1.12033270E-02 -9.94934305E-02
  3.13794083E-04  6.67255420E-04  1.87544919E-04 -2.17245005E-04 -8.27762102E-03
  6.29003257E-02  3.94912823E-03  1.12777003E-02 -2.39732556E-02  1.42505970E-02
 -1.30787531E-01 -7.97464844E-05  9.53590674E-04  7.98413924E-02  7.14485959E-05
 -4.11401313E-03  1.53921769E-04 -2.66701088E-06  1.79704503E-02  7.69723138E-02
  1.29463667E-03  4.40475863E-03 -1.14486045E-02  2.54019009E-02 -1.56220573E-07
 -2.57402858E-05 -1.70669944E-02 -6.99141878E-05 -4.79809217E-05  4.35687922E-03
 -2.18335348E-06 -4.23578540E-07 -2.54705582E-02 -1.18776725E-05 -3.37394677E-04
 -1.11453798E-03  1.74393690E-03 -4.07106142E-03  2.21002208E-03 -1.45140403E-05
  9.73491045E-03  1.30336651E-02  6.05855381E-05 -1.15986061E-03  8.54002008E-06
 -5.49533689E-06 -5.60760588E-03  8.43200118E-03  1.87953926E-04  6.16914049E-04
 -2.09686899E-03  3.21138543E-03 -5.69409540E-04  8.42896614E-06 -8.24068290E-05
 -9.00736912E-03 -1.52990571E-04 -1.77099793E-04 -1.41292600E-05 -3.53608499E-05
  1.28082713E-03  2.69188399E-03  2.55980854E-05  6.41579356E-05 -1.01821377E-04
  3.95591361E-04  7.31660272E-06  1.19536685E-05 -1.17748678E-02  2.30188404E-05
  2.82458280E-04  1.67714533E-03  5.82290046E-06  3.03756856E-07  1.70378011E-03
  1.16986212E-06  1.88070191E-04  6.17086745E-04 -2.09352419E-03  3.22617375E-03
  5.79320200E-04  5.60072730E-06 -1.19270991E-04  9.06519540E-03 -1.48958772E-04
 -1.77440174E-04 -1.65677300E-05  3.73349859E-05  1.28018262E-03 -2.71405580E-03
 -3.37123395E-04 -1.11348514E-03  1.74152851E-03 -4.08907265E-03 -2.16905623E-03
 -1.50221396E-05  9.70261031E-03 -1.31820507E-02  5.46685238E-05 -1.14901783E-03
  2.51004389E-06  6.73685468E-06 -5.61939230E-03 -8.42555386E-03  1.88810418E-01
  4.54230282E-03  1.54772102E-02 -4.05053674E-02  9.06447397E-02  3.36299472E-07
 -9.48552216E-05 -5.80373448E-02 -2.85723119E-04 -1.59533395E-04  1.55531386E-02
 -6.26566792E-06 -9.77795786E-07 -8.76133989E-02 -3.85981191E-05 -1.15941696E-03
 -3.91043278E-03  6.73989245E-03 -1.50410569E-02  8.26830172E-03 -5.13142347E-05
  3.45085753E-02  4.45097193E-02  1.99610536E-04 -3.83220505E-03  3.06861684E-05
 -2.06027817E-05 -1.93200769E-02  2.86044661E-02  6.78499350E-04  2.24559123E-03
 -7.77230474E-03  1.16806838E-02 -2.00181518E-03  3.06283597E-05  2.90326218E-04
 -3.03508733E-02 -5.12394067E-04 -7.54204673E-04 -4.69121684E-05 -1.20412500E-04
  4.27359966E-03  8.87218213E-03  9.54505292E-05  2.58198560E-04 -5.28228191E-04
  1.36280665E-03  2.68580779E-05  3.83106022E-05 -3.93187752E-02  1.11843804E-04
  9.43930390E-04  5.82765920E-03  1.56854159E-05  1.00862265E-06  5.68196358E-03
  4.05335632E-06  6.78875882E-04  2.24612587E-03 -7.76045889E-03  1.17347312E-02
  2.03714274E-03  2.03782851E-05  1.02842786E-04  3.05912974E-02 -4.99146295E-04
 -7.54592000E-04 -5.49897390E-05  1.27165881E-04  4.27133603E-03 -8.95199689E-03
 -1.15853018E-03 -3.90677053E-03  6.72826905E-03 -1.51057431E-02 -8.12028963E-03
 -5.35906568E-05  3.43268982E-02 -4.50784809E-02  1.78693483E-04 -3.79386558E-03
  1.02345820E-05  2.47635192E-05 -1.93545168E-02 -2.85809513E-02  4.53930568E-01
  1.10250098E+00 -8.23178002E-03 -2.81817908E-02  7.22923624E-02 -1.98391077E-01
 -2.31919299E-05  2.89900185E-04  6.82434324E-02  1.67235190E-03  1.66191232E-04
 -3.88174366E-02  9.14267736E-07 -1.30273184E-05  1.68868093E-01  2.57694921E-05
  2.39471738E-03  8.42904253E-03 -1.78849449E-02  4.11640993E-02 -2.60989372E-02
  1.06662678E-04 -8.52115999E-02 -7.67063100E-02 -1.72165129E-04  8.03088596E-03
 -7.20548386E-05  6.22307903E-05  3.47539109E-02 -4.71372745E-02 -1.70149533E-03
 -5.86905030E-03  2.22716571E-02 -3.01644316E-02  4.77264628E-03 -8.80492041E-05
 -2.08207939E-02  4.83212307E-02  4.72167629E-04  3.05413708E-03 -2.10930040E-05
  1.31930626E-04 -6.52607705E-03 -1.25224506E-02 -3.15297152E-04 -1.07503243E-03
  3.63491956E-03 -2.77988818E-03 -7.02875221E-05  1.42861903E-05  4.61680892E-02
 -1.06894814E-03 -6.18006447E-04 -9.77754458E-03  1.56858410E-04 -3.87691399E-07
 -1.08672087E-02  1.82797092E-06 -1.70190289E-03 -5.86877447E-03  2.22348940E-02
 -3.03085749E-02 -4.85439908E-03 -6.45731170E-05 -1.88934482E-02 -4.97605947E-02
  4.49260084E-04  3.04567111E-03 -1.08241390E-05 -1.39447745E-04 -6.53128269E-03
  1.27252223E-02  2.39380444E-03  8.42308549E-03 -1.78286989E-02  4.13340422E-02
  2.57480119E-02  1.20177459E-04 -8.31652920E-02  7.91080532E-02 -1.16611888E-04
  7.92136200E-03 -3.06792037E-05 -7.15537920E-05  3.47503238E-02  4.70853769E-02
 -5.19115228E-02 -1.93797038E-01  4.46254204E-01 -2.21423404E-02 -7.62221150E-02
  2.46050966E-01 -3.92928256E-01 -3.22820294E-05  3.03869745E-04 -5.41909765E-02
 -1.33031725E-03 -2.66038240E-04 -5.97164503E-02  1.95777958E-04 -3.52997997E-05
  1.57002034E-01  5.57683228E-04  4.45330429E-03  1.58123776E-02 -6.02938162E-02
  6.30677195E-02 -3.74111202E-02  1.53106182E-04 -1.08110052E-01 -2.08969890E-02
  6.71818449E-05 -5.64249770E-03 -9.04889008E-05  6.19574695E-05  3.69878554E-02
 -6.24058990E-02 -3.06438604E-03 -1.09393083E-02  4.27959036E-02 -4.73993941E-02
  6.70861767E-03 -1.04014189E-05 -5.74422892E-02  4.24708173E-02 -2.26908747E-04
  8.46873358E-03 -1.94951527E-04 -5.88900599E-05 -4.58352056E-03 -1.04923151E-02
 -7.03956584E-04 -2.76647481E-03  1.38058660E-02 -9.22768630E-03 -1.05257379E-04
  7.17086008E-05  2.12183717E-02  6.51534154E-04  9.64024377E-04 -9.05291185E-03
  2.14766652E-04  1.85980734E-06 -1.65871342E-02 -4.80733297E-05 -3.06206979E-03
 -1.09313704E-02  4.27814460E-02 -4.75560374E-02 -6.87245676E-03  3.36776666E-05
 -5.82432446E-02 -4.17063715E-02 -2.26250616E-04  8.42085976E-03 -1.89628373E-04
  4.76544198E-05 -4.55748280E-03  1.07591898E-02  4.44615930E-03  1.57889280E-02
 -6.02706285E-02  6.32570979E-02  3.67930950E-02  1.69181053E-04 -1.09712631E-01
  2.01436167E-02  1.26199982E-04 -5.48421317E-03 -5.06329548E-05 -8.55253827E-05
  3.73122732E-02  6.22538570E-02 -4.62362397E-03 -1.69251028E-02  4.38980312E-02
  6.57084767E-01 -4.05483508E-06 -1.38995954E-05 -3.20402477E-07  1.09431499E-05
  1.76168322E-02  7.31740367E-05 -9.32677750E-04  3.22890110E-02 -4.70096253E-05
 -1.54916875E-04 -1.97924648E-05  2.12529141E-05  9.37808842E-05 -8.45680867E-02
 -1.17269907E-03 -4.49800268E-03  2.29908434E-02 -9.99768779E-03  3.80063940E-04
  2.91280974E-06  4.38808810E-02 -1.01298696E-01  2.64248151E-05  5.42421821E-03
  1.60245086E-05 -2.69447562E-05 -4.91329360E-04 -1.51024685E-03  3.79729071E-04
  1.39001518E-03 -5.97200177E-03  3.14060021E-03  2.32987824E-03 -2.36406199E-05
  5.48977807E-02  6.04296022E-02 -4.11360868E-05 -3.38297456E-03 -7.95238811E-05
 -6.96256457E-05 -2.19768390E-03 -7.41325190E-03  1.70031190E-06  4.70728226E-06
  1.01356082E-05 -2.51126527E-06 -8.15405841E-04 -3.18788879E-05 -2.54401266E-04
  5.91076153E-02 -2.03868821E-06  4.39625012E-05  1.83321014E-05  1.23504766E-05
 -6.86448435E-05 -4.64699595E-03 -3.79055343E-04 -1.39156904E-03  6.04551357E-03
 -3.11974060E-03  2.32543052E-03 -4.01953563E-05 -5.57124158E-02  6.04171443E-02
  5.66925025E-05  3.40456704E-03  6.74986036E-05 -6.66394884E-05  2.26468820E-03
 -7.32922349E-03  1.17630877E-03  4.50698059E-03 -2.29343221E-02  1.00011861E-02
  2.76059988E-04  2.74003886E-05 -4.41093717E-02 -1.01295222E-01 -2.64326158E-05
 -5.36053707E-03 -3.91943905E-05 -5.14255208E-05  2.17039925E-04 -1.54174454E-03
 -4.28872959E-05 -1.51609042E-04  4.22011488E-04 -3.46634760E-04  5.65162657E-01
 -1.86453074E-05 -6.06085111E-05  1.58811074E-04 -1.09694942E-04 -1.46715182E-05
  1.91474700E-01  1.47521284E-03  1.67768199E-04  1.22795480E-02 -3.77497662E-04
 -5.84385569E-02 -3.68864458E-04 -1.56961188E-04 -9.38230935E-06 -1.12200317E-05
 -3.10675129E-05  5.65827818E-05 -5.33877837E-05  6.99585721E-05  1.67968857E-02
 -5.21169018E-04  3.06900143E-04  1.22676207E-02  2.86396629E-04 -1.21845303E-02
  2.39842985E-02 -1.85161298E-04 -2.11069387E-05  3.62319287E-06  3.05964119E-05
 -7.35365655E-04 -1.52955153E-04 -1.63153284E-04 -7.11181276E-02  3.47946846E-03
 -4.23172012E-03 -4.24158884E-03 -6.08021414E-04 -6.99201748E-03 -4.16646508E-03
  6.53972634E-04  4.54419430E-04 -1.12815007E-04 -3.81503971E-04  1.51368756E-03
  1.66293869E-03 -1.89228485E-05 -5.58302555E-02 -1.19230223E-02 -1.74743824E-04
 -2.55912856E-02 -5.32866249E-04  1.81299664E-02  1.02435876E-04 -5.86225683E-04
 -9.17856742E-06 -1.04143208E-06  1.38523311E-05 -6.68252542E-04 -1.89511520E-04
  1.90927036E-04 -7.03192184E-02  3.80115153E-03  4.07177058E-03 -4.05867316E-03
 -6.12936532E-04 -6.91197381E-03  4.35065489E-03  6.51238267E-04 -4.55443027E-04
 -7.60476431E-06 -1.81321368E-05  1.09212366E-05 -1.19797663E-05 -1.43815738E-04
  1.65535827E-02 -1.69870810E-04 -1.74345801E-04  1.24284368E-02  2.87980802E-04
 -1.19302327E-02 -2.40154267E-02 -1.86510387E-04  2.52555038E-05 -7.57157784E-06
 -2.84209010E-05  9.28835645E-05  2.84707983E-04  3.73205139E-05  6.26289420E-01
 -9.57478222E-03 -3.21923397E-02  9.24246618E-02  6.01118954E-02  1.35079485E-04
 -3.31153551E-04  1.46156693E-01 -3.87230946E-03  5.77809126E-04  6.14637312E-03
 -7.96170960E-05  4.29098802E-05  1.15290726E-02  2.18165390E-04 -3.38448453E-03
 -1.17225417E-02  3.56143766E-02 -1.90784789E-02  5.89546108E-02  7.57324386E-05
  5.92499382E-02 -4.14786164E-02 -7.27966292E-04 -9.98684673E-03  7.87747265E-05
 -1.03530240E-04  3.14952115E-03 -3.25748665E-02 -4.80733273E-05  8.63016540E-04
 -1.35684418E-02  4.99151852E-04 -1.62750357E-03  2.71395412E-04  6.58662298E-02
  4.36664486E-02  1.92435527E-03 -5.00499726E-03  4.52158877E-04  3.87584852E-04
  2.60556255E-03 -1.65838037E-02  1.08706270E-03  4.56974266E-03 -2.15336644E-02
  4.90013003E-03 -4.09178405E-05 -7.81130335E-04  1.14883735E-01  2.89178468E-03
 -4.46770407E-03 -8.95886261E-03 -8.99975468E-04 -2.82734922E-06  7.64388177E-03
 -5.93321839E-05 -5.35509107E-05  8.42803691E-04 -1.34647873E-02  4.01452357E-04
  1.62667770E-03  2.79707874E-04  6.06473140E-02 -4.05906468E-02  1.90725183E-03
 -4.98215136E-03  4.68810070E-04 -4.08720979E-04  2.64505575E-03  1.65476574E-02
 -3.37278727E-03 -1.16756280E-02  3.53425410E-02 -1.89230835E-02 -5.91690912E-02
  4.49630097E-05  5.36540212E-02  3.74691335E-02 -7.44737431E-04 -9.83860163E-03
  8.59960563E-05  1.20461539E-04  3.39918351E-03  3.26356807E-02 -1.17404431E-02
 -4.16369489E-02  6.84573225E-02 -6.02265238E-02 -3.19241251E-04  6.12048263E-04
  8.44715180E-02 -3.36393224E-05 -1.15405057E-04  3.44603138E-04  3.37736082E-04
  1.16697182E-01  8.30760938E-05  1.50376349E-03 -7.70796966E-01 -9.87688771E-05
  1.24265878E-04 -4.13788867E-05 -8.30730175E-05 -6.56614736E-05  1.03738108E-01
  7.46613121E-03  2.49189384E-02 -6.80135764E-02  2.18635877E-03 -7.44434676E-02
 -1.50740787E-04  4.77266304E-01 -3.82589980E-01  3.15362440E-04 -1.55250522E-02
 -1.09536300E-04 -8.30483075E-05 -4.17587063E-02  1.60399472E-02  2.18298389E-03
  8.16254720E-03 -2.77800306E-02  2.66641456E-02 -3.20980744E-04 -3.23887532E-04
  4.19461896E-01  2.68058291E-01 -5.38289979E-04  1.18203085E-02 -1.71672160E-04
 -1.71433364E-04 -1.62221820E-02  8.58358860E-03 -1.50293653E-05 -5.08256109E-05
  1.01371693E-04 -1.35117046E-05 -1.47235006E-02  1.56531541E-06  5.44967467E-04
  4.80077930E-01 -8.02746855E-05 -1.33495963E-04  1.19650647E-05  1.16995743E-05
  3.98014300E-05 -1.84238238E-02 -2.21053667E-03 -8.25744277E-03  2.80380351E-02
 -2.65526597E-02 -3.16806639E-04  2.61598154E-04 -4.18421394E-01  2.67926839E-01
  8.12293310E-04 -1.18854599E-02  1.40786470E-04 -1.69460196E-04  1.62502951E-02
  8.55397359E-03 -7.52480704E-03 -2.51078942E-02  6.83619227E-02 -2.27041798E-03
 -7.46168645E-02  9.81153675E-05 -4.77538585E-01 -3.81693625E-01 -5.37278596E-04
  1.52278528E-02  1.01747262E-04 -1.72613308E-04  4.18201775E-02  1.61181067E-02
  2.37459761E-05  8.38668007E-05 -2.94231620E-04  1.94468535E-04 -1.46664290E-01
  7.95399637E-05  7.49113983E-04  2.28822105E-01  1.58896525E-05  5.93117888E-05
 -1.47639226E-04  1.78633623E-04  1.86804222E-05  1.10011563E-01  1.91010130E-04
  2.97981300E-05 -3.20370339E-04 -2.22670104E-04 -3.02421920E-03 -1.78440132E-04
 -9.84585069E-05 -2.05327969E-05  1.87573933E-05  7.63765145E-05 -2.82814190E-04
 -2.04722040E-04  8.33184391E-05  3.50180371E-02 -5.76793022E-04  2.09078472E-04
  1.20548828E-02  1.63706144E-04 -1.15267678E-02  1.31450046E-02 -1.63340228E-04
  6.46347577E-05  1.12174365E-05  5.40927794E-05 -5.66082176E-04  1.73634458E-04
 -5.54051278E-05 -3.46460036E-02  1.65686522E-03 -2.55046367E-03 -4.19629881E-03
 -2.93086331E-04 -7.93289256E-03 -3.62965679E-03  2.39488982E-04  1.46299077E-04
 -3.06448663E-05 -1.05640662E-04  5.24616031E-04  4.97566663E-04 -2.73023825E-06
 -3.73271082E-02 -7.54225156E-03  4.76026568E-06 -1.26585916E-02 -2.37617175E-04
  1.22024289E-02  1.00136107E-04 -6.46657455E-04 -6.95724104E-06  7.61180216E-06
  4.15627532E-05 -5.21292267E-04  1.70556130E-04  6.39702353E-05 -3.39070261E-02
  1.64758181E-03  2.51462367E-03 -3.95754997E-03 -2.90215767E-04 -7.87702526E-03
  3.71713410E-03  2.38526371E-04 -1.33247950E-04  1.84541215E-05  7.58727882E-05
 -2.86313523E-04 -1.90501210E-04 -1.86914987E-04  3.48010236E-02 -5.64555376E-04
 -1.91975035E-04  1.19449482E-02  1.52659049E-04 -1.13499445E-02 -1.32009275E-02
 -1.71547236E-04 -4.42199146E-05  4.45349065E-05  1.54674971E-04 -2.65134746E-04
 -2.71969141E-05  9.45517907E-05  7.54726413E-02 -2.18143792E-04 -3.13589703E-05
  2.53842830E-02  4.26547781E-03  1.41060959E-02 -4.31675186E-02 -1.21016067E-02
 -1.07799051E-04 -1.40600611E-04 -1.14463195E-01  1.97576989E-03 -3.44409244E-04
 -1.33744387E-02  5.52160200E-05 -2.47033909E-05 -1.39732144E-02 -7.90214471E-05
 -2.13484253E-06  3.33521515E-04 -3.39010789E-03  1.39486702E-02 -2.38043819E-02
 -1.38648738E-05 -3.28081468E-02  2.77774385E-02  5.00044330E-04  3.67730222E-03
  2.53878641E-05 -1.66811309E-07 -9.77097958E-03  2.28827918E-02 -2.30455500E-04
 -1.28228702E-03  9.43056891E-03 -8.38815845E-03  3.02357791E-03  1.06683366E-04
 -4.68959130E-02 -2.68317928E-02 -1.32907791E-03  2.34676066E-03 -2.77684691E-04
 -2.77378475E-04  2.86132809E-03  1.01445494E-02 -1.85609340E-04 -1.00554822E-03
  6.20652585E-03 -3.46899179E-03 -1.05126354E-05  2.84510675E-04 -7.32116594E-02
 -1.55259016E-03  3.19901927E-03  6.43756473E-03  4.30347088E-04  3.72273907E-06
 -2.15991949E-03  2.31982094E-05 -2.29280385E-04 -1.27790340E-03  9.39457181E-03
 -8.46415829E-03 -3.05314106E-03  1.05109269E-04 -4.40039953E-02  2.52009065E-02
 -1.32756323E-03  2.32581817E-03 -2.89346270E-04  2.91559241E-04  2.84269986E-03
 -1.01017306E-02 -2.67485546E-06  3.30883744E-04 -3.33255333E-03  1.40363198E-02
  2.38597670E-02  1.85726359E-06 -2.97499178E-02 -2.56327795E-02  5.25266779E-04
  3.62000567E-03  2.78317935E-05  6.50887375E-07 -9.85979029E-03 -2.28991377E-02
  4.60152414E-03  1.47081949E-02 -7.67750918E-03  9.90477135E-03  1.90428985E-04
 -7.42570007E-04 -5.06590189E-02 -2.05483997E-04  6.52032425E-06  4.35874233E-02
 -1.29178393E-06 -4.62174850E-06  4.20564470E-05  3.46251348E-05 -8.61552791E-06
  9.55348461E-02  2.07259208E-04 -2.71114895E-04 -1.44895249E-03 -2.40621964E-04
  3.98884147E-03 -7.93123528E-05 -3.16619694E-05 -2.03735754E-06 -5.05207229E-06
 -1.46597182E-05  4.41591300E-05 -8.89572506E-05  3.94492375E-05  3.93156542E-02
 -6.92405770E-05 -1.09032797E-04  1.23385450E-02  1.85315666E-05 -1.00502983E-02
  1.11626717E-02 -5.87627743E-05  7.64424947E-06 -4.89652447E-06 -7.65969069E-06
 -2.63909751E-04  1.38751340E-05 -1.59850555E-05 -2.27290431E-02  1.29568815E-03
 -1.31986428E-03 -4.01401517E-03 -2.20556894E-04 -7.76133387E-03 -3.50696422E-03
  1.74037290E-04  9.97353827E-05 -2.98591046E-05 -9.99926177E-05  4.03826776E-04
  2.95472208E-04 -6.52734933E-06 -3.20261574E-02 -4.44367813E-03  2.50772259E-04
 -7.95112008E-03 -2.40578183E-04  8.62888371E-03  1.11191324E-04 -4.08667529E-04
 -5.89987214E-06 -5.01899366E-06 -7.97026446E-06 -2.58944168E-04  1.88807744E-05
  2.48684646E-05 -2.19521532E-02  8.74261924E-04  1.60436686E-03 -3.79127228E-03
 -2.16147039E-04 -7.72554020E-03  3.56184885E-03  1.75703566E-04 -9.85351671E-05
 -4.75134954E-06 -1.40487688E-05  3.99461864E-05 -9.42522842E-05 -7.48229859E-05
  3.92010616E-02 -5.19949175E-04 -2.62960767E-04  1.22042750E-02  1.96820455E-05
 -9.88695328E-03 -1.12006637E-02 -5.59147327E-05 -4.03883146E-07  5.08554490E-06
  1.80657843E-05 -3.40506614E-05 -3.59578724E-05  5.09187262E-05  5.74753613E-03
 -1.31755865E-04  2.09801937E-05  1.76287876E-02 -2.17044548E-05  1.78920993E-02
 -2.66535433E-06 -8.67228511E-06  2.12201518E-05 -6.48974026E-05 -2.12349774E-05
 -1.86789182E-04 -2.32137959E-04 -1.42180732E-04 -1.44056088E-04 -2.28975363E-05
  8.94679710E-06 -9.15506766E-03 -2.94443741E-06  6.63009591E-05 -6.01234603E-07
 -1.45806104E-06  9.57458273E-06  1.93205272E-05 -6.45011508E-06  7.02822128E-04
 -1.03820405E-04 -1.72347637E-04 -7.86915667E-04 -2.80890841E-06  2.65983915E-04
 -2.35411497E-03 -3.92325148E-05  2.97828202E-05 -1.20176091E-06 -4.95187343E-06
  3.43351063E-05 -1.09426738E-05  1.00033359E-06  4.47740189E-03 -1.41705313E-04
  5.76562923E-05 -3.69322906E-04  2.30257356E-06 -3.06475676E-04  3.10945461E-04
  3.28683815E-06 -2.57318673E-06  1.56295267E-06  5.35086922E-06 -1.29406743E-05
 -3.92226375E-06 -2.95356947E-06  1.23655462E-04 -6.85963781E-05 -3.96865056E-05
  8.21303352E-05  1.70821149E-05 -4.81089708E-05 -1.41578095E-03 -7.34283054E-06
  2.99542909E-05  3.84236399E-06  1.39910467E-05 -5.00472329E-05  1.55682612E-05
  6.54749712E-06 -4.21754548E-03 -2.74886137E-06  9.63830903E-05  2.66352139E-04
  1.36845244E-05  3.80814461E-04  3.07840609E-04 -1.64126270E-06 -5.67666333E-06
  6.94318695E-06  2.23538793E-05 -6.52535234E-05 -2.08386999E-05  2.56238757E-05
 -9.18567664E-04  6.51199294E-05 -2.64997864E-04  9.46756289E-04  1.59477543E-05
 -1.49892694E-04 -2.27342170E-03 -4.16921788E-06 -1.29769956E-06  4.49476404E-06
  1.40776547E-05  3.17153210E-06  6.51685670E-05 -1.45275491E-04  3.17071400E-04
 -8.17617619E-05 -4.07246838E-05  2.22352024E-04  2.94755615E-05 -4.95663419E-06
  3.46107337E-02 -1.47628335E-02 -4.98387374E-02  1.38229875E-01 -7.98411809E-02
 -7.05340148E-05  2.27359191E-04 -1.97694971E-01  1.72300327E-03 -3.63660723E-04
 -5.06607919E-02  7.67279546E-05 -3.28280370E-05 -1.08613232E-02 -2.06725338E-05
 -3.40620165E-03 -1.17294764E-02  2.81109660E-02 -1.01047040E-02 -4.39497122E-03
  9.98440768E-05 -1.54981822E-02  3.32929795E-02  1.83180646E-04 -9.93071983E-03
 -6.00181694E-05  5.15794991E-06 -2.15158508E-02  1.42436774E-03 -1.06501547E-03
 -4.13287126E-03  1.64033915E-02 -2.42091585E-03  2.09093658E-03  2.34100514E-06
 -5.88052182E-02 -1.32549894E-04 -5.16346716E-04 -1.17395963E-03 -2.02810366E-04
 -1.05854651E-04  8.13480979E-03  8.16497902E-03 -1.79331813E-03 -6.38217109E-03
  2.21861139E-02 -3.62394329E-03 -2.39357344E-05  1.96742981E-04 -2.63379170E-02
 -1.24201744E-03  1.43644386E-03  1.92404707E-04  2.52362908E-04  9.45370091E-08
 -5.96089724E-03  1.99142917E-05 -1.06590767E-03 -4.13383265E-03  1.63667382E-02
 -2.43024077E-03 -2.05294840E-03 -2.33056568E-05 -5.65132133E-02 -1.17336643E-03
 -5.23166071E-04 -1.20506909E-03 -2.11354503E-04  1.17639984E-04  8.12731135E-03
 -8.09048856E-03 -3.40482513E-03 -1.17282068E-02  2.81713973E-02 -1.00730440E-02
  4.37407727E-03  1.06170942E-04 -1.29937388E-02 -3.15822611E-02  2.05726314E-04
 -1.00156564E-02 -3.95334681E-05  1.08183688E-05 -2.16141667E-02 -1.41103101E-03
  1.60854138E-03  4.44450038E-03  1.67692997E-02  1.02716135E-01  3.94093467E-04
 -6.49080876E-05 -6.64096969E-02 -3.01944160E-04  5.35517695E-06  5.04427190E-02
  9.15604503E-05  1.07088708E-04  1.65426782E-01 -5.17753878E-06 -2.15889569E-05
  1.22347476E-04  3.06989724E-04  7.21954280E-02  4.97775163E-06 -1.99583007E-04
  2.42254807E-01  6.99273778E-05 -1.85192965E-05  2.68067173E-05 -4.94206373E-06
 -7.16581814E-05  1.96003905E-02  4.05167199E-03  1.39505218E-02 -4.91770896E-02
  1.56399260E-02 -4.16861570E-02 -5.44947990E-06 -2.28415453E-01  2.24632600E-01
 -1.48304130E-04  6.18957434E-03 -4.87417668E-05  9.41314933E-05  2.82469964E-03
  9.48316901E-03  8.64460387E-04  2.94518868E-03 -5.70291900E-03  3.38740482E-03
  5.13086630E-03 -1.00106427E-04 -1.99545401E-01 -1.78435115E-01  3.05664307E-04
  4.45734390E-03  1.40069441E-04  1.31877213E-04 -1.35827628E-03  1.20120682E-02
 -3.17209792E-06 -1.04211630E-05  1.42974057E-05  6.04346275E-06 -7.51524892E-03
  1.00030341E-05  5.82959057E-05 -2.47568450E-01  1.45080032E-05 -1.27945153E-05
 -7.20894305E-06  1.08276896E-04 -3.09163995E-05  4.20266485E-03 -8.66306560E-04
 -2.95187042E-03  5.70876981E-03 -3.17672029E-03  5.19523669E-03  1.13379956E-04
  1.99644279E-01 -1.78445168E-01 -4.44164737E-04 -4.48355368E-03 -1.23741779E-04
  1.26391730E-04  1.34531049E-03  1.19818209E-02 -4.06988337E-03 -1.40060249E-02
  4.92414350E-02 -1.57643457E-02 -4.17289113E-02 -3.28856027E-05  2.28753063E-01
  2.24136849E-01  2.45799848E-04 -6.24081054E-03  6.71644783E-05  1.23596162E-04
 -2.98622885E-03  9.40425845E-03  1.49012490E-05  5.02348163E-05 -6.14330645E-05
 -4.12217639E-05 -1.15304497E-01  4.19177108E-05 -7.31048884E-05  2.84060306E-03
  4.29025281E-06  5.07877713E-05 -4.37216405E-05  4.03082735E-05 -1.71189142E-04
  1.07394713E-01 -1.05716341E-05 -1.05833736E-04  6.49607243E-04 -5.34123208E-04
  3.59510151E-06  9.30896677E-04  1.72185765E-03 -2.88617214E-06 -1.12900655E-05
  2.22884278E-06 -6.18868206E-05 -3.63225592E-06  9.90081295E-04 -5.12587216E-06
  1.97730361E-04  7.08271894E-04 -3.25023458E-03 -3.63983225E-03 -4.58547551E-04
 -5.95979159E-04  7.34432883E-04 -2.86566166E-04 -4.77474478E-04  1.31363495E-03
 -3.48549782E-04  1.76351824E-04 -1.22463471E-04 -1.73603699E-03 -3.86382903E-04
 -1.32029237E-03  2.82202451E-03  3.88632943E-03  1.85115494E-03 -1.14018715E-03
  6.05723222E-04 -2.56562618E-03  7.23185664E-04 -4.39697151E-03 -1.63533560E-04
  7.66901022E-05 -1.96870225E-03 -6.25509910E-03  1.44650384E-03  4.89847764E-03
 -1.00017437E-02 -2.61031944E-02  1.16363293E-05  2.03488008E-03 -1.83717618E-02
  1.90291837E-05 -1.72799551E-03  9.87615899E-03  7.02533629E-04 -1.06726875E-06
 -2.45524277E-02  1.88206812E-05 -3.87410270E-04 -1.32406708E-03  2.83628849E-03
  3.90680589E-03 -1.82856672E-03 -1.14574822E-03  5.80638646E-04  2.52921903E-03
  7.27228885E-04 -4.39997031E-03 -1.60427143E-04 -7.14191979E-05 -1.96525422E-03
  6.24343961E-03  1.98252725E-04  7.10208980E-04 -3.26067024E-03 -3.65501418E-03
  4.71397796E-04 -6.15775476E-04  7.26949433E-04  3.08680691E-04 -4.87237484E-04
  1.31151912E-03 -3.45422415E-04 -1.76248469E-04 -1.24153123E-04  1.74354328E-03
  4.46270392E-05  1.70259370E-04 -4.43377704E-04 -6.82153317E-04  3.66423114E-07
  7.24608937E-04 -2.62206142E-04 -5.46626533E-07  4.24423614E-04  1.25852428E-04
  2.73872660E-04 -8.75065414E-07 -4.59178441E-04  1.29965886E-06  1.88372407E-01
 -4.03500599E-05 -3.15688978E-04  1.86329610E-03 -2.01103184E-03  1.37836848E-05
  3.36000851E-03  5.19031443E-03 -2.15775722E-05 -2.16895406E-05  1.00119295E-04
 -2.32542911E-04 -1.33582140E-05  3.07896700E-03 -1.89741167E-05  7.53331794E-04
  2.70610978E-03 -1.21442117E-02 -1.32522732E-02 -1.64138162E-03 -2.15137087E-03
  2.09324430E-03  1.94345236E-05 -1.72473515E-03  4.48831200E-03 -1.25529566E-03
  6.29877171E-04 -7.20979696E-04 -5.47567349E-03 -1.32155529E-03 -4.57449047E-03
  1.03741697E-02  1.46321763E-02  6.64637722E-03 -4.13973496E-03  2.77137557E-03
 -1.09140655E-02  2.65701752E-03 -1.47719500E-02 -5.40628512E-04  3.04120835E-04
 -6.46275292E-03 -2.08586872E-02  5.05300617E-03  1.71679132E-02 -3.60838756E-02
 -9.26367630E-02  4.21651679E-05  7.30991680E-03 -6.70003117E-02  8.32523854E-05
 -6.43733076E-03  3.42062578E-02  2.45519307E-03 -3.64349327E-06 -8.35165665E-02
  6.07741801E-05 -1.32559742E-03 -4.58902034E-03  1.04260759E-02  1.47062931E-02
 -6.56771834E-03 -4.15973398E-03  2.66921325E-03  1.07986414E-02  2.67248272E-03
 -1.47844790E-02 -5.30134052E-04 -2.84982881E-04 -6.44901879E-03  2.08156473E-02
  7.55386630E-04  2.71361389E-03 -1.21830039E-02 -1.33070275E-02  1.68478443E-03
 -2.22279969E-03  2.04546647E-03  5.04356510E-05 -1.75983223E-03  4.48173699E-03
 -1.24488996E-03 -6.29006958E-04 -7.28572353E-04  5.50352950E-03  1.86558970E-04
  6.92426362E-04 -1.67249516E-03 -2.46810450E-03  2.09637633E-06  2.61832291E-03
 -1.25072873E-03 -1.01679290E-06  1.52011613E-03  5.97637931E-04  9.86345943E-04
 -3.11495307E-06 -1.49106860E-03  4.85621720E-06  4.53290885E-01  1.10250553E+00
 -9.69236948E-05 -2.27006476E-04 -7.58646918E-04  5.16864053E-03 -4.07925361E-05
 -7.64406067E-03 -2.23687826E-03  3.83016452E-05  2.50442073E-06 -1.00209828E-03
  5.71859680E-04  3.19367740E-05 -3.42399388E-03  4.79514013E-05 -2.20535343E-03
 -7.92743532E-03  3.24564655E-02  3.26801983E-02  4.01321495E-03  4.90369160E-03
  5.58211532E-04 -6.12890028E-03  3.80192485E-03 -9.27271526E-03  2.82742267E-03
 -1.38330184E-03  3.69314630E-03  6.81741555E-03  2.19510019E-03  7.92960934E-03
 -2.00329941E-02 -3.90150554E-02 -1.62964392E-02  9.59687104E-03 -7.20133402E-03
  3.40334104E-02 -6.03151096E-03  2.70490693E-02  9.68258472E-04 -8.52465142E-04
  1.19739049E-02  3.49503902E-02 -8.86019800E-03 -3.02217626E-02  6.28487365E-02
  1.85404485E-01 -1.06408704E-04 -1.61462617E-02  1.53952891E-01 -1.85564876E-04
  1.50854757E-02 -6.60236820E-02 -5.31769528E-03  6.30764094E-06  1.55372775E-01
 -7.07693693E-05  2.20760317E-03  7.97323888E-03 -2.01737085E-02 -3.91996678E-02
  1.61620456E-02  9.64192550E-03 -7.03937216E-03 -3.38217050E-02 -6.07018475E-03
  2.70840836E-02  9.48309573E-04  8.07745825E-04  1.19439414E-02 -3.48476078E-02
 -2.21163198E-03 -7.94975857E-03  3.25586688E-02  3.28077326E-02 -4.07880803E-03
  5.06447747E-03  6.66387071E-04  5.96076391E-03  3.87810328E-03 -9.26229758E-03
  2.80797333E-03  1.37741633E-03  3.71931122E-03 -6.88667385E-03 -6.76592510E-04
 -2.39432559E-03  4.68033497E-03  6.02264222E-03 -1.55960443E-05 -5.97206232E-03
  5.60680831E-03  5.26654905E-06 -3.41596898E-03 -2.85439836E-03 -2.23519477E-03
  5.81424623E-06  1.50851081E-03 -1.12460897E-05 -5.23438922E-02 -1.97547304E-01
  4.51991227E-01  6.15495028E-04  2.04158992E-03 -4.70273393E-03 -1.28204461E-02
  1.02463400E-04 -6.96427582E-03  3.22313791E-02  8.60112018E-04 -1.16603047E-03
  1.44221919E-02  7.25039688E-04  6.75288895E-06  2.69962613E-02 -2.80964016E-05
  2.25950916E-03  7.56933627E-03 -2.32411397E-02 -3.58241117E-02 -5.40657029E-03
  3.34877594E-03 -9.92431216E-03 -5.87163508E-02  5.63388259E-03 -1.00578767E-02
  3.10619167E-03 -9.98569876E-04  1.60887572E-02 -1.97994727E-02 -3.38443726E-03
 -1.24230855E-02  5.51365847E-02  4.28368497E-02  3.64495955E-02  7.52955542E-03
 -1.50599950E-01  1.38811290E-01 -6.39662505E-03  2.17545637E-02  1.48062492E-03
  1.08291055E-03 -6.44074515E-02 -7.32842457E-02  2.58866240E-02  8.89101291E-02
 -2.83271632E-01 -4.03797745E-01  8.65148254E-05 -3.37861291E-03  2.72934609E-01
 -6.11970919E-04  1.85812517E-02  3.57775182E-02  7.05809441E-03 -8.82313675E-06
 -1.48875610E-01  6.51190253E-04 -3.35856159E-03 -1.23321331E-02  5.48364189E-02
  4.27723739E-02 -3.57774050E-02  7.55026596E-03 -1.49692540E-01 -1.39513854E-01
 -6.41897091E-03  2.17018051E-02  1.49570779E-03 -1.11971186E-03 -6.44353243E-02
  7.32838088E-02  2.25441790E-03  7.55082948E-03 -2.31886526E-02 -3.58705661E-02
  5.49648847E-03  3.53113793E-03 -8.41511304E-03  5.96234458E-02  5.70313917E-03
 -1.00462267E-02  3.10025896E-03  9.47193098E-04  1.60809329E-02  1.99735732E-02
  4.87127928E-04  1.82358525E-03 -5.12914708E-03 -5.95557774E-03 -1.23374935E-06
 -5.05616013E-03  3.05716118E-03 -6.58104174E-05 -2.39194182E-03  1.51725034E-04
 -1.83588975E-03  1.87316473E-05 -4.95110458E-03 -4.19093872E-07 -4.17806293E-03
 -1.49703141E-02  4.02381978E-02  5.75597246E-01 -9.09532494E-07 -2.48597210E-06
  6.04771449E-06  2.59444215E-05 -3.59363921E-03 -4.22506053E-05  8.54841356E-05
  2.09439849E-02  6.67661175E-06  2.08184764E-05  4.33093135E-06 -5.84558416E-04
  2.22731349E-05  4.49243236E-03  1.29245277E-03  4.56010322E-03 -1.67180582E-02
 -1.55594868E-02  2.92821908E-03  1.46602319E-03 -2.97917683E-02  1.17753934E-02
 -2.77188881E-04 -1.09304554E-03  2.65248071E-04  3.04113592E-04 -1.52539717E-03
  5.81670954E-03 -3.42998199E-03 -1.22640293E-02  4.07838984E-02  3.37809865E-02
  3.77522017E-03  6.00459885E-04  3.31173627E-02 -3.85096190E-02 -1.88111327E-03
 -2.55922106E-03  7.14580509E-04 -2.00682396E-03  5.07874262E-03  5.51652063E-03
 -1.18800639E-06 -2.05459007E-06 -8.79718372E-05 -3.56055560E-05  1.73164812E-02
 -7.77056113E-05  6.43480289E-04  9.58117649E-03  2.37413390E-05 -1.65658817E-04
  7.92661034E-06 -1.02158748E-02  1.20596686E-04  1.16331496E-01  3.41788414E-03
  1.22226379E-02 -4.06047158E-02 -3.35083555E-02  3.78111630E-03 -5.33058080E-04
 -3.37100538E-02 -3.89732309E-02  1.86955779E-03  2.76687271E-03 -7.15447664E-04
 -2.01224118E-03 -5.24568014E-03  5.63137238E-03 -1.28308186E-03 -4.52898671E-03
  1.66571245E-02  1.54082175E-02  2.87923808E-03 -1.42821107E-03  2.95145589E-02
  1.20532949E-02  2.95459936E-04  1.01386984E-03 -2.43994311E-04  3.16065416E-04
  1.59198035E-03  5.78757355E-03  9.47599263E-07  3.54829660E-06 -9.83788523E-06
 -2.25632329E-05  4.41516224E-04 -2.93749960E-05  2.17155655E-05  9.39326175E-04
 -1.81757699E-05 -4.85757458E-07 -1.09374486E-05  2.47090369E-05 -1.15227570E-06
 -5.65054002E-04 -8.16602172E-05 -2.98091006E-04  7.68480570E-04  7.53977143E-04
  6.19696597E-01  4.75999373E-05  1.81680732E-04 -8.31079457E-04  6.33100027E-05
 -5.23536686E-05  1.07772293E-01  3.09710069E-03 -1.15292661E-03 -5.14369330E-03
 -1.80140100E-03 -7.00324499E-03 -4.58299670E-04 -8.35543760E-04 -4.39809631E-05
 -6.70962338E-05 -1.90467879E-04  1.20173869E-03  1.73754829E-03 -4.01288733E-05
 -6.61551270E-02 -8.67434079E-03  4.74853025E-03 -2.72136225E-02  3.01331476E-03
 -3.29083747E-02  1.55740364E-02 -2.08806015E-03  1.21455575E-03  1.88694698E-04
  8.05990447E-04 -7.22425059E-03 -2.87188640E-03 -1.55688790E-03 -1.34200403E-01
  3.02975709E-02 -4.85647470E-02  6.40488058E-02 -5.37552433E-03  5.83252511E-03
  3.68095583E-02  5.78615443E-03  5.54497382E-03 -9.98209859E-04 -3.27957116E-03
  9.18113182E-03  2.04812190E-02 -4.47977039E-05  2.20310099E-01 -1.31905753E-01
  1.35207301E-03 -1.60967239E-01 -4.70520323E-03  1.23945678E-01 -3.92542066E-04
 -1.49633631E-03 -1.02130238E-06  1.86657204E-04  7.97956727E-04 -7.17086444E-03
 -2.92682223E-03  1.53419265E-03 -1.34551413E-01  2.83107195E-02  4.99298227E-02
  6.45455202E-02 -5.38628395E-03  5.97405502E-03 -3.64289866E-02  5.76816487E-03
 -5.57523974E-03 -6.48682524E-05 -1.81754948E-04  1.15060515E-03  1.71271707E-03
  1.22250648E-04 -6.86143123E-02 -1.06136194E-02 -6.20467508E-03 -2.78410191E-02
  3.03571083E-03 -3.27943665E-02 -1.52866852E-02 -2.13271450E-03 -1.23621976E-03
 -2.26137206E-05 -9.73044435E-05  5.55207785E-04  8.07957996E-04  4.11597705E-05
  8.22297265E-02 -2.26055671E-03  8.62075491E-05  4.96828408E-02  3.00533795E-04
  3.19686328E-02 -1.74679232E-04  4.62018669E-04 -2.16823341E-06  3.26059760E-03
  1.15611577E-02 -2.72284137E-02 -1.78543888E-02  2.85735207E-05  8.35839501E-01
 -1.08961704E-02 -4.01919340E-02  1.26705891E-01  6.56847392E-02 -8.93177064E-05
 -1.16410153E-03  1.44897103E-01 -2.69423359E-03  7.04056911E-04 -1.36412269E-02
  5.71108725E-04  5.01643914E-05 -2.25790587E-02  7.02434433E-05 -1.30046420E-02
 -4.88230686E-02  1.68249474E-01  2.33592797E-02  3.05255066E-02  5.87124932E-03
  1.13115500E-01 -5.57048732E-02  2.14142058E-03 -4.14414595E-02  1.38694138E-03
 -3.80150189E-04  1.63659255E-02 -4.21780935E-02 -9.33784486E-03 -3.25609967E-02
  9.79525478E-02 -5.81454266E-02 -4.92827859E-02  3.82836465E-03  3.19164174E-02
  1.22902428E-01 -2.65870807E-03 -1.55045074E-02  2.17844340E-04 -1.76008141E-03
  1.42728223E-02 -3.62305399E-02  1.74420036E-02  5.68569182E-02 -1.71188484E-01
 -8.53249012E-02 -3.96757549E-04 -2.36794246E-02  3.10627931E-01  2.07506178E-03
  3.69405167E-03 -1.93800407E-02 -5.83399650E-03  1.20967895E-05 -2.43481550E-02
  2.48894951E-04 -9.34135752E-03 -3.25753662E-02  9.80459317E-02 -5.75759766E-02
  5.08119628E-02  3.80279112E-03  2.77509367E-02 -1.21296606E-01 -2.72731605E-03
 -1.55662403E-02  2.47267839E-04  1.71603273E-03  1.42466272E-02  3.63395044E-02
 -1.30070126E-02 -4.88337588E-02  1.68278996E-01  2.27902390E-02 -2.94814043E-02
  5.83821299E-03  1.09383986E-01  5.28562460E-02  2.14657016E-03 -4.14396908E-02
  1.35875470E-03  3.98716353E-04  1.64722352E-02  4.22146628E-02 -5.02023410E-03
 -1.66127582E-02  1.21992118E-02 -1.59589264E-02 -3.04299409E-04 -3.38848662E-03
  7.67044779E-02  3.90372711E-04 -2.22520761E-03 -4.82753992E-02 -9.99224476E-04
 -6.44250921E-05 -2.78916759E-02  9.49961595E-05 -5.46072284E-04 -4.22857650E-03
  2.56116989E-02  1.57629307E-01  3.77928259E-04 -5.56646531E-02  2.15970938E-01
  3.50893402E-05  1.20480879E-04 -3.54965508E-04 -8.45921645E-05 -8.57747923E-03
 -1.70386018E-05 -9.33138185E-04  2.83039253E-01  4.30957825E-05 -6.08667745E-05
  2.04934713E-05  2.95428874E-04  5.84350886E-05 -7.45707664E-03  2.25743593E-03
  9.40919756E-03 -4.23001195E-02 -3.37369002E-02 -7.53767503E-04 -1.15132475E-03
 -2.13645152E-01  1.57694234E-01 -4.06179458E-04  1.21030466E-02 -9.87995230E-05
  1.73579036E-04  2.14824322E-03 -1.09787999E-03  2.66244552E-03  9.09976170E-03
 -2.63114637E-02  3.21884686E-02 -3.30904240E-02 -1.37060242E-03 -1.80234247E-01
 -1.63197820E-01 -6.00127808E-04  9.82196598E-04  5.61054839E-04 -5.41518685E-04
 -6.95301839E-03 -4.50565023E-03  4.26266012E-06  2.12668806E-05 -1.26822236E-04
  8.31150829E-05  5.01202399E-02 -6.10578282E-05 -2.49693241E-04 -2.52105958E-01
  8.44122277E-05  1.61550082E-05 -5.71539784E-06 -2.88610261E-03  2.15822708E-04
  2.57026529E-02 -2.62520805E-03 -8.96547724E-03  2.59387014E-02 -3.23349758E-02
 -3.31359130E-02  1.41798960E-03  1.79408360E-01 -1.62995371E-01  4.24390409E-04
 -7.56654460E-04 -5.55925741E-04 -5.43326051E-04  6.80176449E-03 -4.47836599E-03
 -2.21780747E-03 -9.26972965E-03  4.19606339E-02  3.38689330E-02 -5.82550446E-04
  1.17123413E-03  2.13327382E-01  1.57177210E-01  5.08999456E-04 -1.19459046E-02
  1.13044134E-04  2.02037392E-04 -2.29143702E-03 -1.41039943E-03 -1.83727506E-06
 -1.08938001E-05  1.47422618E-04 -6.79721344E-05 -2.13145867E-03  3.13082516E-05
 -4.19901890E-04 -6.05234555E-02  9.04989456E-06  2.41226521E-04 -2.26197800E-05
 -3.16312376E-05  1.67045443E-04  2.87934461E-02 -8.95636578E-05 -3.34806499E-04
  7.92934303E-04  5.18422433E-04  2.17790987E-01 -8.19111516E-05 -2.67935354E-04
  1.14911293E-01 -1.50878454E-03 -5.45069897E-03  1.59393886E-02  9.15433847E-03
 -5.12291664E-05  6.33899081E-02  2.00874315E-02 -1.07985029E-03 -2.27889701E-03
 -3.82828542E-03 -3.71114232E-03 -2.33294508E-04 -5.60815277E-03 -1.07643108E-05
 -2.03875829E-03 -7.37130137E-03  2.35008073E-02  4.96031330E-03  4.05078108E-03
 -3.14546941E-02  9.59988101E-03 -9.85183625E-04 -1.41253378E-02 -3.80786880E-03
 -1.77515908E-02  8.92669789E-03  9.08806840E-04 -2.71588910E-03 -1.53475502E-03
 -5.35746432E-03  1.23060861E-02 -8.37982627E-03 -1.81006999E-03 -6.94415476E-02
  2.70763563E-02 -2.00493047E-02  3.55740463E-02 -9.70142584E-03  2.77976078E-03
  1.97787629E-02  7.04612325E-03  3.01196399E-03 -6.02808606E-04 -2.51966789E-03
  1.06477117E-02  6.82300464E-03 -5.76183804E-05  1.19310684E-01 -5.42378892E-02
  1.06343077E-03 -8.80623795E-02 -5.52748332E-03  6.52731455E-02 -1.99287553E-04
 -5.95678608E-03 -1.20120997E-05 -1.53744555E-03 -5.36767000E-03  1.23562214E-02
 -8.35141008E-03  1.91969209E-03 -6.95730109E-02  2.53455012E-02  2.10600483E-02
  3.58423017E-02 -9.71467799E-03  2.84918436E-03 -1.95799062E-02  7.03794332E-03
 -3.02890134E-03 -2.03847688E-03 -7.37148520E-03  2.34986309E-02  4.88062733E-03
 -3.86029482E-03 -3.27379744E-02  7.90853756E-03 -3.04919159E-04 -1.44632555E-02
 -3.79586422E-03 -1.76832315E-02 -8.76916848E-03  8.99232850E-04  2.69649946E-03
 -6.72143197E-04 -2.25564067E-03  1.99173533E-03 -9.72488270E-04 -1.69144138E-05
  4.73613419E-02  8.78382382E-03  1.09197475E-04  2.74958646E-02 -6.31219088E-03
  1.78312715E-02 -1.10642782E-04 -2.90024152E-03  1.15603522E-05  5.33369309E-03
  1.93680305E-02 -4.30051605E-02 -2.88243861E-02 -6.10697051E-05  4.44322435E-01
 -1.22918074E-02 -1.78318002E-04  2.42219593E-01  1.26084376E-03  4.30274829E-03
 -1.17376923E-02 -4.67082100E-03  2.43258848E-06  9.68510669E-04 -5.26142319E-03
  1.61316306E-04 -1.16169849E-04  1.15602235E-03 -2.39895810E-04 -8.50292672E-06
  5.91928399E-03 -2.87228121E-06  1.00617015E-03  3.57372933E-03 -1.07619527E-02
  5.05654717E-03 -1.85208718E-03 -2.42777032E-03 -4.10199030E-03  2.80669523E-03
 -1.10089023E-03  5.31888008E-03 -6.48375036E-04  2.31052039E-04 -1.08207476E-03
 -1.57160314E-03  5.58561743E-04  2.45458994E-03 -9.84818697E-03 -5.95442678E-03
 -9.92223793E-03 -2.34280340E-03  7.12831116E-03 -9.78147871E-03  2.01593424E-03
  1.54649071E-03  1.93184102E-04  1.02659671E-03  2.19239416E-03 -7.29547833E-03
  3.56657985E-03  1.24763939E-02 -3.60945389E-02 -1.88507669E-03 -2.68973311E-05
  8.78145673E-03 -3.55396218E-02 -6.29943476E-05 -4.13629624E-03  1.20353296E-02
  2.96899287E-03 -9.26061570E-06 -9.79727856E-03  1.51724423E-05  5.59510695E-04
  2.45860096E-03 -9.85875720E-03 -6.02464894E-03  9.86158016E-03 -2.32111724E-03
  7.32716481E-03  9.68213681E-03  2.03536760E-03  1.55401648E-03  1.89760655E-04
 -1.01768082E-03  2.21503898E-03  7.30212420E-03  1.00791706E-03  3.57973305E-03
 -1.07823975E-02  5.13069025E-03  1.74566115E-03 -2.44254639E-03 -3.92620966E-03
 -2.58337666E-03 -1.11493037E-03  5.31753313E-03 -6.38768140E-04 -2.33029891E-04
 -1.08573877E-03  1.55955087E-03  3.30703641E-04  1.10035425E-03 -7.90579760E-04
  3.02849870E-04  1.27281266E-05  1.83345566E-03 -5.33981305E-03 -2.68079644E-05
  9.89112739E-04  3.36919230E-03  5.07751576E-04  2.00468989E-06 -5.54700311E-04
 -7.98374998E-06  6.64335693E-03  2.30988019E-02 -4.52238969E-02 -6.08748014E-03
  3.88322777E-05  2.15706874E-02 -1.18480150E-02 -9.90453917E-07  1.24526073E-02
  7.54831657E-03 -3.00232142E-04 -1.09473775E-03  3.19892509E-03  1.42019682E-03
 -1.28357887E-05  1.58641444E-02  5.80616665E-03 -5.72464498E-05 -1.78861776E-03
 -2.11182296E-04 -5.42962202E-04 -9.29448805E-05  2.97229366E-04  4.14835137E-07
 -4.23363692E-04 -1.61494562E-03  5.69417595E-03  1.82398135E-03  9.13643580E-04
 -3.29680762E-03  2.75712911E-03 -3.86441141E-03  1.76446502E-03 -2.02744713E-03
 -4.42888155E-03  2.32762812E-03  1.55918514E-03 -1.54028066E-03 -5.72233660E-04
 -1.95712635E-03  6.04939029E-03 -2.10497781E-03  6.68558078E-05 -2.80839192E-02
 -3.98909776E-03  9.38319511E-03 -8.35273105E-03  3.75621340E-04 -2.38010578E-03
 -4.47835748E-03 -1.05330847E-03 -1.84121629E-03  9.40698280E-04  2.89967051E-03
 -8.11368761E-03 -9.86782712E-03 -1.98655819E-05 -4.34870140E-02  2.24272033E-02
  4.95435702E-05  2.09696520E-04 -1.92419506E-03  2.77759509E-03 -1.28447192E-05
 -1.27194873E-03  3.36882635E-05 -5.69520164E-04 -1.94795778E-03  6.02428661E-03
 -2.12486129E-03  1.32822819E-06 -2.83076947E-02 -4.10887209E-03 -9.35215903E-03
 -8.34818119E-03  3.76761091E-04 -2.27616874E-03  4.52643839E-03 -1.05660270E-03
  1.84966017E-03 -4.23202565E-04 -1.61482515E-03  5.69787738E-03  1.82403266E-03
 -8.77334604E-04 -3.87693355E-03  2.67874524E-03  3.80086828E-03  1.66767203E-03
 -2.02272476E-03 -4.44800647E-03 -2.31503099E-03  1.56004952E-03  1.54426262E-03
 -2.36746892E-04 -7.93415493E-04  9.10318334E-04 -9.52386321E-07 -4.00358800E-06
  5.18612626E-03  2.64209292E-03  5.92441774E-06  4.13736448E-03 -1.55165927E-03
  3.55560714E-03 -1.63847374E-05 -8.14867935E-04  2.48943676E-06 -1.41407194E-03
 -5.09160472E-03  1.11904700E-02  1.82805094E-02  1.08498777E-04 -1.48697038E-02
  1.28519995E-02  4.38629818E-05 -8.40758434E-03 -2.13193821E-03  5.48013962E-03
 -9.96251870E-07 -3.83962184E-06  1.28539964E-05  1.17533287E-05 -9.60004941E-04
 -8.47818805E-05  8.48598591E-06  6.67831898E-03  6.36446236E-06 -2.85257944E-07
  6.81864053E-06 -5.52418615E-05  2.41504378E-06  1.38508428E-04  6.39061294E-05
  3.03748382E-04 -1.61327212E-03 -2.68738203E-03  1.49375915E-04  2.30267265E-04
 -5.62864107E-03  4.13436685E-03  1.77842608E-05  1.55904611E-04  5.48164226E-05
  3.05779629E-06 -1.35844414E-04  6.14584417E-04 -1.53939722E-04 -5.01207854E-04
  1.39679506E-03  3.61168341E-03  1.72555493E-03  2.43250743E-04 -2.22083484E-03
 -5.45491298E-03 -1.17528456E-04 -3.10649827E-05  2.56859528E-05 -1.28072159E-04
  1.91573786E-04  6.11090328E-04  4.30996040E-06  1.37888626E-05 -4.97176854E-05
 -4.04656462E-07 -1.53949885E-03 -1.31057869E-04  2.04295055E-04 -4.27321446E-03
  1.19578715E-04 -1.92511850E-05 -9.05119390E-05 -5.62113699E-04  2.75463098E-05
  6.14966177E-03  1.51614794E-04  4.92036172E-04 -1.34702369E-03 -3.62894379E-03
  1.75295999E-03  5.50473461E-06  2.12880425E-03 -5.61288103E-03  3.38824825E-05
  6.14301605E-05 -3.07179059E-05 -8.31524426E-05 -1.97247434E-04  6.34245953E-04
 -6.73651402E-05 -3.16806604E-04  1.66160962E-03  2.70942893E-03  1.31542906E-04
 -1.12725936E-04  5.65186941E-03  4.17714350E-03  2.67771877E-05 -1.78709482E-04
  1.00602392E-06  2.86831627E-05  1.48375167E-04  6.22769919E-04 -7.97806366E-07
 -2.72886505E-06  4.55696124E-06 -3.38533053E-06  2.00599195E-04 -6.53034763E-05
  7.04472006E-06 -1.27206106E-03 -3.87910031E-05 -3.01272041E-06 -2.55252988E-05
  2.69490293E-06 -9.93477793E-07  3.92180232E-04 -1.85127272E-05 -6.74063899E-05
  1.55408297E-04  1.05704583E-04  3.23104224E-02 -5.88059247E-04  9.55055371E-05
  1.19866299E-02 -3.21275939E-04 -2.25025791E-05  1.72937120E-05  1.72171709E-03
  8.80051127E-04  3.66853094E-03 -1.57270755E-02 -1.22614946E-02  2.55682050E-06
  1.55349151E-03 -1.23387803E-02  1.75151254E-04  3.47032872E-05 -5.29234631E-05
  3.73783065E-05 -9.14357197E-06  1.10061215E-03  8.56559044E-06  8.72126674E-04
  3.39813673E-03 -1.39504098E-02  2.96213352E-03 -5.31583420E-03  4.86686190E-04
 -2.04840324E-02  3.64890916E-03  4.24892311E-06 -6.14264424E-04 -3.25769348E-04
  1.61794209E-04  3.67138878E-03  9.69370982E-03 -2.13561068E-03 -6.80437288E-03
  1.44045543E-02  1.20934188E-02  2.49844637E-02 -1.07035645E-03 -1.45584733E-02
 -1.15614069E-02 -2.56080234E-04 -5.00451674E-03 -3.16801501E-04 -4.01812904E-04
 -4.38767210E-03  1.79810775E-02 -1.07400885E-02 -3.53080601E-02  9.64054161E-02
  1.29883280E-02  5.08625778E-05 -2.85420446E-03 -2.41929955E-02 -1.78712436E-04
 -1.91860552E-04 -1.42194651E-02 -7.48810999E-04 -5.04923260E-06  8.51280139E-03
  4.90883526E-05 -2.12421388E-03 -6.76330928E-03  1.42522410E-02  1.19367455E-02
 -2.51425125E-02 -1.09581565E-03 -1.42998545E-02  1.13427517E-02 -2.53857770E-04
 -4.99677903E-03 -3.17402181E-04  4.05672099E-04 -4.42090615E-03 -1.79666250E-02
  8.65703585E-04  3.37726080E-03 -1.38809356E-02  3.03139928E-03  5.23110269E-03
  4.50781430E-04 -2.01684544E-02 -3.49626645E-03  1.13326928E-05 -6.00526087E-04
 -3.32326021E-04 -1.53275760E-04  3.66208628E-03 -9.67617862E-03 -2.40980531E-04
 -9.22981071E-04  3.93773539E-03  9.31158753E-03  3.26145146E-05  1.34677679E-04
 -7.24961793E-03 -2.21578014E-05  2.41078426E-04  4.37197095E-03  2.82721000E-04
  2.50524769E-06  6.18323195E-03 -6.68117699E-06 -3.07457643E-03 -1.04771789E-02
  1.79363187E-02 -4.87570526E-02  4.49655000E-04 -2.65880316E-03 -2.69910439E-02
  1.83510317E-04 -1.47061198E-03 -4.57608888E-03 -9.84115630E-04  2.23476689E-05
  1.32857235E-02  2.46106743E-06  7.82949404E-06 -1.09437157E-05  5.71989154E-06
  6.76138560E-03  6.88095813E-06 -2.47014025E-05  2.09748351E-02  2.45166110E-06
 -8.82855307E-07  2.88046569E-07 -2.05302005E-04  4.62093924E-05  5.44200863E-04
 -1.92006474E-04 -4.11138084E-04 -3.04756671E-03 -4.80528145E-03 -5.78380315E-03
  6.59960681E-04 -1.19541083E-02  2.16180426E-02  3.76713507E-05 -3.47100419E-03
  9.10495347E-05  5.24622770E-05  4.37913872E-03  7.23777622E-03 -4.60292005E-03
 -1.59589707E-02  5.10839702E-02  3.07004492E-02  3.76339728E-02  3.89383566E-04
 -1.13185401E-03 -5.22148950E-03 -2.61616431E-04 -2.83621876E-03  7.82315499E-05
 -2.98240914E-04  5.34821804E-03  1.03188378E-02  9.24902377E-06  3.41326135E-05
 -1.56173898E-04  2.81866646E-04 -8.04320181E-02 -3.44962475E-06 -3.19220639E-06
  1.52082479E-02 -4.98190505E-06 -4.69209119E-05  3.59496574E-06 -1.64800353E-03
  9.35590804E-05  3.27518668E-02  4.61613565E-03  1.59985285E-02 -5.11248015E-02
 -3.07765227E-02  3.77578461E-02 -3.85294994E-04  1.14458720E-03 -5.26446731E-03
  2.59797575E-04  2.94823995E-03 -7.69186950E-05 -3.00640385E-04 -5.16019904E-03
  1.03306611E-02  1.96162851E-04  4.25707990E-04  3.00453760E-03  4.98007225E-03
 -5.84387245E-03 -6.66607840E-04  1.18457978E-02  2.16466963E-02 -2.81170408E-05
  3.47484709E-03 -8.74783235E-05  4.97516890E-05 -4.39960915E-03  7.22072442E-03
 -1.60995501E-06 -6.19906931E-06  2.37227510E-05  2.26632853E-05 -1.81201786E-03
  5.34929136E-06 -1.52425615E-05 -8.65688952E-04  2.02959873E-06  1.70633460E-05
  6.43156475E-07  1.93291082E-05  9.27916326E-06  2.90059109E-03 -2.00729213E-05
 -7.26993149E-05  1.69945715E-04 -1.03052878E-04  7.48229312E-02  5.74053721E-05
  1.84404834E-06  2.11572749E-02  1.81606070E-05  1.49537450E-05  9.78053008E-06
  4.22524154E-03  5.98279288E-05  2.08289997E-02 -1.65315569E-04 -5.96851758E-04
  1.68447297E-03  4.76619018E-04 -1.88940966E-03  6.32746762E-03  1.19399393E-02
 -2.27246057E-03 -8.24352622E-04  3.35011321E-03 -1.84049940E-04 -5.76679178E-05
  4.33411355E-03 -3.88792532E-03 -1.11120013E-03 -4.07922566E-03  1.64218218E-02
  1.10122537E-02  2.67000853E-03 -1.98043739E-03  5.77224889E-03 -2.55372087E-02
  1.15066150E-03 -5.77170957E-03 -1.26675928E-03  6.35213791E-04  6.94531202E-03
 -9.40839839E-03  1.54358441E-03  5.41977931E-03 -1.37114274E-02 -2.36950040E-02
 -1.43468538E-02 -7.16029526E-03 -6.19801710E-02  6.21467697E-02  1.51230442E-03
  1.30112250E-02  3.32899541E-04  3.17336094E-03 -1.74458775E-02 -1.32774555E-02
  2.36444552E-03  8.31194636E-03 -3.93232104E-02 -4.76360082E-02  2.57474844E-02
  5.44165660E-03  1.17553893E-01 -1.67616329E-02 -2.76635487E-03 -1.53601546E-02
  9.55277808E-03  4.39842337E-03  7.73009116E-03 -5.81213052E-02 -3.66464015E-03
 -1.28669068E-02  4.58762702E-02  3.02127217E-02 -2.54365185E-02 -8.96762094E-03
 -2.16913193E-02 -3.14191291E-02 -5.84763919E-04  1.03299529E-02  1.30864593E-03
 -1.31823967E-03 -1.03390354E-02 -5.30605024E-04  4.97666357E-04  1.51822375E-03
 -3.91780777E-03 -1.14006968E-02  7.39512703E-04 -3.00256608E-03 -1.04337070E-02
  1.37001880E-02  5.66615001E-04 -8.80609370E-03 -1.33904454E-03 -9.40166975E-04
  5.76511092E-03 -2.77137346E-03 -2.02601894E-04 -6.68029469E-04  4.12790797E-04
 -5.48677428E-04 -5.21267342E-04  3.68694518E-03  4.26504399E-03 -3.05939155E-03
  2.57352411E-03 -2.10275824E-03  1.71145593E-03  5.44356971E-06 -1.08157394E-03
  1.33909417E-04 -2.01686868E-02 -7.21024301E-02  1.51537883E-01  1.57211541E-01
 -2.77998662E-01  4.67778166E-02  4.78280761E-02 -9.46782644E-02  1.17646288E-02
 -1.54823744E-02  7.75047696E-03 -1.46292705E-02 -5.81644247E-03 -3.81290275E-02
  2.18871424E-01  1.12849940E-02  4.09507426E-02 -1.23267044E-01 -6.96911046E-02
  1.34135779E-03  7.06398696E-04 -1.30522283E-01  1.44584943E-01 -1.44505484E-03
  1.93561140E-02 -1.00220153E-04  1.86097998E-04  3.72717327E-02 -6.48088769E-03
  1.43653942E-02  5.38529167E-02 -1.86182817E-01 -3.79529926E-02 -3.30920954E-02
 -2.65836619E-03 -2.00626561E-01  1.10811221E-01  1.78903731E-03  4.39340286E-02
 -1.27304011E-04  2.73141667E-04 -6.69738136E-03  2.63492446E-02  8.24578185E-03
  2.92906913E-02 -7.94784545E-02  7.94570396E-02  2.56390261E-02 -2.28503725E-03
 -1.61164062E-01 -1.21274240E-01 -3.47777921E-03  3.42074806E-02 -3.45131199E-05
  7.44453124E-04 -2.96300662E-02 -1.53020027E-03  8.15212715E-04  5.69548401E-03
 -2.64455261E-02 -1.54082632E-02 -3.73533424E-02  9.65404186E-03 -1.81179796E-01
 -1.05157083E-01  9.03452228E-03  3.75344772E-02  6.29211000E-03  5.17129219E-04
 -6.04833805E-03  3.32443685E-03  1.25073919E-02  4.37428453E-02 -1.25681703E-01
  3.06818658E-02 -1.45770869E-02 -6.74336657E-04  2.43870624E-02 -3.45896659E-04
 -3.54090392E-03  3.80231872E-02 -3.22176901E-04 -4.75105431E-04 -2.84939949E-02
  5.33737878E-03  1.39668168E-02  5.00352466E-02 -1.52019058E-01 -2.33268402E-02
  3.18058195E-02 -1.06501961E-03 -3.88189899E-03  5.30006769E-02  2.06205164E-03
  3.77677323E-02  8.90457444E-05 -2.55736928E-04 -2.06125949E-02 -2.46641707E-02
  4.78032546E-03  1.59204558E-02 -1.20823745E-02  1.20614280E-02 -8.52228839E-04
  5.45927494E-04 -7.37104541E-02 -3.08992154E-02  1.13576182E-03  4.71337094E-02
  4.30623649E-04  5.72411429E-05  2.25047558E-02  1.31425351E-02 -7.77723241E-03
 -2.72176338E-02  5.11384350E-02  8.68987115E-02 -2.61793447E-02  3.00819019E-02
 -1.41506150E-01  4.59119305E-03 -1.47485434E-02  7.77330002E-03 -3.15349250E-03
 -9.36979397E-04 -4.30008680E-04  2.81318386E-03  4.48445146E-02  2.04131490E-01
 -1.64807890E-03 -6.06016208E-03  1.89217383E-02  1.13484132E-02  1.54448890E-04
 -1.04529436E-03  2.04403791E-02  2.58093262E-03  2.03776807E-04 -2.04926904E-03
 -6.72058786E-05 -1.64903601E-04 -5.38540914E-03 -6.96245562E-04 -2.43777882E-03
 -8.72296240E-03  2.70169466E-02 -1.06097295E-03  3.03699202E-03 -2.80835263E-04
  1.46495438E-02 -3.72649924E-05 -7.12934246E-04 -5.53195165E-03  8.45161864E-05
 -1.01526758E-04  1.20197812E-03 -4.26126387E-03 -1.51816006E-03 -5.29785386E-03
  1.43423734E-02 -7.19546009E-03  3.92664723E-03  8.54754500E-04  6.58818158E-03
  7.66799566E-03  1.60579887E-03 -6.27154133E-03  2.04107766E-04  4.49415406E-04
  2.08965866E-03 -6.14788275E-03  2.65760119E-03  8.94822128E-03 -2.49944533E-02
 -3.70607511E-02  6.34932823E-04  3.75151646E-03  2.32798563E-02  1.20890813E-03
 -2.74210553E-03  4.93351683E-03  5.71140343E-04 -4.73396252E-04 -2.16760167E-02
  4.41149126E-03 -1.29713917E-03 -4.85245600E-03  1.56760553E-02  3.03561255E-04
  4.48544857E-03 -2.80835686E-04  5.57452071E-03 -1.41025409E-02  1.53607416E-03
 -6.36487956E-03  3.08060646E-04 -5.94897202E-04 -7.06342024E-04  8.87746290E-03
 -1.51507729E-03 -5.61272544E-03  1.75744595E-02 -3.72049766E-03 -5.16061990E-03
 -1.48410814E-03  1.99314250E-02  9.65176076E-03 -8.33137528E-04 -4.76332149E-03
 -7.50808099E-05  1.13899135E-04  1.13195588E-03  6.35319168E-03 -3.37025013E-04
 -1.06657241E-03 -9.45590575E-04 -4.69307320E-03 -1.33022668E-03  3.19697632E-04
  1.08043453E-02  2.06499178E-04 -6.02772478E-05 -6.90248921E-03 -1.27154592E-04
  1.51324909E-05 -4.51949861E-03  9.46373080E-04  7.66534379E-03  2.69163930E-02
 -5.29005748E-02  1.56287654E-02  1.94306133E-02  3.00530795E-03  2.69853664E-02
  6.05555519E-03  7.89513130E-03  3.76218746E-03 -4.06366208E-05  9.99553324E-04
 -5.44213825E-03  2.29619776E-03 -2.07892429E-02 -2.91943967E-02  1.14286402E-02
  2.48038950E-03  8.99000151E-03 -2.69559746E-02 -1.19177966E-02  3.83047873E-04
 -2.94964407E-03 -2.70351719E-02  4.18916603E-02 -2.02927541E-04  5.32472747E-03
  5.28450141E-05  1.73001599E-05  6.28702615E-03 -4.38414252E-04  2.82504010E-03
  1.11693767E-02 -4.19981673E-02 -1.61848496E-02 -9.07888110E-03 -2.97342299E-04
 -5.28151329E-02  3.04811741E-02  5.66545299E-04  8.20381542E-03  7.27666693E-04
 -3.83172982E-04 -1.60212589E-03  8.20806963E-03  2.44144390E-03  7.95885518E-03
 -1.71480351E-02  2.67399756E-02  1.25397814E-02  2.75125529E-03 -5.02512548E-02
 -2.88490417E-02 -6.84923732E-04  9.92245315E-03  4.25950200E-04  5.43914742E-04
 -8.92046122E-03  3.33026781E-03 -2.08782448E-04 -7.00518707E-04  1.40188637E-03
 -1.82408815E-03 -1.59095671E-02  4.47901671E-03 -1.66449637E-02 -3.33824802E-02
  3.62011782E-03  2.06060633E-03  1.04460946E-03 -7.30672872E-05  6.80786213E-03
  2.56524386E-03  2.69023215E-03  9.19851421E-03 -2.45197301E-02  2.28637020E-03
 -1.74461542E-03  2.97072660E-03  6.61493885E-03 -1.67237109E-02 -7.05126618E-04
  1.02504874E-02  3.36164375E-04 -5.52983490E-04 -8.17369176E-03  4.27564192E-04
  2.77014998E-03  9.91230555E-03 -2.94661263E-02 -1.37014885E-04  3.03930635E-03
 -1.05392245E-04  8.11632480E-03  2.26048602E-02  6.42969352E-04  6.20652072E-03
  7.40375179E-04  3.98294154E-04 -3.19478512E-03 -4.80177303E-03  1.36692673E-03
  4.58303360E-03 -5.09135243E-03 -2.80124505E-04 -9.28119203E-04 -1.08096859E-03
 -1.49920212E-02 -8.26904872E-03 -5.86862735E-04  9.50400677E-03 -5.87563147E-04
  2.63006241E-05  4.13211184E-03  4.87389967E-03 -7.76394458E-03 -2.71535305E-02
  5.33826489E-02  3.91332183E-02  3.22938139E-03  5.67238848E-03 -2.45630126E-02
  5.63460571E-03 -6.67653592E-03 -3.10890030E-03  4.80472750E-04  3.72675040E-04
  1.01028776E-03  2.78797546E-03  2.39612874E-02  5.16103750E-02 -1.03814216E-02
  1.79167450E-02 -3.92247121E-04 -1.43944147E-03  4.69120778E-03  2.53347576E-03
 -1.31530386E-03  8.87894498E-03  2.69724587E-03 -1.27291755E-02 -1.31378176E-04
 -8.13081232E-04 -6.87465810E-05  4.79835855E-04 -1.80744364E-03  7.04048595E-04
 -3.79661210E-04 -1.46477351E-03  5.64019359E-03 -1.34179572E-03  1.60600061E-03
 -1.66974528E-03  1.17330226E-02 -6.45836609E-03 -6.72117964E-04 -7.09983622E-04
 -1.84286848E-03  1.16279848E-03 -1.48803558E-03 -5.60913806E-04  1.62640645E-04
  5.64358203E-04 -2.57607680E-03 -1.96070096E-03 -1.80568416E-03 -6.89579961E-03
  1.53856217E-02  1.06628935E-03  1.99596696E-03 -1.27322723E-03  3.01463184E-05
  1.05908291E-03  2.21571533E-03  5.58064176E-04 -2.35337693E-04 -6.98197904E-04
  1.82432666E-03  6.65103854E-03  2.86641657E-03  6.56269755E-03 -6.62871797E-03
  9.40084420E-03 -6.38818540E-03 -2.20744537E-04  4.23065801E-03  2.24988744E-04
  7.61129742E-04  1.89039553E-03 -2.23170491E-04 -8.15660342E-04  2.33742558E-03
 -4.92648204E-04  2.91554902E-03 -3.21279095E-03 -2.46109481E-03  7.34076261E-03
  2.71276307E-03 -1.73993312E-03 -4.66927374E-04 -1.12348511E-03  2.00683464E-03
 -4.45257554E-04 -3.06756017E-04 -1.11229987E-03  3.24566013E-03  6.12190079E-04
 -6.04456436E-04  1.90384749E-03 -4.87530720E-03 -7.95832703E-03 -1.49104950E-04
 -2.78434262E-04 -1.34211129E-03 -1.09017861E-03  2.60361700E-04  8.94368522E-04
 -1.02813168E-04 -3.35143378E-04  1.08638349E-04 -7.65385506E-04  3.39910802E-04
  3.70715226E-03  1.92019331E-03  2.62175254E-03  2.62969823E-03 -1.31824709E-03
  2.00240906E-03 -9.85619685E-05 -6.07429376E-04 -1.48970896E-03  1.27018097E-03
  4.43167678E-03 -8.93919677E-03 -1.25212658E-02  1.49595387E-02  2.92865306E-02
 -1.08350708E-03  4.09218677E-03  1.70103664E-02  1.38524625E-03 -7.86000051E-04
  7.30660726E-04  1.11833911E-04  1.34745447E-03 -1.04601026E-02 -7.04267759E-03
  1.75623490E-03 -2.51735754E-03  2.01669239E-03 -1.66350618E-04 -6.00045792E-04
  1.69675933E-03  5.05098400E-04  1.89486423E-03  6.34687929E-03  1.20725955E-02
  2.36662977E-03 -8.22485398E-04  3.36489530E-03 -1.81917475E-04 -6.93917603E-06
  4.39635066E-03  3.88056701E-03  4.99167618E-04  1.52307307E-03 -3.92189609E-03
 -1.13107217E-02 -6.35184959E-04 -2.84639780E-03 -1.07225522E-02 -1.38920598E-02
  5.78610044E-04 -8.84670034E-03 -1.33644612E-03  9.58137696E-04  5.79004529E-03
  2.79106234E-03 -3.66880667E-03 -1.28820527E-02  4.59558199E-02  3.02057820E-02
  2.54484317E-02 -8.93426755E-03 -2.19366236E-02  3.16632907E-02 -5.89011409E-04
  1.04403386E-02  1.28601146E-03  1.34424877E-03 -1.02879221E-02  4.82415828E-04
  2.36666630E-03  8.32185140E-03 -3.94545195E-02 -4.73710831E-02 -2.56377679E-02
  5.41843979E-03  1.17958601E-01  1.65652221E-02 -2.79193022E-03 -1.55334920E-02
  9.57606299E-03 -4.44073425E-03  7.86649021E-03  5.81865661E-02  1.53379135E-03
  5.38526801E-03 -1.35655246E-02 -2.35785887E-02  1.45063797E-02 -7.19733733E-03
 -6.20587333E-02 -6.22699336E-02  1.53599290E-03  1.30959674E-02  3.54439701E-04
 -3.17147849E-03 -1.74120911E-02  1.33235401E-02 -1.10854530E-03 -4.07011333E-03
  1.63935989E-02  1.10316280E-02 -2.68037443E-03 -2.13528152E-03  5.74435135E-03
  2.56366371E-02  1.13323979E-03 -5.80570732E-03 -1.26816539E-03 -6.33670126E-04
  6.98215878E-03  9.40734862E-03 -2.03981325E-04 -6.72890254E-04  4.21268613E-04
 -5.26285115E-04  5.07779671E-04  3.68500119E-03  4.30055092E-03  3.06054820E-03
  2.57325372E-03 -2.10702385E-03  1.71532648E-03 -2.68744479E-05 -1.08174700E-03
 -1.36727322E-04 -2.02104113E-02 -7.22632585E-02  1.52028628E-01  1.57471904E-01
  2.77800791E-01  4.69659288E-02  4.81123809E-02  9.50316503E-02  1.18265628E-02
 -1.54135991E-02  7.83096379E-03  1.46400950E-02 -5.40183162E-03  3.80306180E-02
 -3.45151665E-02  2.46267943E-02 -3.29243308E-03  2.85340514E-02  2.81768162E-03
  2.18356872E-01  1.12217984E-02  4.07380503E-02 -1.22676796E-01 -6.94543877E-02
 -1.09490736E-03  6.53069735E-04 -1.29425009E-01 -1.38237511E-01 -1.47526347E-03
  1.93967321E-02 -1.16117299E-04 -2.98136730E-04  3.70994352E-02  6.26953925E-03
  1.39238649E-02  4.98868915E-02 -1.51658526E-01 -2.39294469E-02 -3.25882667E-02
 -1.10620352E-03 -8.06403948E-03 -4.99126757E-02  1.98841351E-03  3.76678756E-02
  6.56761348E-05  2.01170654E-04 -2.04123239E-02  2.44416510E-02  1.24500964E-02
  4.35525334E-02 -1.25238533E-01  3.12361633E-02  1.32537823E-02 -6.34871798E-04
  2.01462233E-02 -1.46312817E-03 -3.47160097E-03  3.76776344E-02 -3.25426155E-04
  4.98206006E-04 -2.85644627E-02 -5.45650402E-03  7.47356533E-04  5.45492970E-03
 -2.55714759E-02 -1.56024010E-02  3.82948111E-02  9.73908234E-03 -1.81216078E-01
  1.00331326E-01  8.92541683E-03  3.75030098E-02  6.25276621E-03 -5.21560157E-04
 -6.51599999E-03 -3.64345177E-03  8.18128329E-03  2.90753623E-02 -7.89805486E-02
  7.94759881E-02 -2.69428763E-02 -2.23135335E-03 -1.55898662E-01  1.19438574E-01
 -3.32432286E-03  3.39535587E-02 -3.99872608E-05 -7.17117553E-04 -2.95750597E-02
  1.37266288E-03  1.43432545E-02  5.37799783E-02 -1.86069384E-01 -3.77881855E-02
  3.19546992E-02 -2.61363810E-03 -1.95991769E-01 -1.07136450E-01  1.72544455E-03
  4.37806490E-02 -1.00247645E-04 -3.36695723E-04 -6.73559394E-03 -2.62149273E-02
  4.78550028E-03  1.59442525E-02 -1.22855429E-02  1.20796609E-02  1.41587941E-03
  4.86967706E-04 -7.32091870E-02  2.99847367E-02  1.10588241E-03  4.68297503E-02
  4.34845026E-04  8.94417522E-05  2.23189084E-02 -1.33264392E-02 -7.52870512E-03
 -2.63183307E-02  4.92259913E-02  8.55807641E-02  2.47681515E-02  2.99839424E-02
 -1.41252206E-01 -3.88450447E-03 -1.45420592E-02  7.88908414E-03 -3.21424079E-03
  8.19316711E-04 -3.54451853E-04 -3.02741384E-03  2.44587363E-02  1.79986771E-01
 -2.64201587E-02  4.45259659E-02 -3.92763351E-03  4.31199886E-02  2.01781020E-01
 -1.63965372E-03 -6.03254423E-03  1.88406044E-02  1.13160487E-02 -1.90027343E-04
 -1.01439872E-03  2.03845692E-02 -3.44667284E-03  1.99946601E-04 -2.06683160E-03
 -6.88688532E-05  1.85137150E-04 -5.36317603E-03  6.96849490E-04 -1.51941985E-03
 -5.62857438E-03  1.76542724E-02 -3.47022719E-03  5.33557452E-03 -1.50763365E-03
  2.05511823E-02 -1.00618439E-02 -8.34516959E-04 -4.74226506E-03 -8.26387504E-05
 -1.00626947E-04  1.12243345E-03 -6.33203664E-03 -1.28190149E-03 -4.79945647E-03
  1.55132711E-02 -2.65024580E-05 -4.34185008E-03 -3.22757976E-04  6.34539265E-03
  1.42960794E-02  1.53741276E-03 -6.32027731E-03  3.09116901E-04  5.97591589E-04
 -6.45975927E-04 -8.86072718E-03  2.66649542E-03  8.97678407E-03 -2.50769941E-02
 -3.67526366E-02 -6.52539490E-04  3.75077205E-03  2.31899471E-02 -5.12053963E-04
 -2.75516456E-03  4.91898450E-03  5.84019693E-04  4.74711332E-04 -2.14610434E-02
 -4.37293660E-03 -1.51301492E-03 -5.28003530E-03  1.42952944E-02 -7.23847790E-03
 -3.66614240E-03  8.25227842E-04  6.03532276E-03 -7.30999634E-03  1.60325855E-03
 -6.25810070E-03  2.00715187E-04 -4.52865746E-04  2.14039832E-03  6.11121889E-03
 -2.43831075E-03 -8.72706898E-03  2.70566896E-02 -1.04998962E-03 -2.83109715E-03
 -2.78045421E-04  1.40518619E-02 -4.82814896E-04 -7.22163977E-04 -5.51319195E-03
  7.59756684E-05  1.03972010E-04  1.21215068E-03  4.24762191E-03 -3.40118927E-04
 -1.07772121E-03 -9.13863493E-04 -4.66561407E-03  1.23667859E-03  3.37352244E-04
  1.07836178E-02 -8.65199944E-05 -5.05300218E-05 -6.88502379E-03 -1.19219253E-04
 -3.53394667E-05 -4.51101133E-03 -9.14433609E-04  7.62306072E-03  2.67639591E-02
 -5.25862560E-02  1.54958886E-02 -1.97191955E-02  3.09510492E-03  2.69109895E-02
 -6.41155011E-03  7.92038371E-03  3.74233658E-03 -4.31132615E-05 -1.03283483E-03
 -5.46217121E-03 -2.37350340E-03 -3.07784744E-03 -2.65734792E-02  9.78988749E-03
 -1.03336079E-02  7.29612333E-04 -2.08041008E-02 -2.87814898E-02  1.13396758E-02
 -2.45924629E-03 -8.91792048E-03  2.67522403E-02  1.18253055E-02  2.73191062E-04
  2.90800555E-03  2.66679867E-02  4.05139067E-02  2.16596647E-04 -5.34785799E-03
 -4.53636285E-05  1.51943015E-05 -6.20348077E-03 -4.39075096E-04 -2.76277375E-03
 -9.88700335E-03  2.94274468E-02  5.22799881E-04  3.28322416E-03  2.07668869E-04
 -7.20459609E-03  2.19378775E-02 -6.00453319E-04 -6.13983372E-03 -7.21641229E-04
  4.02061337E-04  3.14817653E-03 -4.79109087E-03 -2.65177496E-03 -9.06633271E-03
  2.41342507E-02 -2.77906741E-03 -1.74600359E-03 -2.87518663E-03 -5.67877820E-03
 -1.63325134E-02  6.82092312E-04 -1.01556503E-02 -3.47690190E-04 -5.49790314E-04
  8.22990233E-03  4.16421649E-04  2.11345227E-04  7.12590461E-04 -1.47599700E-03
  2.22084763E-03 -1.56849624E-02 -4.49313956E-03  1.63588952E-02 -3.23821142E-02
 -3.56037263E-03 -2.06773532E-03 -1.07628144E-03 -5.66992524E-05 -6.55115536E-03
  2.32566095E-03 -2.43383029E-03 -7.93513351E-03  1.71319704E-02 -2.65800090E-02
  1.25429448E-02 -2.72397414E-03  4.92414897E-02 -2.82175458E-02  6.41420641E-04
 -9.85103202E-03 -4.09456983E-04  5.53910001E-04  9.00886883E-03  3.23811007E-03
 -2.80929062E-03 -1.11140208E-02  4.18380711E-02  1.61149946E-02 -8.77483166E-03
  2.18863514E-04  5.16720598E-02  2.95520208E-02 -5.69350446E-04 -8.15487438E-03
 -7.19076453E-04 -3.62641694E-04  1.57703258E-03  8.05792484E-03 -1.37038441E-03
 -4.59749676E-03  5.17584291E-03  3.23282956E-04 -1.04030274E-03  1.06942334E-03
  1.48275792E-02 -8.11083889E-03  5.77056073E-04 -9.40163470E-03  5.71470091E-04
 -8.87247150E-06 -4.06442197E-03  4.89517868E-03  7.70149007E-03  2.69315886E-02
 -5.29292916E-02 -3.92582873E-02  2.24161309E-03 -5.82612383E-03  2.43271904E-02
  4.95245181E-03  6.53520166E-03  3.09466582E-03 -4.82138315E-04  3.06509393E-04
 -9.78169796E-04  2.62021540E-03 -2.80504158E-02 -4.47021709E-02  1.02498613E-02
 -1.51527842E-02  2.10206781E-03 -2.42902324E-02 -5.09180371E-02  1.02717828E-02
  1.77025909E-02 -3.91232294E-04 -1.43672038E-03  4.68585005E-03  2.53535958E-03
  1.31041542E-03  8.47844223E-03  2.62352922E-03  1.25164757E-02 -1.05521047E-04
 -8.21483495E-04 -5.28540861E-05 -5.37441069E-04 -1.80992800E-03 -7.06890061E-04
 -3.08348146E-04 -1.11816651E-03  3.26792512E-03  6.44209485E-04  6.23642942E-04
  2.20145968E-03 -4.66912668E-03  7.87446785E-03 -6.79571353E-05 -2.80253099E-04
 -1.24270003E-03  1.03555202E-03  2.56966272E-04 -8.85535026E-04 -2.20612173E-04
 -8.07440113E-04  2.32223716E-03 -5.38528217E-04 -2.85959612E-03 -2.69726788E-03
 -2.34622020E-03 -7.18967017E-03  2.64059344E-03 -1.72515092E-03 -4.73833422E-04
  1.09570128E-03  2.00675073E-03  4.41321792E-04 -2.29808415E-04 -6.78137272E-04
  1.75387061E-03  6.60692687E-03 -2.92102099E-03  6.45079588E-03 -6.40622368E-03
 -9.19402869E-03 -6.08617872E-03 -2.01866107E-04  3.98589670E-03 -2.63335692E-04
  7.81547291E-04 -1.90307660E-03  1.63908242E-04  5.68084490E-04 -2.57530416E-03
 -1.98064686E-03  1.84327306E-03 -6.51621708E-03  1.51555460E-02 -1.06218185E-03
  1.94443330E-03 -1.26047456E-03  5.85162571E-05 -1.00492316E-03  2.21174160E-03
 -5.48313690E-04 -3.81438464E-04 -1.47212193E-03  5.67207024E-03 -1.34765836E-03
 -1.56403705E-03 -1.73463486E-03  1.16044195E-02  6.32585941E-03 -6.77670842E-04
 -7.15319880E-04 -1.74535160E-03 -1.09273385E-03 -1.49587435E-03  5.56843231E-04
 -1.04179212E-04 -3.40183898E-04  1.26062743E-04 -7.75415791E-04 -3.55448164E-04
  3.50286638E-03  1.90010690E-03 -2.60200394E-03  2.49585185E-03 -1.30572851E-03
  1.90194012E-03  7.83387960E-05 -5.97279490E-04  1.50429778E-03  1.25767662E-03
  4.38633257E-03 -8.84048845E-03 -1.24379548E-02 -1.50075029E-02  2.78474756E-02
 -9.97071246E-04 -4.16436723E-03  1.62394518E-02  1.34168553E-03 -7.88826879E-04
 -7.77383465E-04  8.87627484E-05 -1.33963330E-03  2.78915352E-03 -3.97333524E-03
  7.23933515E-04 -2.12866078E-03  1.02538000E-03 -1.04919988E-02 -6.95802944E-03
  1.74891316E-03  2.51517338E-03  1.91270513E-03 -4.36176268E-04 -1.40213462E-03
  2.83093137E-03 -3.59348612E-03  9.04509944E-05  1.42862232E-05 -2.83458916E-02
 -1.24609865E-01 -1.17992404E-04 -6.60641880E-03 -5.89145463E-06 -2.77122021E-05
 -4.43048841E-03  5.86829245E-03 -2.34023472E-04 -8.19189976E-04  3.74345775E-03
 -4.76494492E-04 -2.05966800E-03  6.26005077E-07  8.22937942E-02 -7.27407087E-02
  1.90952537E-04 -3.21512041E-03  3.93631745E-06 -2.63731362E-05 -8.56007853E-03
  4.27726206E-03 -2.92150300E-06 -1.31096795E-06  4.60290833E-04  3.10459745E-04
  3.47699651E-04  8.09709139E-06  6.91406677E-02  5.54117812E-02 -4.48170091E-04
  1.32492789E-03 -1.16685496E-04 -1.11532895E-04 -1.76765553E-04  1.06605860E-03
 -9.32339043E-05 -3.46155691E-04  1.71663745E-03 -6.11014066E-04 -2.44698091E-04
  2.97989679E-05 -1.66807982E-02  9.80129364E-02  7.84720813E-04  1.59194520E-03
  1.12293396E-04 -2.05538698E-05 -1.22828116E-03 -2.19931610E-03 -9.41308338E-05
 -3.71785968E-04  2.86811424E-03 -5.35343567E-04 -3.17909363E-04  1.56592239E-06
 -9.48111738E-02  6.44113705E-02 -1.79826489E-04  2.83097646E-04 -3.11538064E-05
  3.13363617E-05  1.78748222E-03 -2.66734281E-03  1.79879945E-05  1.49113901E-04
 -2.90732815E-03  1.55783343E-03  1.99091036E-03  1.07942277E-05 -9.97589155E-02
 -8.02250911E-02  6.55389847E-05  2.64579068E-03  1.15214308E-05 -3.55142456E-05
  3.25543147E-04 -4.33820686E-03  6.75963547E-04  2.21225417E-03  1.95482423E-03
  9.26270037E-03  1.16327414E-02 -5.34607128E-05 -8.28401115E-03  2.76454076E-02
  9.57751714E-06  1.50238031E-02  3.03042473E-07  1.55288140E-05  2.11341308E-02
 -1.81025007E-02  8.31988955E-06  5.36321894E-05 -5.48000102E-04  1.97399812E-04
  2.01921083E-04  4.67109923E-05 -1.19965545E-02 -1.23631352E-02 -1.61977403E-03
  6.76223773E-04 -3.81260996E-04 -2.48503915E-04  1.06379625E-03 -5.72937091E-04
 -7.64985873E-04  5.82115039E-03 -1.82958271E-03  5.41799138E-04  2.35762332E-04
 -4.74205409E-05  1.77939792E-02 -1.73703068E-03 -4.21754726E-03 -8.74547810E-04
  1.92135526E-01 -1.44382474E-03 -4.88941854E-03  1.09241470E-02 -1.28162599E-02
  1.04271783E-04  5.22863414E-05 -1.12866516E-01 -4.35260418E-01 -4.20975041E-04
 -2.36697538E-02 -2.18367159E-05 -9.59250934E-05 -1.54814174E-02  2.11861339E-02
 -7.82799702E-04 -2.90642581E-03  1.39388241E-02 -2.00522395E-03 -7.38604947E-03
  2.71018995E-06  2.86640985E-01 -2.50647925E-01  6.82562762E-04 -1.10087997E-02
  1.41868339E-05 -9.19568966E-05 -3.15698355E-02  1.53777448E-02  1.29221635E-05
 -7.73894771E-06  1.87059203E-03  1.06671300E-03  1.32362990E-03  2.94791161E-05
  2.36696675E-01  1.92085977E-01 -1.62543511E-03  4.38203119E-03 -4.23214826E-04
 -4.06736396E-04 -2.81437477E-04  3.67336383E-03 -3.31872988E-04 -1.28458241E-03
  6.41439565E-03 -2.32713147E-03 -8.61805281E-04  1.11607525E-04 -6.08448921E-02
  3.39562210E-01  2.89657413E-03  5.95272047E-03  4.10985424E-04 -7.57260043E-05
 -4.52803095E-03 -7.67368231E-03 -3.15327165E-04 -1.36211294E-03  1.05516415E-02
 -1.92169176E-03 -1.23286138E-03  7.00197271E-06 -3.31083159E-01  2.26286701E-01
 -6.88570974E-04  8.49433562E-04 -1.26159496E-04  1.26831948E-04  6.58714169E-03
 -9.67432145E-03  8.37862795E-05  5.45785670E-04 -1.01590233E-02  5.48484290E-03
  7.11772883E-03  3.71999741E-05 -3.45797915E-01 -2.85866260E-01  2.36908876E-04
  9.67057553E-03  4.00483199E-05 -1.26575543E-04  4.55861201E-04 -1.58524348E-02
  2.28640778E-03  7.34030569E-03  7.83037165E-03  3.21030696E-02  3.97257804E-02
 -1.91221180E-04 -3.67071757E-02  9.21107068E-02  3.86105711E-05  5.18027104E-02
 -2.07227763E-07  5.61470002E-05  7.34292961E-02 -6.09948131E-02  1.93173300E-05
  1.75622890E-04 -1.98783559E-03  7.17640796E-04  6.97926392E-04  1.78078011E-04
 -4.41500285E-02 -4.26879288E-02 -5.94169355E-03  2.47316017E-03 -1.40111019E-03
 -8.41844293E-04  4.05645145E-03 -2.01150534E-03 -2.70689137E-03  2.25754972E-02
 -6.71322817E-03  2.33392282E-03  7.60416783E-04 -2.27124657E-04  6.39510526E-02
 -6.32797884E-03 -1.50980321E-02 -3.10442789E-03  4.60503586E-01  1.11727371E+00
  5.28459321E-03  1.98795253E-02 -5.01832392E-02  6.24483244E-02  6.47117373E-03
 -2.95011499E-04  5.95485372E-01  1.81643821E+00  1.86220894E-03  1.06237320E-01
  9.50197654E-05  4.09309613E-04  5.86633144E-02 -9.71305993E-02  3.00471067E-03
  1.24985269E-02 -6.53957281E-02  1.33942317E-02  3.52866340E-02 -4.67289560E-05
 -1.18070792E+00  1.01352971E+00 -3.04548699E-03  4.31088050E-02 -6.15755120E-05
  3.74003193E-04  1.45952859E-01 -6.83293983E-02 -2.53974652E-04 -7.45432903E-05
 -9.18715676E-03 -5.68274866E-03 -6.89083475E-03 -1.18025839E-04 -9.39221316E-01
 -7.85549960E-01  7.44825908E-03 -1.67006039E-02  1.93582023E-03  1.87532038E-03
 -1.40600929E-03 -1.53953065E-02  1.54638410E-03  6.29740024E-03 -3.10295375E-02
  1.23479976E-02  3.88215204E-03 -5.12014058E-04  2.82018665E-01 -1.39077937E+00
 -1.37781926E-02 -2.90456749E-02 -1.95127297E-03  3.58143559E-04  2.22583321E-02
  3.18690018E-02  1.30135486E-03  6.39487992E-03 -4.84847602E-02  8.45990694E-03
  6.67796991E-03 -7.69531359E-06  1.38312901E+00 -9.53989840E-01  3.54711014E-03
 -2.89432615E-03  7.14997615E-04 -7.14328781E-04 -2.95446436E-02  4.35449960E-02
 -9.42765330E-04 -3.93793605E-03  4.60021023E-02 -2.51815738E-02 -3.63384492E-02
 -1.75200926E-04  1.42510021E+00  1.23456739E+00 -1.13712246E-03 -4.56831329E-02
 -1.62513090E-04  5.63019812E-04  3.93662556E-03  7.29091630E-02 -5.22779484E-03
 -1.46509906E-02 -6.78150548E-02 -1.23166124E-01 -1.34044950E-01  9.32384420E-04
  2.18812451E-01 -3.52000485E-01 -1.98952977E-04 -2.14183525E-01  5.13842223E-06
 -3.04199624E-04 -3.06752896E-01  2.31562455E-01 -1.06058528E-04 -9.73796129E-04
  9.55665067E-03 -4.08347975E-03 -2.94361475E-03 -8.98122386E-04  2.08230957E-01
  1.73732960E-01  2.79316692E-02 -1.16257987E-02  6.57222496E-03  3.28065790E-03
 -2.02373556E-02  8.34782252E-03  1.17486959E-02 -1.18655682E-01  3.14633760E-02
 -1.45499541E-02 -2.49304964E-03  1.52559275E-03 -2.87380230E-01  2.94457833E-02
  6.70145695E-02  1.35184543E-02 -1.36681229E-01 -5.00274213E-01  2.30030416E+00
  9.72571328E-03  3.39170808E-02 -1.09841120E-01  1.38525275E-01  3.75545788E-02
  1.18249674E-04  1.00575163E-01 -1.80591448E-01  2.62842151E-04  1.68467652E-02
 -1.28719426E-04  1.21156887E-05 -7.95369408E-03  4.09016481E-02  3.81316751E-03
  1.30897924E-02 -3.24376964E-02  4.17980304E-02  1.14345589E-02 -8.12376164E-06
  1.73329496E-01 -2.09167073E-01  5.63528302E-04  2.75162744E-03  7.52376027E-05
 -1.26192394E-04 -4.53113278E-03  2.35863037E-02 -1.18207958E-03 -4.18078587E-03
  1.40109767E-02 -1.24785429E-02  9.80811846E-04  2.44016569E-05  1.34634649E-01
  9.48274568E-02 -7.34395331E-04 -2.01881350E-03 -1.04928345E-04 -1.65577023E-04
 -2.97574553E-03 -4.59910674E-03  7.29546257E-04  2.58591238E-03 -1.02665563E-02
  6.71422441E-03  1.87182286E-03  1.18097056E-05 -2.18242604E-02  1.57575200E-01
  9.15896591E-04  3.02551333E-03  9.19495257E-05 -1.94851601E-05  1.75744988E-03
  9.95805758E-04  1.61564578E-03  5.58289006E-03 -1.65598572E-02  2.37995827E-02
  3.12488625E-03 -5.14264624E-05 -1.24096218E-01  1.30081274E-01 -8.77180289E-05
 -1.26179041E-03  7.83981623E-06  2.82131408E-05  3.61733695E-03  3.66056551E-03
 -4.00791666E-03 -1.43508165E-02  5.28408690E-02 -3.88687561E-02 -4.32252378E-02
 -6.95989016E-05 -1.90137355E-01 -1.64329169E-01 -1.69191055E-04  1.79101959E-03
  5.57043166E-05 -8.56054056E-06 -8.58880055E-03 -3.63928171E-03 -1.22677042E-02
 -4.29296528E-02  8.85843565E-02 -6.96593747E-02 -2.28850463E-01 -2.40904031E-04
  5.36956535E-02  5.12844663E-02  9.03859655E-05  8.64415222E-03 -2.07780881E-04
  7.14629707E-05 -1.77629529E-01 -9.72336590E-02 -7.84464724E-05 -2.43088397E-04
  5.46517549E-05 -2.84790588E-03 -1.24274247E-03  9.45558417E-05 -1.40345193E-02
 -1.86941472E-02 -1.83934648E-03  1.31421071E-03 -5.01882547E-04 -3.21936000E-04
  4.87053680E-04 -1.70002036E-03  2.41174016E-04  6.92189689E-03 -3.15186244E-03
 -1.27631066E-04  4.25717845E-04 -1.08791486E-03  1.89562377E-02 -7.68901392E-04
 -5.89100302E-03 -1.04053415E-03  1.16997077E-02  4.17915321E-02 -2.01873923E-01
  1.01024017E+00  6.92177444E-04  2.18673284E-03 -2.21705254E-02  2.67305206E-02
  8.78929839E-03  2.37815004E-05 -9.37231215E-02 -4.83853725E-01 -1.86607216E-04
 -2.16130810E-02 -9.54758287E-05 -1.50117345E-04  4.64103950E-03  8.96569250E-02
 -2.28330350E-03 -8.19557808E-03  3.08914640E-02 -1.94467520E-02 -2.83129155E-02
 -7.58880922E-07  2.14063967E-01 -1.06653299E-01  2.41103014E-04 -1.44970878E-02
 -5.38987565E-05  2.24361410E-08 -4.01507356E-02  1.39530468E-02  1.08112511E-03
  3.72018743E-03 -1.01827157E-02  1.34444706E-02  2.73745906E-03 -7.57957454E-05
  1.85768979E-01  1.15839263E-01 -9.50028455E-04  7.33740148E-03 -2.47860296E-04
 -2.04883065E-04  1.86838946E-03  1.44301556E-02 -3.73822345E-04 -1.34641093E-03
  5.20894344E-03 -2.09392334E-03 -8.96797704E-03  7.41398649E-05 -3.40749667E-02
  2.63275366E-01  1.74018294E-03  4.47572166E-03  3.30802095E-04 -9.86462640E-05
 -4.05678720E-03 -3.32337997E-03  1.18254311E-05 -1.48373857E-04  2.34874987E-03
  2.67078260E-03  1.55878484E-03  5.21589436E-05 -2.46717864E-01  1.25838908E-01
 -3.33847874E-04 -7.49153607E-03 -9.08472297E-05  7.83017369E-05  1.77308937E-03
  4.24118409E-03 -3.22978479E-04 -1.13164705E-03  1.01051748E-02 -6.53117315E-03
 -9.38917101E-03 -6.36286119E-06 -2.41708505E-01 -1.02423870E-01  2.47936859E-04
  2.55989893E-02  1.19829997E-04 -6.37661284E-05  1.09258654E-02 -1.33599960E-02
 -2.62036506E-02 -9.30044883E-02  2.09061847E-01 -2.37576110E-01 -3.22088403E-01
  1.07987354E-04  5.32972400E-03  2.27595004E-01 -1.68109517E-04  3.34520710E-02
 -2.04308670E-05  5.23756183E-05  7.88474430E-02  1.29776278E-01  1.94989881E-04
  7.79890299E-04 -2.87570702E-03  2.52521617E-03  6.78641084E-04 -6.73961661E-05
 -2.34690647E-02 -4.04736501E-02 -3.62409156E-03  1.21180271E-03 -6.95689924E-04
 -1.12606093E-03  1.58093403E-03  1.49228668E-03 -2.43918164E-03  3.54239346E-03
 -1.58926453E-03 -3.24076108E-04  9.22956139E-04  1.08792908E-03  4.60313075E-02
 -5.86833135E-03 -9.79151098E-03 -2.06504138E-03  1.86890398E-02  6.64146232E-02
 -3.20594814E-01 -1.95886697E-01  7.60519270E-01 -1.74721349E-06 -2.10409169E-06
 -1.01484492E-04 -1.32103277E-04 -1.13124438E-04 -1.47081245E-01  1.64238520E-04
  2.97158711E-03  1.29318749E-02  5.42688547E-04 -3.88059195E-02  3.68194135E-02
 -1.08738571E-06 -4.03566306E-04  5.08512381E-06  1.59959994E-05 -1.59300791E-04
  3.47495493E-06 -7.23268249E-05 -7.17747138E-02 -2.44993848E-04  1.73098995E-03
 -1.78987558E-02 -8.69883023E-05  2.42741218E-02 -7.62151049E-03  3.81834674E-04
 -1.29813448E-04  5.15046134E-06 -1.08990134E-06  6.65252404E-04  1.14694708E-04
  9.00011421E-05  4.46858071E-02 -4.03089837E-03  2.98415934E-03  1.35330514E-02
  5.74942040E-04  1.74927874E-02  6.94225275E-03 -5.36069873E-04 -2.95286476E-04
  9.26848229E-05  3.06094155E-04 -1.16596434E-03 -1.20402870E-03  3.50807993E-05
  7.67034260E-02  1.27519701E-02 -1.55420959E-03  1.80917273E-02  6.01636276E-04
 -2.34130225E-02  4.74070285E-03  9.34061474E-04 -4.72886975E-05  2.04059274E-06
 -1.31897575E-05  7.75314135E-04  1.04115702E-04 -1.57160344E-04  7.21590572E-02
 -1.58923682E-03 -5.50339769E-03  9.29645671E-03  5.91109628E-04  1.54341896E-02
 -9.66283310E-03 -5.99247768E-04  3.05132118E-04  1.17758942E-05  3.33382085E-05
 -7.30203144E-05  1.36742867E-04  2.54321638E-04 -7.13889524E-02  2.25608408E-03
  2.58454672E-03 -2.55365244E-02 -2.10638991E-04  2.47734930E-02  2.65926986E-02
  3.26679173E-05 -3.68921739E-05 -3.90910916E-06 -1.32641419E-05  8.23147054E-06
 -7.80538142E-05  2.04957352E-04  3.02367956E-01  7.56689659E-04 -2.31593422E-04
 -1.09891488E-02 -2.13805363E-04 -4.52242345E-02 -1.42092193E-01 -1.17166259E-04
 -1.28107177E-04 -7.16585782E-04 -2.58736279E-03  5.88250403E-03  5.18308375E-03
 -6.81169220E-05 -8.16389762E-02  3.49773614E-03  3.11054085E-04 -4.33657713E-02
 -1.46581098E-03 -9.36094891E-03  5.98348533E-05 -7.54095448E-04 -6.73814396E-05
 -4.14334463E-03 -1.44466208E-03  2.20426822E-04  1.32203304E-03 -4.35864278E-03
 -4.05386596E-03 -1.72732498E-03  3.97451085E-04 -1.31440117E-03 -4.77301480E-03
 -5.45461500E-05 -1.99110905E-04  1.15936246E-03  1.48082266E-05 -2.08413916E-04
  8.66180699E-01  2.96255674E-03  1.02516553E-02 -3.13783075E-02  3.11897997E-02
  3.44096069E-02  2.61906085E-05  5.98096145E-02  1.32974592E-01  1.73010575E-04
  7.94463816E-03 -3.64558685E-05  4.09776573E-05  8.94853889E-03  1.71597959E-02
  3.83164248E-03  1.29706672E-02 -3.77483646E-02  1.80308240E-02 -1.35044059E-02
 -3.39021510E-05 -8.78667836E-02  5.27249904E-02  4.99423942E-05  7.56547013E-03
  1.24198426E-05  1.38747500E-05  9.00041779E-03  6.74817219E-03  4.38301473E-04
  1.37776191E-03 -1.83410407E-03 -2.85781546E-03  1.60224116E-03 -5.07267955E-05
 -8.04326628E-02 -7.22350633E-02  1.24338554E-04  5.64788531E-04  8.07521449E-05
  5.96674897E-05 -2.00029897E-03  1.19445012E-03  4.78072059E-04  1.69971048E-03
 -5.43295046E-03  4.28750292E-03 -7.09145766E-04  1.15502436E-04  1.64490214E-03
 -1.09881022E-01 -1.23840802E-04  1.18906907E-03 -4.71478163E-06  4.91239171E-05
  4.95607244E-04  3.67973600E-03  8.66515076E-04  3.10419179E-03 -1.10221755E-02
  1.23813776E-02  4.55101080E-03 -5.38872807E-05  1.01439413E-01 -6.58566749E-02
 -1.10589318E-04 -4.29902469E-04 -3.47796929E-05  4.23018033E-05 -6.63954590E-04
  7.65569350E-03 -2.54488127E-03 -8.95978156E-03  3.46963767E-02 -2.58919263E-02
 -2.48250121E-02 -1.15950914E-04  8.12465340E-02  8.04489948E-02 -4.07628368E-05
 -3.70974767E-03  2.06389561E-05  6.03248467E-05 -5.75779202E-03  8.89080326E-03
 -7.37536383E-03 -2.50641056E-02  4.47763570E-02 -8.72903792E-03 -1.57864190E-01
  3.74620914E-05  2.87307122E-02 -4.18231587E-03  2.95911643E-05 -6.42920334E-03
 -8.60480302E-05 -6.62594423E-06 -7.39571777E-02  7.81668593E-04  6.51287299E-05
  2.29228910E-04 -4.32143266E-04 -1.65519114E-03 -1.30075282E-03  3.23088214E-04
  8.97413595E-04  1.36362070E-02  2.60262921E-04  2.68825176E-04 -5.92284752E-05
  2.36919025E-04 -6.31706236E-04  6.00596545E-04  5.01379643E-04  7.13507417E-03
 -8.73667587E-05  1.90326452E-03 -6.03022489E-04 -1.28858045E-03 -8.53220492E-03
  3.65811900E-04  2.42001360E-03  8.20173235E-04 -7.37208899E-03 -2.70618835E-02
  1.14296074E-01  3.88420347E-01 -7.17904277E-02  2.90028613E-04  1.77692994E-01
  3.37994882E-04  8.07968244E-04 -6.26020563E-03  2.64051594E-02  5.00907948E-03
 -5.29739777E-05  6.65549749E-02 -5.37899311E-02  2.87881391E-04  2.93865430E-03
 -5.67550719E-05 -5.33456829E-06  1.96522428E-02  3.44149884E-02 -1.09746322E-03
 -4.08781833E-03  1.54674380E-02 -1.06289333E-02 -2.81452875E-03 -5.00939269E-05
 -1.08919332E-02  3.89231970E-02 -3.98398529E-04 -5.30040556E-03 -3.38519117E-05
  2.05659040E-05 -1.97912953E-04 -8.36813822E-03 -4.19398408E-04 -9.06594903E-04
 -1.55002164E-03  8.17498716E-03  1.52052276E-03 -9.27574766E-05  7.14752173E-03
 -1.35060808E-02  8.12279217E-04 -1.55343855E-04  1.98796574E-04  2.17369093E-04
 -3.00346370E-04  2.27996675E-03 -2.22932097E-04 -6.47848459E-04  1.05050098E-04
 -2.43337571E-03 -6.12010574E-03 -9.31112604E-05  4.15932657E-02 -1.32679531E-02
 -1.72411934E-03 -4.59208178E-03 -1.59870708E-04 -1.08167678E-05 -1.27908037E-04
  1.77657935E-03 -2.78877608E-04 -7.46888475E-04 -1.44008772E-03 -1.21731928E-03
 -7.80200147E-04  8.71960532E-05  3.28968288E-02 -4.76779295E-02  7.22865595E-04
 -5.85441694E-03  1.37616409E-04 -1.64749323E-04 -2.99659309E-03  1.02126144E-02
 -6.16405835E-04 -2.33757219E-03  1.54557174E-02 -3.48405482E-03 -1.87018635E-02
  6.20626972E-06  3.35504949E-02  9.33640829E-02 -1.71919821E-04  6.02061686E-03
  5.40113840E-05  5.83983622E-05  1.12366979E-02  9.11782369E-03 -1.93348186E-02
 -6.70235057E-02  1.27267676E-01 -1.26926428E-01 -1.69019373E-01  2.98198774E-04
  5.02563136E-02  7.70670414E-02 -1.38683656E-04 -1.88234859E-02 -5.75862305E-05
 -7.14539586E-05 -2.68161222E-02  9.07966075E-02  2.76172460E-05  1.17006234E-05
  8.41829256E-04  1.73452385E-03  3.97423042E-04 -3.48486462E-04  2.82156540E-02
 -1.93702985E-03  3.54827161E-03 -2.11741374E-03  1.03341069E-03 -1.90932056E-04
 -2.01415096E-03  1.99743138E-03  9.86570137E-04 -2.88104361E-02  5.02855276E-03
 -5.33993453E-03  5.99763271E-04  2.26021896E-03 -2.54712457E-02  2.68425467E-03
  5.96579801E-03  8.02107046E-04 -8.03665273E-03 -3.08996287E-02  1.37658710E-01
 -6.80386786E-02  3.34014010E-01  2.96994639E-04 -3.17578034E-03  1.94554256E-01
 -2.83577192E-06 -9.04093994E-06 -4.01907876E-05 -1.28251894E-04 -7.16304510E-05
 -7.58278618E-02 -2.57232334E-04  3.89713154E-04  6.19883437E-03  2.21105350E-04
 -1.74470729E-02  1.50793531E-02  1.25795484E-06 -8.96636704E-05 -3.02550778E-06
 -1.34331788E-05  1.36757303E-05  1.95338091E-05 -8.51575679E-05 -3.54829216E-02
  5.57608034E-04  1.85133453E-04 -9.25681663E-03 -9.64106493E-05  1.23765960E-02
 -5.18384061E-03  1.30823104E-04 -3.07200008E-05  1.33586092E-06 -6.98821552E-06
  4.00349042E-04  2.64273058E-05  4.90002576E-05  2.63339616E-02 -1.73740100E-03
  2.25533647E-03  6.44090568E-03  3.32091081E-04  8.89547478E-03  3.73391770E-03
 -3.04207030E-04 -1.67267677E-04  5.22499442E-05  1.73453256E-04 -6.68516119E-04
 -7.07424660E-04  2.53174701E-05  4.08525633E-02  7.13019431E-03 -5.82895456E-05
  1.05548538E-02  3.41209670E-04 -1.29192144E-02  2.40034180E-03  5.04464841E-04
 -4.24870405E-05 -2.63667107E-07 -1.21455482E-05  4.44291712E-04  4.78686638E-05
 -1.03285826E-04  4.13189368E-02 -1.70084275E-03 -2.51703417E-03  5.41149938E-03
  3.25476705E-04  7.49967383E-03 -4.79374395E-03 -3.17248471E-04  1.54166253E-04
  4.84028631E-06  1.08759288E-05 -1.74433879E-05  6.88358860E-05  1.80741645E-04
 -3.08284159E-02  4.63278696E-04  5.69215686E-04 -1.15630006E-02 -1.10698576E-04
  1.31290719E-02  1.26951337E-02  4.97570720E-05 -4.50424200E-05 -1.86888746E-05
 -6.77035060E-05  1.75763615E-04 -7.35689418E-05 -8.81269663E-05  1.33226598E-01
  2.89615704E-04  1.12537486E-04 -7.26253925E-03 -5.06585751E-06 -2.23467176E-02
 -5.58609868E-02  1.07468705E-04 -1.30016102E-04 -4.03252268E-04 -1.45497325E-03
  3.30345395E-03  2.86321156E-03 -7.10061637E-05 -4.60963334E-02  1.97631265E-03
  4.63332631E-05 -2.45469464E-02 -8.66002404E-04 -4.96628708E-03  2.96737412E-05
 -3.66078818E-04 -4.14419868E-05 -2.29466013E-03 -7.92735746E-04  7.38326808E-05
  6.98593175E-04 -2.37348307E-03 -2.28270333E-03 -8.44234016E-04  1.54316445E-04
 -7.13982075E-04 -2.53734109E-03  4.31625000E-05  1.50479579E-04 -5.48403259E-04
  2.03967670E-04  2.98957829E-04  3.61323024E-01  1.31559011E-04  1.82572359E-04
  1.52049732E-01 -9.29691469E-04 -2.86902096E-03  7.17285015E-03  6.73427158E-03
 -9.62275230E-04  1.09316298E-04 -1.25695056E-02 -9.22627350E-02 -5.11773386E-05
 -5.62466618E-04  2.39991974E-05 -3.86131574E-05 -9.58064936E-03 -3.50967727E-06
 -5.37469930E-04 -1.77849948E-03  5.13519759E-03 -2.19047931E-03  6.19880505E-03
  3.86283379E-05  7.61189190E-02 -6.18388425E-02  6.34940823E-05 -3.17319384E-03
 -1.84750336E-05 -2.35564196E-05 -6.07910112E-03  1.02796236E-03 -3.12872767E-05
 -1.51396502E-04  2.00115529E-04  1.20626825E-03 -1.55771896E-04 -2.80521839E-05
  6.32041938E-02  4.92664029E-02 -1.21968232E-04 -1.96177868E-04 -5.52228710E-05
 -4.96187980E-05 -4.50189086E-05 -1.04351846E-03 -1.02563274E-04 -3.56524215E-04
  1.01815929E-03  5.66936657E-04 -1.64729601E-04 -5.18545372E-05 -2.15932194E-03
  7.71653238E-02  1.53946146E-05  1.02023854E-04  2.71429325E-06 -2.18771443E-05
  3.56847327E-04 -1.69880472E-03 -9.15486733E-06 -1.05143147E-04  9.20007162E-04
  1.08071183E-03  7.17674425E-04 -4.54362882E-05 -6.62253687E-02  5.22537746E-02
  1.03663468E-04 -3.50147473E-04  1.77945291E-05 -2.12040164E-05  1.72674856E-03
 -2.20401722E-03 -1.22298341E-04 -4.37935869E-04 -1.21522246E-03 -1.43782350E-03
 -9.81582053E-04  6.56137004E-05 -6.76758541E-02 -7.25160731E-02 -5.18933337E-05
  4.28062239E-04 -2.12686047E-05 -4.75506304E-05  3.22429852E-04 -2.24712768E-03
  4.29539586E-03  1.46566524E-02 -2.73863552E-02  8.90759990E-03  3.65603451E-02
 -2.10959724E-04 -7.23401453E-03  9.18301517E-03  2.59472557E-05  2.56495960E-03
  4.75324020E-05  1.17853177E-04  7.40509842E-03 -2.10196442E-02 -4.67054748E-05
 -1.49193534E-04  1.60705292E-04 -6.94381424E-04  2.39965139E-04  5.19419168E-05
 -1.39292198E-03 -9.30971176E-03 -8.50946646E-05 -7.05368339E-05 -6.61537720E-05
 -1.56348955E-04  1.61972125E-04 -5.86138592E-04 -4.06382144E-04 -3.67399336E-03
 -2.78595763E-04 -1.19943799E-03  4.34980444E-04  1.77771854E-04  5.22428375E-03
  5.22695182E-05 -1.75654897E-03 -4.48334854E-04  5.39523315E-03  1.90625478E-02
 -7.81924630E-02 -1.06563052E-02 -2.98461453E-02 -7.27872841E-04 -1.62292449E-02
 -2.61809674E-02 -2.88251609E-04  7.95175004E-03 -7.30957300E-06 -2.51525632E-05
  7.48237382E-05 -1.17298717E-04 -2.08833177E-05 -3.17464564E-03 -1.16340866E-05
  3.30184996E-04  8.56022105E-04  5.35991508E-06 -3.20054878E-03  2.24147843E-04
  8.69295290E-06 -3.60686006E-05 -3.34811864E-06 -1.10755604E-05  2.27249769E-05
 -1.35038549E-05 -2.52912348E-05 -3.16841651E-03 -2.12080718E-04  2.54345895E-04
 -7.90911607E-04  5.75036941E-06  9.40455128E-04 -2.49441214E-04  1.78960797E-05
 -2.03448010E-05  2.19696671E-06  6.66006764E-06 -2.92008380E-06 -1.19821244E-05
 -7.68263142E-06  1.16055863E-03 -2.31215308E-04 -9.25934226E-05  5.48025156E-04
  7.61133058E-06  6.47191628E-04  3.13767124E-04  2.33465346E-06  4.90053745E-06
  1.36130614E-06  4.18921571E-06 -1.11273606E-05  6.57237242E-06  6.02304941E-06
  2.52114526E-03  2.41265167E-04 -2.59201085E-04  1.61073742E-04  1.43134584E-05
 -6.07704947E-04 -4.31048369E-05  3.33660525E-05 -1.75825232E-06  1.23532402E-07
 -1.35845095E-07  1.58335478E-05 -2.00900090E-05 -3.15697876E-06  7.49681459E-04
  2.05264523E-04 -2.42599834E-04  3.98765004E-04  1.02489593E-05  7.05367957E-04
 -3.41093857E-04 -6.50823855E-06 -2.53110616E-06  2.40678888E-06  8.55413068E-06
 -3.05216124E-05  2.65463141E-05  3.65759996E-05 -3.75605707E-03  3.04521654E-04
  2.38685441E-04 -9.20418689E-04 -6.29984483E-07  8.57272478E-04  4.02638443E-04
  2.73765719E-06  7.82439589E-06  6.13511048E-06  2.09249598E-05 -4.35788042E-05
  6.95465362E-05  1.07676908E-04  2.86007253E-02  2.00349827E-05 -6.29842553E-05
  1.17267628E-03 -4.46136573E-05 -2.08671357E-03 -1.17761008E-03  9.87916321E-05
  7.45498591E-05 -1.17385902E-05 -4.21262380E-05  9.55534580E-05  8.78133346E-05
 -2.30100800E-05 -1.43847464E-03  5.71305192E-05  2.23890104E-05 -6.84312578E-04
 -9.41025150E-06 -3.35643437E-04  5.18522833E-07 -3.65240773E-05 -1.84358296E-06
 -8.53562072E-05 -5.37814745E-05  3.06417592E-05  3.83752392E-05 -1.23943070E-04
 -1.09412001E-04 -8.00182105E-05  3.04424680E-05 -2.96115960E-05 -1.15298776E-04
 -1.82980628E-05 -6.55067121E-05  3.05483609E-04 -6.10769200E-04  9.50827196E-05
  2.52633397E-02 -2.08569945E-04  5.92755249E-05  1.12474836E-02 -1.95961315E-05
  1.66576070E-03 -4.80747507E-06 -1.62148686E-05  5.05579347E-05 -1.77766995E-05
 -1.87281253E-05  7.34384633E-03  2.12896284E-04  3.27255276E-04  1.14405520E-03
  3.40580364E-06 -4.81102049E-03  1.32694830E-03 -1.37143995E-05 -6.02020591E-05
 -1.74620658E-06 -6.22755147E-06  1.44329532E-05  6.57276628E-06  3.24578611E-05
 -1.07911402E-03 -9.39634805E-05  9.40691868E-05  2.43123943E-04  1.54504808E-05
 -2.35068140E-05  1.32577111E-03  2.87161043E-05 -2.37092559E-05 -2.14794055E-06
 -6.88773360E-06 -5.36417452E-06 -1.82756094E-05 -6.78458837E-06 -3.19341551E-03
  7.09507767E-05 -2.16941649E-04  1.82949264E-04 -3.61809531E-05  7.98842028E-05
 -6.54782696E-05  3.19839345E-05  1.68797975E-05 -7.39507129E-06 -2.52307174E-05
  8.93646006E-05  9.37726057E-05 -1.77104644E-06 -1.26556851E-03 -3.31041129E-04
 -1.64515870E-04 -1.11617893E-03 -3.26361882E-05  4.81127958E-04  1.34394215E-04
  3.71191246E-06  1.07465062E-06 -1.60653211E-06 -5.17998199E-06 -6.62574888E-06
 -3.14593006E-05  9.77896660E-06 -2.50776927E-03  3.36173071E-04  4.13588966E-05
 -3.14799480E-05 -2.76572161E-05  6.30661375E-05 -2.90016371E-05  3.20949822E-05
 -2.96660060E-05 -3.04305609E-06 -1.17967613E-05  4.00991646E-05  1.59114582E-05
  9.36341502E-06 -1.51835303E-03  1.77774315E-04  1.07253841E-04 -1.06853399E-04
 -9.14380790E-06 -4.43421213E-05 -6.07584562E-04 -9.07696328E-06  1.52321260E-05
  9.75295534E-06  3.46127815E-05 -8.85012194E-05  1.27085416E-04  1.78633246E-04
  4.79834453E-02  9.04599694E-05 -1.17393308E-04  4.34691734E-03 -9.56505422E-05
 -1.01338060E-03 -5.41378076E-03 -6.48105488E-05 -8.44750635E-05  2.52836032E-05
  9.24946157E-05 -2.14858670E-04 -2.17082637E-04  6.83933205E-06  2.89959146E-03
 -6.94858092E-05  3.29269760E-05  1.77732947E-03  7.23329383E-05  5.55080662E-05
 -1.22025641E-06 -1.30578714E-05 -7.45933785E-07  1.00065865E-04 -6.84670830E-05
  3.53460356E-05 -4.36695478E-05  1.09830941E-04  1.11231015E-04 -9.99132980E-05
  4.44515397E-05  4.72192172E-05  8.27105725E-05 -2.04940135E-05 -7.38460642E-05
  3.62057293E-04  8.41630674E-05 -4.17703101E-04  4.95845632E-02  5.14591542E-05
 -1.40138120E-04  2.10029618E-02 -2.28330620E-05  2.57592120E-03  4.65356897E-03
  2.56558893E-04  7.55873501E-04  1.13373722E-04 -1.27203089E-02 -2.21339210E-03
  1.69211110E-05 -2.72954265E-02 -2.45218461E-02 -1.12946650E-04 -2.29488213E-03
  1.51460087E-05 -7.32891775E-06 -4.31367833E-03  8.98320314E-04  1.04145782E-03
  3.37997830E-03 -9.05261667E-03 -4.94812904E-03 -5.74877007E-03  1.05035977E-05
  1.51654783E-02 -1.57389471E-02  1.77187328E-04  8.56244984E-04  1.17697678E-05
 -4.39500643E-06 -3.88225177E-03  4.21259809E-03  5.94961712E-04  1.97199038E-03
 -4.91392152E-03  5.17031873E-03  2.59594588E-04  2.10134177E-06  7.18990531E-03
  6.47723423E-03 -4.03723125E-04  1.46696275E-03 -8.97152447E-05 -9.95108533E-05
 -1.44374153E-03  1.01284703E-03 -1.88175745E-05 -1.44264659E-04  1.71627480E-03
 -1.17465167E-03 -1.26420154E-04  1.93899108E-05 -1.82259275E-02  1.91069752E-02
  8.65147865E-04  2.36208475E-03  1.06715330E-04  1.90681381E-06 -1.59391347E-03
 -2.00813359E-03 -1.81352209E-04 -7.46755015E-04  4.01852468E-03 -2.33980247E-03
 -4.93358074E-04  3.35281596E-07 -2.78211945E-02  2.07872497E-02 -3.43970956E-04
  1.02552948E-03 -7.24777987E-05  8.12348653E-05  1.01334977E-03 -2.49000435E-03
  1.94409864E-04  7.40989344E-04 -4.29992314E-03  4.61951258E-03  5.81502480E-03
  1.63860600E-05 -3.03232980E-02 -3.38070389E-02  1.14978459E-04  3.04372136E-04
  6.23111236E-07 -2.27991412E-05 -8.77898099E-04 -3.29425129E-03  4.97265199E-03
  1.69876455E-02 -2.97327039E-02  4.02303019E-02  6.93948360E-03 -8.91520538E-05
 -1.71949246E-02  7.96285833E-05  3.57654091E-05  8.71624513E-03  3.56151113E-06
  2.16239426E-05  1.02594421E-02 -1.27250487E-02  1.08366194E-04  4.10634606E-04
 -1.23206094E-03  8.87716083E-04  2.18336007E-05  2.25079738E-05 -1.29750822E-02
 -1.59374107E-03 -1.76887002E-03  8.89354595E-04 -4.44533127E-04  1.39287440E-05
  9.80901044E-04 -2.92914537E-04 -6.31785885E-04  1.21794371E-02 -1.92694593E-03
  2.43337700E-03 -2.09697988E-04 -4.24801306E-04  1.38355104E-02 -1.55654829E-03
 -2.89171549E-03 -4.83791953E-04  4.04845856E-03  1.45444112E-02 -6.22437051E-02
  2.36945409E-02 -4.69071792E-02 -7.82655610E-05  5.08640329E-03 -3.35547919E-02
 -2.34055289E-05  4.76352716E-03 -2.03595886E-05  1.10365445E-05  8.54793424E-03
 -1.38651854E-03 -4.70604831E-03  1.25541321E-02 -1.77190707E-02  2.22360256E-03
  8.26527122E-05  1.87777362E-02 -2.57080148E-02  7.59692269E-05 -3.57760858E-03
 -3.41433411E-06  8.69965169E-07  1.82826044E-02  9.28572394E-03  4.90355739E-04
  1.60402675E-03 -4.31352250E-03  9.07757917E-03  8.76124058E-04 -8.86930380E-06
  6.84398652E-03 -1.89837826E-02 -9.64262177E-05 -1.42486685E-03 -3.16065348E-05
  3.48134075E-06  4.52318720E-03 -6.74627564E-03 -8.35014558E-04 -2.84396963E-03
  8.66387134E-03 -3.98203369E-03  8.34935990E-04 -5.61352960E-05  1.03900639E-02
  1.53172797E-02  2.69753219E-04 -3.90637829E-04  3.81458003E-05  7.46483317E-05
 -1.09056273E-03 -1.34519520E-03 -3.91692733E-04 -1.39756625E-03  4.00104605E-03
 -8.36977781E-04 -5.81778054E-04  6.67581128E-05  1.47741801E-02  1.21504950E-02
 -6.03380939E-04 -3.36287502E-03 -7.64794996E-06 -2.10312052E-06 -1.27731886E-03
  2.67963538E-04 -5.29442523E-04 -1.84072012E-03  5.41153554E-03 -3.47194077E-03
 -9.34035108E-04 -3.07299145E-05 -9.86431821E-03 -2.91442903E-03  3.14976664E-04
 -1.42778795E-03  3.78148679E-05 -7.94033644E-05 -3.43643070E-04  2.07755092E-03
 -4.83842310E-04 -1.78002274E-03  7.15806153E-03  2.49391938E-03 -7.83614655E-04
  7.68279474E-06 -1.92314530E-02  4.16791475E-03 -1.27340183E-04 -1.28710072E-04
 -1.74825208E-05 -6.00107181E-06  5.72019778E-03  7.19244658E-03 -7.36589114E-03
 -2.50377065E-02  4.66727871E-02  8.39694132E-03 -4.82739637E-02  9.36703660E-05
  1.19596568E-02  1.71948531E-02 -2.36986109E-05 -4.11509799E-03  1.62695851E-06
  4.50363935E-06 -4.20228046E-03  6.29193212E-03 -1.59097878E-04 -5.77168987E-04
  1.42783746E-03 -2.18425012E-03  8.36832969E-05  2.78213803E-04  7.22569331E-03
 -1.93159570E-03  1.35454853E-03 -8.00343128E-04  3.06728431E-04 -5.69239870E-05
  7.01667580E-04  1.07101116E-04  1.80153122E-04 -9.34133617E-03  7.67133336E-04
 -2.23076270E-03  2.39274492E-04  3.19478810E-04 -7.71126017E-03  6.65306411E-04
  1.73554510E-03  1.35648826E-04 -9.37946832E-04 -2.95946492E-03  5.27006893E-03
  4.44932418E-02  4.08438483E-02 -1.35221055E-05  2.31803140E-02  2.57747788E-02
  2.23404053E-05 -5.28546377E-03 -2.16980355E-05 -1.14572692E-05 -3.45062492E-03
  9.93978007E-03 -4.35709700E-04 -1.40144501E-03  2.84703486E-03 -3.57058951E-03
 -1.08917450E-04  1.19352739E-05 -2.86592349E-02  1.25747605E-01 -7.25840270E-05
 -6.63756809E-03  1.01063945E-05  3.96600119E-06 -4.42848869E-03 -5.89251405E-03
  1.78946580E-05  1.49195604E-04 -2.91665942E-03  1.54911773E-03 -1.99252140E-03
  5.97135163E-06 -1.00573805E-01  8.10333674E-02  8.85123054E-05  2.67382641E-03
  9.08225897E-06  2.35724297E-05  3.22783222E-04  4.35642514E-03 -9.39127986E-05
 -3.71134463E-04  2.87023267E-03 -5.26394465E-04  3.18366338E-04  4.76568911E-06
 -9.57555885E-02 -6.49090113E-02 -2.28409427E-04  2.85482021E-04 -2.34001025E-05
 -2.49617122E-05  1.79397956E-03  2.68196822E-03 -9.30490895E-05 -3.45543903E-04
  1.71827372E-03 -6.09638452E-04  2.41075564E-04  3.06638620E-05 -1.67393348E-02
 -9.89361341E-02  7.98377399E-04  1.60428462E-03  1.11018279E-04  2.21008271E-05
 -1.24235030E-03  2.21724600E-03 -3.07851717E-06 -1.49665139E-06  4.50229178E-04
  3.05168263E-04 -3.45002662E-04  6.53077465E-06  6.99053262E-02 -5.59303679E-02
 -5.01088184E-04  1.31338354E-03 -1.12902920E-04  1.13699605E-04 -1.86451150E-04
 -1.04851211E-03 -2.33425914E-04 -8.17659242E-04  3.75898876E-03 -4.61881929E-04
  2.04877854E-03  3.38208696E-06  8.32959477E-02  7.32609767E-02  2.43166283E-04
 -3.22135331E-03  8.70553755E-06  3.82340627E-05 -8.61170469E-03 -4.27944613E-03
  6.71751322E-04  2.19608979E-03  2.01970712E-03  9.23221687E-03 -1.15527683E-02
 -4.18925938E-05 -8.43056870E-03 -2.77103434E-02  2.29068691E-05  1.50570663E-02
 -1.75114802E-05  3.16864691E-05  2.11224792E-02  1.81545391E-02  8.37603915E-06
  5.38717589E-05 -5.49527682E-04  1.96021396E-04 -2.01169547E-04  4.63155733E-05
 -1.20243429E-02  1.24991620E-02 -1.62350719E-03  6.76771663E-04 -3.80132333E-04
  2.47464578E-04  1.07016620E-03  5.82360922E-04 -4.64513632E-05  1.79092639E-02
 -1.74491548E-03  4.25121813E-03 -8.76525957E-04 -7.67177362E-04  5.76784247E-03
 -1.82985798E-03 -5.20465585E-04  2.41649383E-04 -2.08921687E-04 -5.91952036E-04
 -1.51456197E-04 -5.94053591E-03  6.23699381E-03  2.22462674E-05  4.62183889E-03
 -4.45377625E-04  1.31783290E-05 -4.09790831E-03  7.21712484E-06 -1.54573302E-05
  1.09987829E-03 -7.87213239E-04  1.92149833E-01 -1.44233364E-03 -4.88774333E-03
  1.09833897E-02 -1.27336361E-02 -1.70169039E-04  4.38014256E-05 -1.13980796E-01
  4.39313274E-01 -2.65362955E-04 -2.37798494E-02  3.59798267E-05  1.48701465E-05
 -1.54742888E-02 -2.12756942E-02  8.33471901E-05  5.45680829E-04 -1.01913605E-02
  5.45408953E-03 -7.12113196E-03  2.02635863E-05 -3.48696403E-01  2.88733866E-01
  3.22353799E-04  9.76985070E-03  3.13665870E-05  8.47525739E-05  4.47691358E-04
  1.59179048E-02 -3.14644010E-04 -1.36005724E-03  1.05595068E-02 -1.88985993E-03
  1.23525661E-03  1.83782776E-05 -3.34439528E-01 -2.28057986E-01 -8.59549617E-04
  8.57753454E-04 -9.87011286E-05 -1.04479610E-04  6.60995252E-03  9.72619124E-03
 -3.31249385E-04 -1.28256516E-03  6.42079742E-03 -2.32220437E-03  8.49280863E-04
  1.14786360E-04 -6.10482781E-02 -3.42843946E-01  2.94536795E-03  5.99648860E-03
  4.06306715E-04  8.12117052E-05 -4.57770976E-03  7.73777113E-03  1.23453433E-05
 -8.47829424E-06  1.83461594E-03  1.04831391E-03 -1.31356387E-03  2.37001054E-05
  2.39418722E-01 -1.93924556E-01 -1.80969989E-03  4.34075790E-03 -4.11072770E-04
  4.14678864E-04 -3.14939721E-04 -3.61181826E-03 -7.80816383E-04 -2.90157168E-03
  1.39956130E-02 -1.95401712E-03  7.34784684E-03  1.23428807E-05  2.90203273E-01
  2.52498702E-01  8.62921209E-04 -1.10324997E-02  3.16609206E-05  1.35421955E-04
 -3.17535111E-02 -1.53848276E-02  2.27103772E-03  7.28125494E-03  8.06384073E-03
  3.19899142E-02 -3.94360167E-02 -1.52085750E-04 -3.72311769E-02 -9.23572895E-02
  8.21000331E-05  5.19202492E-02 -5.93279292E-05  1.07737920E-04  7.33944578E-02
  6.11722436E-02  1.94976620E-05  1.76446641E-04 -1.99338160E-03  7.12511860E-04
 -6.94913203E-04  1.76839789E-04 -4.42488721E-02  4.31720804E-02 -5.95495862E-03
  2.47484947E-03 -1.39736566E-03  8.37611317E-04  4.07872516E-03  2.04456972E-03
 -2.23963796E-04  6.43598345E-02 -6.35568707E-03  1.52176044E-02 -3.11137537E-03
 -2.71479410E-03  2.23861628E-02 -6.71469735E-03 -2.25783811E-03  7.80900921E-04
 -5.92363698E-04 -1.75257713E-03 -9.85009320E-04 -2.07807761E-02  2.20936040E-02
  8.16774041E-05  1.60982492E-02 -1.91390575E-03  4.71751507E-05 -1.41427450E-02
  2.48404579E-05 -5.49681648E-05  4.06228394E-03 -2.71135589E-03  4.60558052E-01
  1.11747407E+00  5.28236077E-03  1.98885208E-02 -5.04691037E-02  6.20301642E-02
 -6.15140327E-03 -2.49684146E-04  6.00577692E-01 -1.83559336E+00  1.24295902E-03
  1.06757881E-01 -1.64260362E-04 -7.90649634E-05  5.86553518E-02  9.76599785E-02
 -9.38429781E-04 -3.92957108E-03  4.61377148E-02 -2.50370690E-02  3.63152621E-02
 -9.98713382E-05  1.43873928E+00 -1.24778625E+00 -1.53139520E-03 -4.61493714E-02
 -1.22920891E-04 -3.85898559E-04  3.95249228E-03 -7.32276451E-02  1.30005554E-03
  6.39233906E-03 -4.85511209E-02  8.30701085E-03 -6.68973431E-03 -6.01573052E-05
  1.39870302E+00  9.62331363E-01  4.26971940E-03 -2.92525959E-03  5.97070681E-04
  6.18480573E-04 -2.96593382E-02 -4.37843351E-02  1.54515032E-03  6.29441523E-03
 -3.10794094E-02  1.23271579E-02 -3.83664835E-03 -5.29718307E-04  2.82958074E-01
  1.40608216E+00 -1.39947430E-02 -2.92441164E-02 -1.93153950E-03 -3.81380295E-04
  2.24834163E-02 -3.21724055E-02 -2.50036235E-04 -6.63284157E-05 -9.03959579E-03
 -5.60203243E-03  6.84529362E-03 -8.78016076E-05 -9.51880565E-01  7.94078827E-01
  8.21457143E-03 -1.65245623E-02  1.89452841E-03 -1.91303690E-03 -1.27110819E-03
  1.51387491E-02  3.00070603E-03  1.24956212E-02 -6.57176576E-02  1.31709381E-02
 -3.51339282E-02 -8.38715089E-05 -1.19713013E+00 -1.02235209E+00 -3.78377015E-03
  4.32675702E-02 -1.43457773E-04 -5.73142075E-04  1.46846905E-01  6.83777837E-02
 -5.14783218E-03 -1.43427632E-02 -6.89836510E-02 -1.22508340E-01  1.32547619E-01
  8.10990613E-04  2.21180008E-01  3.53519967E-01 -3.57584712E-04 -2.14776560E-01
  2.22624737E-04 -3.83021140E-04 -3.06788327E-01 -2.32284952E-01 -1.06937767E-04
 -9.78290270E-04  9.58751329E-03 -4.05447022E-03  2.92657358E-03 -8.97998995E-04
  2.08741602E-01 -1.75986539E-01  2.79976287E-02 -1.16343724E-02  6.56115072E-03
 -3.25939094E-03 -2.03396961E-02 -8.49339744E-03  1.51483526E-03 -2.89302148E-01
  2.95775487E-02 -6.75711695E-02  1.35557008E-02  1.17908296E-02 -1.17828280E-01
  3.14831294E-02  1.42071155E-02 -2.58186110E-03 -1.39053761E-04 -9.47617808E-04
  3.70961586E-02  8.79505079E-02 -1.02580837E-01 -4.58172640E-04 -6.30549789E-02
  9.34482012E-03 -2.46850404E-04  5.77660959E-02 -9.30916152E-05  2.47868131E-04
 -1.73447845E-02  1.06706137E-02 -1.36990635E-01 -5.01381610E-01  2.30624416E+00
  9.75105402E-03  3.40067672E-02 -1.10209106E-01  1.38776973E-01 -3.74337199E-02
  1.96874842E-04  1.00449653E-01  1.83460498E-01  4.23741814E-04  1.66316490E-02
 -8.01309494E-05 -2.12722523E-05 -7.83715600E-03 -4.13667018E-02 -4.02749301E-03
 -1.44169419E-02  5.30722510E-02 -3.88804008E-02  4.35601602E-02  1.87675001E-05
 -1.91800753E-01  1.66372406E-01 -1.27757524E-04  2.01724690E-03  4.65519219E-05
  1.37727107E-05 -8.43649554E-03  3.82479209E-03  1.62832506E-03  5.62981369E-03
 -1.67684717E-02  2.37537763E-02 -2.96630445E-03 -8.20510637E-05 -1.25492953E-01
 -1.31684874E-01 -1.68139779E-04 -1.37467604E-03  3.31567111E-06 -3.06889108E-05
  3.62739881E-03 -3.80376260E-03  7.27135715E-04  2.57931957E-03 -1.02622413E-02
  6.68906077E-03 -1.73193961E-03 -3.81920156E-05 -2.13433026E-02 -1.60171718E-01
  9.23662476E-04  3.00359290E-03  8.40971156E-05  3.56531412E-05  1.87277453E-03
 -9.16041269E-04 -1.16474300E-03 -4.11695262E-03  1.37419583E-02 -1.22405152E-02
 -9.82756004E-04  5.32350636E-05  1.37718470E-01 -9.61318588E-02 -8.74668494E-04
 -2.03651752E-03 -1.04091158E-04  1.81443770E-04 -3.10746011E-03  4.50270687E-03
  3.78858653E-03  1.30068643E-02 -3.22052847E-02  4.14578845E-02 -1.09641530E-02
  5.34068645E-05  1.76037646E-01  2.09586825E-01  7.63319287E-04  2.83863976E-03
  8.58620458E-05  1.54724252E-04 -4.50613071E-03 -2.35708529E-02 -1.23257167E-02
 -4.31415429E-02  8.91451746E-02 -6.98151965E-02  2.29898353E-01 -4.17629800E-04
  5.38153737E-02 -5.12748752E-02  1.60961988E-04  8.72660177E-03 -2.86551926E-04
 -2.53239800E-04 -1.78234211E-01  9.74431542E-02 -7.70053103E-05 -2.39072010E-04
  6.14917707E-05 -2.83927687E-03  1.25583868E-03  1.18930535E-04 -1.35123025E-02
  1.90693262E-02 -1.75788841E-03  1.28466762E-03 -4.76955261E-04  3.26893988E-04
  4.26547931E-04  1.69891183E-03 -1.05722782E-03  1.86646320E-02 -7.06128247E-04
  5.83673163E-03 -1.03133971E-03  2.34968299E-04  6.22150154E-03 -3.05844068E-03
  2.62819802E-04  4.56628805E-04 -5.97140347E-03 -2.08928277E-02  8.85493192E-02
  3.42259982E-02  7.66461208E-02  1.94226062E-05 -1.76555838E-02  1.20928519E-01
 -2.33018764E-04 -1.67641769E-02 -8.30088164E-05 -1.21620141E-04 -2.43009304E-02
 -9.26759753E-03  1.17559255E-02  4.19895183E-02 -2.02821106E-01  1.01096436E+00
 -6.66419613E-04 -2.09165785E-03  2.18717326E-02 -2.61751526E-02  8.83740983E-03
 -1.59262497E-04  9.74573715E-02 -4.88820395E-01  2.31902246E-04  2.19972646E-02
 -1.27307982E-05 -1.41462511E-04 -4.72639370E-03  8.98856095E-02  3.09805425E-04
  1.08860330E-03 -1.00114052E-02  6.30578826E-03 -9.38987942E-03 -8.32723912E-05
  2.45460620E-01 -1.05667960E-01 -3.46263381E-04 -2.57772540E-02 -5.31464933E-05
 -5.95072211E-05 -1.07407955E-02 -1.34772493E-02 -7.56299447E-07  1.93886623E-04
 -2.62932801E-03 -2.45529824E-03  1.52990996E-03  1.24506738E-05  2.51696724E-01
  1.27768569E-01  4.61203785E-04  7.43057958E-03  9.47877202E-05  6.34114643E-05
 -1.91652805E-03  4.20435232E-03  3.70863182E-04  1.34083692E-03 -5.29126779E-03
  2.08396482E-03 -8.95861123E-03  2.09097606E-05  3.53214555E-02  2.66702013E-01
 -1.78917071E-03 -4.64875950E-03 -3.87844495E-04 -9.94314096E-05  4.26552578E-03
 -3.41328653E-03 -1.06836780E-03 -3.67216633E-03  9.99592768E-03 -1.31867287E-02
  2.71471333E-03  1.79709717E-04 -1.86916029E-01  1.17990860E-01  1.10109760E-03
 -7.33768450E-03  2.61447696E-04 -2.12982055E-04 -1.97495336E-03  1.43258158E-02
  2.26899962E-03  8.15689767E-03 -3.10207162E-02  1.92071163E-02 -2.82551456E-02
 -1.01637947E-04 -2.17540476E-01 -1.09549182E-01 -3.57101537E-04  1.46046388E-02
  9.17350999E-05 -3.58471559E-05  4.07132389E-02  1.39521987E-02  2.62645749E-02
  9.32356413E-02 -2.09882927E-01  2.38498181E-01 -3.21789880E-01  6.10293114E-04
 -3.69750227E-03  2.27860361E-01  4.20285434E-05 -3.39572757E-02 -1.44188022E-04
  6.54883617E-05 -8.06809919E-02  1.29612522E-01 -1.92768640E-04 -7.74522476E-04
  2.90162180E-03 -2.46111035E-03  6.71990905E-04 -4.86848303E-05  2.46489013E-02
 -4.09365068E-02  3.71247462E-03 -1.26409939E-03  7.07898101E-04 -1.12520040E-03
 -1.73513717E-03  1.46471490E-03 -1.06654288E-03 -4.74228693E-02  6.05619997E-03
 -1.00845110E-02  2.10450444E-03  2.47828632E-03 -4.36738890E-03  1.76415115E-03
 -2.03069393E-04 -9.22761219E-04 -6.30269229E-03 -2.23330872E-02  1.03892197E-01
 -7.63883270E-02  1.84312720E-01 -6.12311042E-04 -9.50136405E-03  1.22628225E-01
 -3.18056731E-04 -4.31789603E-03  5.61252741E-05 -9.34501482E-05  6.15561676E-03
  1.15832515E-02 -1.88490171E-02 -6.69879442E-02  3.23665859E-01  1.96715942E-01
  7.62042204E-01 -3.94554164E-07  3.05166893E-06 -1.36339582E-04 -9.10158941E-05
  8.65099975E-05 -1.47508694E-01 -1.62862691E-04 -1.21476203E-03  1.17639098E-02
  5.80427465E-04 -3.88779842E-02 -3.63986927E-02  9.01398820E-06  2.35051662E-04
  9.94420987E-06  2.59168137E-05 -1.43097804E-05  1.22398154E-04 -8.15699543E-05
 -7.27500799E-02  1.27034605E-03 -1.85340541E-03 -2.52926789E-02 -1.83618644E-04
  2.54072664E-02 -2.66804252E-02  4.07503842E-05  7.75832416E-06 -1.03022655E-06
 -2.44082415E-05  8.17922969E-04  9.25081786E-05  1.24467896E-04  7.40454934E-02
 -2.77814187E-03  4.91881511E-03  9.37997163E-03  5.71537096E-04  1.58077927E-02
  9.52222454E-03 -5.91985973E-04 -3.65866044E-04  9.48970349E-05  3.13950912E-04
 -1.19843852E-03 -1.20500308E-03  5.40939525E-06  7.72837599E-02  1.29192229E-02
  1.74803357E-04  1.85301896E-02  6.07103454E-04 -2.36447573E-02 -5.12727542E-03
  9.42680062E-04  7.56477401E-05  6.08399372E-06  2.43472136E-06  6.46460610E-04
  9.80078552E-05 -1.07811845E-04  4.37894361E-02 -2.90780707E-03 -3.64751309E-03
  1.25267713E-02  5.64106225E-04  1.76138479E-02 -7.06759444E-03 -5.32530848E-04
  2.78891161E-04  9.27230954E-06  2.95245484E-05 -1.69584315E-04  2.09357839E-05
  1.59692185E-04 -7.19296443E-02  1.17365966E-03 -1.12393954E-03 -1.67075204E-02
 -1.10807897E-04  2.43375678E-02  7.89802337E-03  3.26825149E-04  9.80692908E-05
 -3.37196169E-05 -1.19051826E-04  2.45101717E-04 -3.21911156E-04  4.82559672E-04
  3.06727681E-01  7.74553136E-04 -1.40029279E-04 -8.83263125E-03 -4.62376283E-04
 -4.51258255E-02  1.41518049E-01 -1.76007933E-04 -5.75210656E-05 -7.23387836E-04
 -2.61199739E-03  5.93945215E-03  5.22201459E-03  1.29262036E-04 -8.23651707E-02
  3.54377938E-03 -1.53527474E-04 -4.37936988E-02 -1.48185282E-03 -9.42825614E-03
  7.35095304E-05 -7.62319777E-04  5.82261179E-05 -4.08261492E-03 -1.72566390E-03
  4.15009561E-04  1.36470310E-03 -5.05402896E-03 -4.18465787E-03 -1.51672279E-03
  2.14614147E-04 -1.28856896E-03 -4.15003853E-03  2.77674908E-05  1.01473619E-04
 -5.57079588E-04  1.56792626E-04  6.20753974E-05 -2.97779999E-01 -2.15323252E-04
 -1.72726500E-05 -9.62068092E-02  3.33133444E-04  1.56674339E-02  5.33721620E-03
 -4.81724250E-05 -1.82090582E-05 -3.04631825E-05 -1.13242937E-04  7.45334779E-04
 -2.64632616E-04  2.92345241E-04  8.62453602E-01  2.93788167E-03  1.01743615E-02
 -3.12397365E-02  3.07541036E-02 -3.42151591E-02  1.19211704E-04  6.04895126E-02
 -1.33562500E-01  1.59924234E-04  7.88527856E-03 -4.74554575E-05 -3.11346268E-05
  9.12933846E-03 -1.71887107E-02 -2.54541985E-03 -8.96132809E-03  3.47203763E-02
 -2.57637349E-02  2.48473673E-02 -5.09248813E-05  8.19372443E-02 -8.10797719E-02
 -7.51089405E-05 -3.66106994E-03  3.00261672E-06 -3.20617200E-05 -5.58465447E-03
 -8.94818708E-03  8.66088021E-04  3.10540655E-03 -1.10742672E-02  1.22180082E-02
 -4.45805363E-03 -9.69844657E-05  1.02413550E-01  6.61983781E-02 -5.09041752E-05
 -4.80636573E-04 -5.31940246E-05 -5.21628152E-05 -6.87647580E-04 -7.73798996E-03
  4.72920512E-04  1.68274120E-03 -5.38666480E-03  4.25183187E-03  7.84103662E-04
  6.30018664E-05  2.25734523E-03  1.10255625E-01 -1.71212683E-04  1.11949391E-03
  3.61537843E-06 -4.49446495E-05  6.03164263E-04 -3.67493452E-03  4.42909048E-04
  1.39678842E-03 -1.94110370E-03 -2.81404419E-03 -1.66162978E-03 -6.50279657E-05
 -8.01196148E-02  7.24942036E-02  1.69499215E-04  5.46382404E-04  6.88907981E-05
 -5.20266892E-05 -2.03428920E-03 -1.23148154E-03  3.80853748E-03  1.28911525E-02
 -3.75315193E-02  1.78211618E-02  1.36612257E-02  2.93610400E-05 -8.82541341E-02
 -5.34485761E-02  5.57122700E-05  7.60444153E-03  2.67074203E-06 -3.38014804E-05
  9.22252727E-03 -6.58921754E-03 -7.38262772E-03 -2.50874121E-02  4.47481493E-02
 -8.31787735E-03  1.57988788E-01 -7.29245808E-05  2.90655772E-02  4.38630193E-03
  6.02307266E-05 -6.63335418E-03 -7.12498669E-05 -8.32945208E-05 -7.39776787E-02
 -1.01718225E-03  6.38237743E-05  2.23516664E-04 -4.04179250E-04 -1.66858994E-03
  1.28788406E-03  3.71890877E-04  1.36445218E-03 -1.36787679E-02  3.52127218E-04
  2.39514695E-04 -3.93837176E-05 -2.38485127E-04 -6.71993934E-04 -6.16159568E-04
 -1.25981946E-03 -9.01776582E-03  4.26246065E-04 -2.53434760E-03  8.34112449E-04
  5.04217427E-04  6.67580015E-03 -1.34386772E-05 -1.81857676E-03 -5.94676017E-04
  4.57979415E-03  1.59471960E-02 -6.22867861E-02 -1.79208054E-02  9.00906337E-03
 -2.70305699E-04 -3.95035551E-02  2.87556542E-02 -1.85927046E-04  4.13214286E-03
 -2.65877749E-05 -3.09771099E-05 -7.95608268E-03 -6.55903572E-03 -7.47134864E-03
 -2.74191669E-02  1.15968510E-01  3.86715604E-01  7.22207954E-02  1.63086081E-04
  1.76528165E-01 -3.40159573E-04 -8.13738454E-04  6.21969028E-03 -2.60817182E-02
  4.99683286E-03  1.16060780E-05 -6.63686034E-02 -4.90945843E-02 -2.02057591E-04
 -3.03889285E-03  3.22954485E-05 -5.02002077E-05 -1.97710584E-02  3.40290244E-02
  6.06338168E-04  2.30628822E-03 -1.54539433E-02  3.37401045E-03 -1.87511044E-02
 -5.90445729E-05 -3.67570824E-02  9.59118692E-02  1.76496140E-04 -5.91652378E-03
 -2.74267862E-05  4.27925499E-05 -1.10936917E-02  9.23102847E-03  2.81306490E-04
  7.55016270E-04  1.40484039E-03  1.33268894E-03 -7.92968516E-04 -5.92082962E-05
 -3.55495494E-02 -4.97694449E-02 -7.50923626E-04  5.81310244E-03 -1.22802085E-04
 -1.59586785E-04  2.98119477E-03  1.02866911E-02  2.13992366E-04  6.17171747E-04
 -3.00572787E-05  2.37634808E-03 -6.06014938E-03  1.31511729E-04 -4.15723914E-02
 -1.67567171E-02  1.74372026E-03  4.57766252E-03  1.37637012E-04 -6.72353395E-06
  1.56150396E-04  1.82755051E-03  4.29313207E-04  9.42726510E-04  1.40581055E-03
 -7.94784311E-03  1.43150407E-03  1.28978274E-04 -3.71679736E-03 -1.52024087E-02
 -8.27253268E-04  1.65781379E-04 -1.98094446E-04  2.26113888E-04  2.33581038E-04
  2.20661275E-03  1.07852187E-03  4.02222125E-03 -1.52820916E-02  1.03856662E-02
 -2.73555861E-03  2.26713802E-05  1.40922656E-02  4.08356896E-02  4.23279000E-04
  5.21107338E-03  5.70506691E-05  1.64047821E-05  5.41348805E-07 -8.53034555E-03
  1.92860202E-02  6.68541901E-02 -1.26855313E-01  1.26978361E-01 -1.67912854E-01
  5.96301958E-05 -4.99844672E-02  7.57060865E-02  9.88692308E-05  1.90562968E-02
 -4.29295038E-05  5.51210549E-05  2.65167792E-02  9.08160351E-02 -2.59707079E-05
 -5.61134792E-06 -8.54281624E-04 -1.68800382E-03  3.65568074E-04  3.09892138E-04
 -2.80568682E-02 -1.44115311E-03 -3.55160856E-03  2.10950309E-03 -1.03580386E-03
 -1.90487716E-04  1.98940630E-03  2.01295482E-03 -2.23209726E-03  2.56087594E-02
 -2.66859525E-03  6.03614861E-03 -8.14250460E-04 -1.00525497E-03  2.84059697E-02
 -4.99032441E-03 -5.23581456E-03 -5.80319331E-04  4.27132057E-04  1.84626620E-03
 -8.96960188E-03 -1.20503637E-01  1.21769314E-01 -2.49397726E-04 -2.88263162E-02
  5.07989330E-02 -1.19153694E-04 -4.96409032E-03  7.06737000E-05 -9.77192337E-05
  7.55031329E-03 -1.48548445E-03  8.28346562E-03  3.17668616E-02 -1.41302337E-01
  6.86772285E-02  3.31749112E-01 -2.78234626E-04  3.01983787E-03  1.93122262E-01
 -6.71961988E-07 -2.56239308E-06 -6.09603213E-05 -9.27240258E-05  3.49152917E-05
 -7.54565893E-02 -2.57126403E-04  2.18494550E-04  5.72222911E-03  2.45951507E-04
 -1.74284875E-02 -1.47532647E-02  2.24201354E-05  1.81957123E-05  1.28104087E-06
 -9.37206592E-07  3.11319027E-05  7.42203461E-05 -6.29000104E-05 -3.12812567E-02
  1.74447644E-04 -4.20626298E-04 -1.14385839E-02 -1.06168438E-04  1.33302178E-02
 -1.26446858E-02  6.62084511E-05  1.09215583E-05 -4.15039247E-06 -2.59778959E-05
  4.86579071E-04  3.15737967E-05  9.12872499E-05  4.19174453E-02 -2.05707784E-03
  2.37359381E-03  5.47751335E-03  3.08809081E-04  7.61937126E-03  4.67614150E-03
 -3.13565126E-04 -1.88847577E-04  5.20700583E-05  1.72927480E-04 -6.72510387E-04
 -7.01336349E-04 -1.25433640E-05  4.07908146E-02  7.22595915E-03 -4.13946943E-04
  1.06482784E-02  3.27996279E-04 -1.29277692E-02 -2.57136885E-03  5.13474108E-04
  5.49596344E-05  1.33142500E-06 -6.80982968E-06  3.89680279E-04 -2.81533630E-06
 -6.04135873E-05  2.56701155E-02 -1.30476881E-03 -2.44807592E-03  5.95633446E-03
  3.19560093E-04  8.86632754E-03 -3.77515662E-03 -2.96334335E-04  1.51446198E-04
 -4.19433870E-06 -1.76368423E-05  3.70284189E-05  4.00252757E-05  1.54340440E-04
 -3.52170094E-02  1.05826901E-03 -2.95176317E-05 -8.67882152E-03 -1.08425587E-04
  1.22967960E-02  5.26097739E-03  1.29434922E-04  2.31158181E-05 -3.98296195E-05
 -1.41215233E-04  3.14770974E-04 -2.06519225E-04  4.38886158E-04  1.34713033E-01
  3.51684517E-04 -2.54211190E-04 -6.32560320E-03 -1.41456701E-04 -2.21886824E-02
  5.52361654E-02  1.61067614E-05 -1.04133987E-05 -4.04174816E-04 -1.45833733E-03
  3.31234038E-03  2.85165148E-03  1.05455058E-04 -4.60831069E-02  2.03666009E-03
  5.93482487E-06 -2.45455530E-02 -8.71276326E-04 -4.95667857E-03  4.46826140E-05
 -3.68635701E-04  3.58479711E-05 -2.27799226E-03 -9.05875789E-04  1.68925578E-04
  7.18641875E-04 -2.66516970E-03 -2.29271294E-03 -8.65315668E-04  7.67705311E-05
 -6.67215582E-04 -2.23887693E-03  1.32716899E-05  4.76057618E-05 -2.50828827E-04
 -6.12481947E-05  4.24897163E-05 -9.50233872E-02 -1.33780886E-04  6.17958366E-06
 -2.74113910E-02  1.00823997E-04  7.46774725E-03  3.64911971E-03 -3.75441071E-05
 -1.77151128E-05  3.16560613E-05  1.06088801E-04 -3.46497217E-04  7.91199199E-05
 -2.95420151E-04  3.57771310E-01  1.04418186E-04 -2.48698785E-04  1.49756377E-01
 -9.29085588E-04 -2.86766256E-03  7.19042580E-03  6.75099384E-03  9.84495925E-04
  1.19371999E-04 -1.26930222E-02  9.18240360E-02 -8.15215260E-06 -5.70107080E-04
  2.70559256E-05  3.36886603E-05 -9.57168195E-03  5.53157139E-05 -1.23098279E-04
 -4.40505152E-04 -1.21012000E-03 -1.41569600E-03  9.74370179E-04  5.73274578E-05
 -6.73725987E-02  7.24365912E-02 -2.06152833E-05  4.14832816E-04 -1.84311498E-05
  4.00089475E-05  3.02481008E-04  2.25842260E-03 -9.25944867E-06 -1.05377158E-04
  9.14027220E-04  1.07034998E-03 -7.03754008E-04 -5.01261725E-05 -6.60258933E-02
 -5.21066982E-02  6.15350301E-05 -3.50450430E-04  2.36558145E-05  2.36912373E-05
  1.71929505E-03  2.20617710E-03 -1.03367672E-04 -3.59220004E-04  1.02453890E-03
  5.67800213E-04  1.59138935E-04 -5.09178556E-05 -2.17224508E-03 -7.69071433E-02
  2.35757997E-05  1.02084859E-04  8.94679621E-07  2.25591584E-05  3.52089433E-04
  1.69531540E-03 -3.23318899E-05 -1.55025204E-04  2.09465403E-04  1.21705338E-03
  1.68827298E-04 -3.13521277E-05  6.29742925E-02 -4.91326275E-02 -1.60909008E-04
 -2.05871658E-04 -5.08161140E-05  4.88613548E-05 -5.22227759E-05  1.04341355E-03
 -5.36063253E-04 -1.77302659E-03  5.10870256E-03 -2.18495373E-03 -6.20992932E-03
  3.07886499E-05  7.59607800E-02  6.15345668E-02  9.36728396E-05 -3.15242590E-03
 -1.59170750E-05  3.19166110E-05 -6.06995497E-03 -1.02826471E-03  4.29619857E-03
  1.46605688E-02 -2.73895665E-02  8.98187804E-03 -3.66996940E-02 -8.24244414E-05
 -7.31147706E-03 -9.03953504E-03  3.47090888E-05  2.57150713E-03  2.55486335E-05
 -9.45961656E-05  7.32779843E-03  2.10669245E-02 -4.69671179E-05 -1.50127711E-04
  1.62843376E-04 -6.99044298E-04 -2.40165750E-04  5.70575752E-05 -1.37958651E-03
  9.27008001E-03 -7.98184401E-05 -7.17130998E-05 -6.46741334E-05  1.55027338E-04
  1.63937178E-04  5.85502591E-04  1.77359006E-04  5.18842295E-03  5.66304858E-05
  1.74827371E-03 -4.43482005E-04 -4.04461075E-04 -3.66095181E-03 -2.79055722E-04
  1.19432004E-03  4.35502677E-04 -4.08354301E-03 -1.40919496E-02  5.75252963E-02
 -1.67647678E-02  4.52901985E-03  3.37380403E-04  4.06026954E-03  4.97468254E-03
  9.91037889E-05 -3.51789596E-03  1.22917014E-05  2.56427364E-06  7.02529968E-04
 -7.49002436E-04  5.38643741E-03  1.90307164E-02 -7.80566797E-02 -1.05985378E-02
  3.00612519E-02 -6.53656213E-04 -1.62101893E-02  2.63038152E-02 -2.74518003E-04
  7.95412715E-03 -7.36639374E-06 -2.55488973E-05  7.59434878E-05 -1.36793507E-04
 -2.55617600E-07 -3.23841782E-03  2.09323948E-05 -2.96529121E-04  8.49137723E-04
  5.60644487E-06 -3.20692623E-03 -2.28329666E-04  2.71021367E-05  1.86010055E-05
  9.52771147E-07  3.50209004E-06 -1.18734638E-05  2.51559843E-05 -2.14932514E-05
 -3.79347806E-03  2.87186514E-04 -2.63722902E-04 -9.47378950E-04 -1.87872319E-06
  8.79762937E-04 -4.07482776E-04  1.11521355E-05 -1.96813230E-05 -8.39800352E-07
 -3.53694589E-06  2.62855307E-05 -2.13616409E-05  4.54833979E-06  8.50042521E-04
  1.95672145E-04  2.62859091E-04  4.22164091E-04  7.94398294E-06  7.16165395E-04
  3.43731260E-04 -7.12548591E-06 -3.07159216E-06  8.75325218E-07  2.38076732E-06
 -5.46254969E-06  5.45712395E-06 -7.44729202E-06  2.56181505E-03  2.69827686E-04
  2.45196442E-04  1.75399790E-04  1.05380100E-05 -6.22088821E-04  2.46834173E-05
  3.51817036E-05  2.32563982E-06  2.35282869E-06  6.97767730E-06 -2.40434998E-06
 -2.07649778E-05  3.68345836E-06  1.13511549E-03 -2.12476632E-04  9.24716093E-05
  5.24950292E-04  7.33984803E-06  6.52529771E-04 -3.19647029E-04  1.34299358E-06
 -1.05060797E-05 -2.42184844E-06 -8.04536319E-06  1.48193329E-05 -3.18406475E-06
  5.29591500E-05 -3.18160559E-03 -1.97047703E-04 -2.55468871E-04 -7.66910209E-04
  5.46440982E-06  9.43340881E-04  2.60553389E-04  2.46468422E-05  2.03220447E-05
 -1.69109006E-06 -5.65045349E-06  3.58670778E-06  7.34401992E-05 -1.01500168E-05
  2.86688796E-02  3.81556351E-05  4.41177926E-05  1.17986378E-03 -5.67911575E-05
 -2.10009101E-03  1.18388387E-03  8.25770998E-05 -9.82427657E-05 -1.25957144E-05
 -4.52034127E-05  1.02578142E-04  8.76383391E-05  2.39553604E-05 -1.49233687E-03
  7.19376501E-05 -2.11674752E-05 -7.11600192E-04 -1.18711106E-05 -3.40093667E-04
  1.86849067E-06 -3.62575777E-05  1.53651261E-06 -1.11070363E-04 -9.51866015E-05
  3.17393516E-05  2.79027347E-05 -1.23571645E-04 -8.77783404E-05 -6.87678129E-05
  3.20968788E-05 -3.56498694E-05 -1.20325232E-04  6.94689728E-06  2.41883549E-05
 -9.22511152E-05 -8.66430136E-05 -6.33089612E-05  1.56220502E-02 -3.71741952E-05
 -6.64389107E-05  7.46858497E-03  1.00357604E-05  1.58825802E-03  2.21051890E-03
  6.57507039E-06  5.28283130E-06 -2.38554538E-05 -8.53032078E-05  3.86930716E-04
 -5.64076595E-04 -1.09474616E-04  2.53947580E-02 -1.74611365E-04 -8.41007231E-05
  1.12638896E-02 -2.39812990E-05  1.67422593E-03  4.75335460E-06  1.63867761E-05
 -4.95268930E-05  1.11650079E-05 -7.09406231E-06 -7.11639984E-03 -2.35150474E-04
  3.46993698E-04 -1.10943433E-03 -5.04774681E-06  4.84190541E-03  1.39893932E-03
 -4.87720222E-06 -4.22530072E-05  4.44973494E-06  1.66065503E-05 -6.01965219E-05
 -1.18479746E-05 -5.82931126E-06  1.63968925E-03 -2.14538143E-04  1.85657919E-04
  1.35896800E-04  9.98753797E-06  7.30566788E-06 -5.67035706E-04  6.54746780E-06
  2.38581758E-05  1.79737892E-06  6.02789400E-06  3.76680468E-06  2.95497733E-05
  5.21572105E-06  2.39939433E-03 -3.60259352E-04 -1.54876291E-05  3.39894097E-05
  2.96850708E-05 -9.15601872E-05 -4.92335069E-05 -2.96055933E-05 -2.08923837E-05
  7.45718086E-06  2.55533795E-05 -8.95234160E-05 -8.94164772E-05  6.87799847E-07
  1.13933664E-03  2.85870933E-04 -1.96410000E-04  1.07171844E-03  3.49840334E-05
 -4.39969436E-04  1.37677065E-04 -3.20346486E-06  2.96605612E-06  2.94730524E-06
  9.55255120E-06 -3.84303039E-06  1.95423306E-05 -9.13943793E-06  3.09110427E-03
 -4.67539666E-05 -2.36298630E-04 -1.76680634E-04  3.67167316E-05 -1.11572369E-04
 -6.36369202E-05 -2.97726678E-05  1.70052799E-05  9.57650181E-07  3.29564500E-06
 -3.85350850E-06 -1.39196438E-05  3.20430859E-05  1.18304843E-03  1.15068170E-04
  1.40349959E-04 -2.73539879E-04 -1.60871050E-05 -2.83081393E-05  1.30330924E-03
 -3.40084182E-05 -2.82034527E-05  3.87264826E-06  1.19468145E-05  2.17765150E-07
 -6.89823313E-05  5.47905976E-05 -4.83308633E-02 -1.17985263E-04 -1.04653359E-04
 -4.40017548E-03  1.12746978E-04  1.06113392E-03 -5.59226748E-03  8.24747078E-05
 -4.04594520E-05 -2.40248780E-05 -8.79249631E-05  2.04104034E-04  2.08473374E-04
  7.82717690E-06 -2.75370778E-03  5.08611601E-05  3.53404253E-05 -1.69903663E-03
 -6.84823128E-05 -4.10453642E-05  3.25888273E-06  1.44135979E-05 -5.07661984E-07
 -1.04267220E-04  1.16113345E-04 -4.54614509E-05  4.91122780E-05 -8.12604748E-05
 -9.37358332E-05  8.36079286E-05 -3.83887814E-05 -4.29809773E-05 -9.65230351E-05
  1.04087369E-05  3.79528806E-05 -1.78294252E-04  7.17309038E-05 -1.01284533E-04
 -4.64532304E-03  2.88530329E-05 -1.03001699E-04 -3.36185967E-03  2.54471392E-07
 -2.21843202E-03 -2.95373814E-03  1.90704440E-05 -1.63384341E-05  2.68281695E-05
  9.64345700E-05 -4.52009766E-04 -9.75653121E-05 -3.46673735E-04 -5.06056361E-02
 -7.43643568E-05 -8.22165150E-05 -2.13314682E-02  2.97374566E-05 -2.60568187E-03
  4.75655786E-03  2.53691463E-04  7.48069800E-04  1.33696945E-04 -1.26975928E-02
  2.17352793E-03  2.22895215E-05 -2.70766757E-02  2.42522764E-02 -9.23928288E-05
 -2.28008156E-03  1.25736769E-05 -9.87119005E-06 -4.28524868E-03 -8.01500502E-04
  1.92641898E-04  7.34768371E-04 -4.28406684E-03  4.57979620E-03 -5.79695672E-03
  9.43222226E-06 -3.02523712E-02  3.37967915E-02  1.21231668E-04  2.76346411E-04
  1.93640876E-06  1.72501567E-05 -8.86519127E-04  3.25149325E-03 -1.80493896E-04
 -7.42442057E-04  3.98957931E-03 -2.30964703E-03  4.80661039E-04 -4.88934199E-06
 -2.77506467E-02 -2.07166693E-02 -3.58546395E-04  1.03119410E-03 -6.87267050E-05
 -7.89802078E-05  9.99881854E-04  2.49102409E-03 -1.92023532E-05 -1.45471577E-04
  1.71636177E-03 -1.17537323E-03  1.32046670E-04  1.36552341E-05 -1.80847763E-02
 -1.90955731E-02  8.61032021E-04  2.34680319E-03  1.05777968E-04 -1.72053028E-06
 -1.58169577E-03  2.00155347E-03  5.92358524E-04  1.96346481E-03 -4.90113494E-03
  5.14353874E-03 -2.77082111E-04 -9.77964121E-06  7.36128854E-03 -6.44851094E-03
 -4.12680885E-04  1.44458107E-03 -8.88446791E-05  1.02377089E-04 -1.45045591E-03
 -1.01212739E-03  1.03987978E-03  3.37472103E-03 -9.04115251E-03 -4.91508164E-03
  5.74929867E-03  8.00191897E-06  1.52394109E-02  1.56678581E-02  1.92313699E-04
  8.81694763E-04  1.33686451E-05  4.42327262E-06 -3.81213371E-03 -4.18900867E-03
  4.96796937E-03  1.69758045E-02 -2.97470280E-02  4.03787275E-02 -7.05208777E-03
 -2.06569653E-05 -1.71189567E-02  1.12724921E-04  4.10689319E-05  8.65988472E-03
 -9.61751230E-06  1.28766370E-05  1.00527211E-02  1.28337248E-02  1.08238380E-04
  4.09927604E-04 -1.22701525E-03  8.88538968E-04 -2.30818753E-05  2.79663375E-05
 -1.28565451E-02  1.60643189E-03 -1.75008103E-03  8.81610448E-04 -4.40087086E-04
 -1.82955338E-05  9.71415045E-04  2.94958491E-04 -4.18843102E-04  1.37399521E-02
 -1.53888750E-03  2.87507982E-03 -4.77979851E-04 -6.27142270E-04  1.20510163E-02
 -1.90913303E-03 -2.40054360E-03 -2.07892827E-04  1.09807491E-03  4.05648322E-03
 -1.73174845E-02 -2.43392565E-02 -5.90627967E-03 -4.02138707E-05 -8.02698276E-03
 -7.35317093E-03 -2.85159278E-05  7.00447714E-04  1.26780401E-05 -9.33350334E-06
  4.26462262E-03 -3.30565738E-03  4.01690726E-03  1.44307122E-02 -6.17221563E-02
  2.41519851E-02  4.75494706E-02 -6.72489832E-05  5.23606050E-03  3.37628595E-02
 -3.73683634E-05  4.77355632E-03 -2.30762266E-05 -1.76527676E-06  8.59774440E-03
  1.37438668E-03  4.66416376E-03 -1.24139996E-02  1.74836050E-02  2.29526950E-03
 -8.12178723E-05 -1.87692846E-02 -2.59125231E-02 -7.57152281E-05  3.57057489E-03
 -5.38210067E-06 -2.13332171E-06 -1.82647670E-02  9.31708184E-03  4.89975263E-04
  1.80195467E-03 -7.24617636E-03 -2.42793946E-03 -8.67949148E-04 -1.69330642E-05
  1.93129795E-02  3.96325292E-03  1.25907287E-04  1.10702333E-04  2.26532890E-05
 -6.07817572E-06 -5.68548423E-03  7.19192045E-03  5.26845487E-04  1.83223321E-03
 -5.38771886E-03  3.43515654E-03 -9.44919509E-04  3.21658279E-05  9.96622306E-03
 -2.77617853E-03 -3.12100245E-04  1.43678890E-03 -3.63697341E-05 -7.79989955E-05
  3.33240220E-04  2.07828364E-03  3.90609512E-04  1.39399860E-03 -3.98944424E-03
  8.26205385E-04 -5.64577092E-04 -6.53174527E-05 -1.47706687E-02  1.22842622E-02
  6.00965027E-04  3.35902194E-03  6.96073676E-06 -2.51617164E-06  1.28146104E-03
  2.72427082E-04  8.37293968E-04  2.85167796E-03 -8.68618181E-03  3.98178875E-03
  8.11836382E-04  4.87823315E-05 -1.04598996E-02  1.54582320E-02 -2.57866759E-04
  3.98607603E-04 -4.00746391E-05  7.66385531E-05  1.09016916E-03 -1.37741484E-03
 -4.92073008E-04 -1.60838928E-03  4.30739585E-03 -9.10814414E-03  9.05049105E-04
  4.13556335E-06 -7.02057463E-03 -1.92077988E-02  7.98879983E-05  1.42636846E-03
  2.88832244E-05  3.26949559E-07 -4.49988569E-03 -6.71178768E-03  7.38486759E-03
  2.51066250E-02 -4.68322946E-02 -8.09011012E-03 -4.85597228E-02 -7.45545677E-06
 -1.19883928E-02  1.72826458E-02  1.36515594E-05  4.10905375E-03 -8.40513132E-06
  2.07778005E-05  4.36378457E-03  6.24731786E-03  1.59174773E-04  5.77274993E-04
 -1.42657028E-03  2.19105636E-03  8.07771919E-05 -2.77742591E-04 -7.21407674E-03
 -1.93706076E-03 -1.35303394E-03  8.00768987E-04 -3.07263028E-04 -5.94838932E-05
 -7.02503907E-04  1.05172689E-04 -3.14640754E-04  7.71337195E-03 -6.63203180E-04
  1.73341662E-03 -1.35134205E-04 -1.83705301E-04  9.32601960E-03 -7.66170247E-04
 -2.22894080E-03 -2.40109518E-04  8.03864634E-04  2.76975331E-03 -1.09034675E-02
  9.16264563E-03  1.15859315E-02  1.96851305E-05  6.56358501E-03 -1.52740134E-03
  2.64247839E-05  7.79583827E-04 -2.77212856E-06 -9.32969917E-06  3.35941768E-03
 -1.09808703E-03  9.28954412E-04  2.92694443E-03 -5.07814065E-03 -4.54698407E-02
  4.07745162E-02  2.63967775E-06 -2.34956460E-02  2.56485858E-02 -3.70629884E-05
  5.31360304E-03  1.27412791E-05 -3.60856190E-07  3.45208085E-03  1.00365494E-02
  2.07431950E-03  7.89588693E-03 -4.24831515E-02 -1.96371503E-02  4.66057181E-02
  3.60267990E-04 -4.99129544E-02 -4.06775502E-02  3.46701619E-04 -1.49427742E-02
  4.64896752E-05 -1.36635932E-04 -7.35355217E-02  1.12910367E-02 -1.90255557E-02
 -6.63501977E-02  2.17513845E-01 -1.55361862E-01 -2.71430200E-01  5.86279938E-04
  6.71078577E-02  1.06073805E-01 -5.88470300E-04 -2.47951762E-02 -8.35461952E-05
  7.19464112E-05 -3.22372940E-02  7.28607474E-02  2.44227094E-03  9.26989510E-03
 -4.73821197E-02  3.63992973E-02  1.88980128E-02 -4.37600327E-05  6.12823793E-03
 -8.88856470E-02  1.17949658E-03 -1.76557032E-02  1.08892181E-04  2.02330248E-04
  2.17380728E-02  6.81037856E-02 -3.00603797E-03 -1.05570023E-02  3.73017629E-02
 -2.12418813E-02 -3.07005485E-02  1.01633652E-04  1.50141166E-02  1.52812894E-02
 -2.42458875E-03  2.50616452E-03 -1.24288971E-04 -2.44255665E-04  9.10705323E-03
 -3.10948106E-03 -1.33534331E-03 -4.84903755E-03  1.67479170E-02 -7.27784533E-03
 -5.52136136E-03 -2.17998302E-04  1.21570098E-02  3.21069653E-03  1.14964861E-03
 -1.12851113E-02  1.25750056E-04 -2.59439097E-04  4.42546794E-03 -1.23583724E-02
 -2.24872434E-03 -7.80078214E-03  2.44152403E-02 -6.87428445E-03 -2.87932496E-02
 -1.40885255E-04  3.26019835E-02 -5.74854227E-03 -4.55417908E-04  2.18938799E-03
 -1.52372973E-04  2.50202471E-05  4.53769261E-03 -9.38679807E-03  7.77587918E-04
  2.89611695E-03 -7.91415762E-03 -2.24533561E-02  9.07865562E-03  6.75540079E-05
 -3.20256066E-03  1.85013228E-02 -3.47431526E-06  4.55346401E-04  7.34485169E-05
 -1.30996172E-05  2.52283970E-03  6.16132298E-03  4.89666653E-04  1.65050195E-03
 -3.11069839E-03  7.78216911E-03  4.28241659E-04 -1.06531898E-04  3.19365650E-02
 -9.17552225E-04  4.91772448E-03 -5.44549272E-03  1.04211658E-03  4.44632314E-04
  4.00955688E-04  6.39252457E-03 -1.01743316E-03 -3.38469489E-02  7.70303363E-03
 -3.83037901E-03  1.09401841E-03  5.65019283E-03 -3.28525038E-02  4.79949905E-03
  9.00631972E-03  6.69678221E-04  8.92494995E-05  2.61911288E-04 -1.41518438E-03
 -7.58673163E-03  1.28162513E-02 -1.01478759E-04  4.33282475E-04  8.35622319E-03
 -3.29691010E-05 -1.26528722E-03  7.07386011E-06  3.70935043E-07  5.52234536E-04
 -3.07272381E-03 -1.15281424E-03 -4.29092184E-03  1.97514416E-02  8.16494009E-03
  1.76243425E-03 -1.12073315E-04  3.67797807E-03 -8.09488261E-04 -4.02212921E-05
 -6.23145644E-05 -8.16758348E-06 -1.60275111E-05 -1.08259646E-03 -1.27693633E-03
  2.15233417E-01  2.29479618E-03  6.91837885E-03 -1.51887459E-02 -3.06374716E-02
 -3.43874282E-02 -1.00005913E-03 -3.75790418E-02  6.03540924E-01 -6.88669069E-05
 -5.22680797E-03  5.55580128E-06 -2.73862826E-04 -2.94086911E-02 -5.64653983E-02
 -1.82661811E-02 -6.46187902E-02  2.19126205E-01 -1.04724916E-01 -1.64269843E-01
  1.79184464E-03 -3.66383443E-01  5.02348311E-01  1.87102144E-04  8.95402126E-03
  5.36299933E-04  1.49400611E-04 -3.41916992E-03  3.52504422E-02  1.06050017E-02
  3.62125928E-02 -1.12539072E-01 -5.45153352E-02  3.27622472E-03  2.20160301E-03
 -3.03326062E-01 -3.49409409E-01 -8.83142879E-04  1.47693495E-03 -1.66675679E-04
 -5.49461589E-04  5.36136079E-02  3.27532368E-02  1.03049130E-02  3.99211935E-02
 -1.38131136E-01  3.02531173E-02 -2.58018631E-02 -1.42899646E-03 -5.85805862E-02
 -3.88149724E-01  3.10593439E-03  4.54407609E-02 -1.01433833E-03 -5.04825321E-04
  3.16872341E-02  2.64819865E-02  1.20284812E-02  4.56923072E-02 -1.57451520E-01
  1.89200957E-02  4.09381416E-02 -2.76877358E-04  4.38857347E-01 -2.19914183E-01
 -2.36617000E-03  2.78465611E-02 -1.65556410E-04  7.78692981E-04 -9.90601716E-03
  2.39102731E-02  9.01545937E-03  3.50592239E-02 -1.21189941E-01 -4.08272902E-02
 -1.08989480E-02 -1.08981009E-03  4.65028338E-01  3.82393558E-01  9.00415097E-04
  2.26216287E-02  1.64161172E-04  1.94003125E-04 -4.89193033E-02  1.77345156E-03
 -8.91353230E-04 -2.23446265E-03 -2.94688849E-03 -1.28409533E-02 -3.18663865E-02
 -4.78365108E-04  9.53949664E-04 -1.17288542E-01 -3.11189382E-04 -7.12119914E-03
 -2.84933481E-04 -2.41292123E-04 -1.24464430E-02  7.17855755E-02  4.10248628E-03
  1.40857726E-02 -2.57401243E-02  3.05695007E-02 -5.40354283E-03 -5.72485189E-03
  8.29986186E-04  4.08411597E-02 -7.13623895E-03  9.42478455E-03 -9.04160697E-04
  8.46552294E-04 -2.05275353E-02  8.83260650E-03 -4.13056748E-03  5.35701305E-02
  5.54913033E-03  1.18065679E-02 -2.24482740E-03 -6.90101925E-03  7.00362347E-03
  2.95601112E-04  5.41990769E-03  2.29692662E-03 -2.77892903E-02 -9.65466484E-02
  3.95963866E-01 -9.78510138E-02 -1.38074154E-02  2.00860458E-03  1.10326049E-02
  3.35645694E-02  7.29681083E-04 -2.35129926E-02  1.33264047E-04  2.78721210E-05
 -9.14262038E-03 -6.87245824E-03  1.70133661E-02  6.33854924E-02 -2.96495461E-01
  5.91352619E-02 -1.39881535E-02 -5.79216210E-04 -1.31638582E-02  2.82094705E-02
 -3.66818039E-05  2.01862274E-02 -6.60729383E-05  8.55511000E-05  8.33324074E-03
 -7.70499821E-04  1.42355126E-01  3.16908544E-01  8.06177395E-03  2.72116838E-02
 -7.98698885E-02 -2.81116155E-02  9.91021981E-03 -1.61441504E-04  4.10473689E-02
  4.92928892E-01  1.63752203E-04  1.13021789E-02  3.15802652E-05 -2.20358471E-05
  1.34606726E-02 -3.87664056E-02 -5.28901734E-03 -1.80620752E-02  5.29737712E-02
  6.78199029E-02 -5.59269731E-02  3.63880810E-04 -3.52370328E-01  3.30424069E-01
 -3.13285332E-04  9.16287229E-03  3.32232618E-05  1.44752889E-04  4.19705664E-02
  1.24452439E-02 -3.54777634E-03 -1.21386338E-02  3.56968349E-02 -7.95762879E-02
  1.92378101E-02  4.14936720E-04 -2.83092263E-01 -2.28062275E-01  5.38608001E-04
 -5.00493928E-03  1.88503864E-04  1.65031683E-04  2.09997942E-02  1.90725881E-02
  1.10156850E-03  4.17836227E-03 -1.65229069E-02  2.22818182E-03 -4.20897752E-03
 -1.12914662E-04 -2.36514033E-03 -3.31796835E-01 -2.40173788E-04 -7.69222327E-04
 -9.91412157E-05 -1.41448467E-04  1.41805566E-02  2.31727107E-02  2.20464996E-03
  8.63488959E-03 -3.27842047E-02  6.40676877E-03  9.10968013E-03 -1.76947854E-04
  3.14921589E-01 -2.10522525E-01 -4.32123997E-04  7.18502091E-03 -3.10529184E-05
  6.61180939E-05 -1.31077922E-02  4.66127795E-03  4.14973307E-03  1.48822503E-02
 -4.01447704E-02 -6.57046676E-04  1.83313656E-02 -3.33605905E-04  3.40631937E-01
  3.25013367E-01  3.04288777E-04  1.20392137E-03 -3.19030547E-05  1.31848926E-04
 -8.76364644E-03 -3.24816151E-03  9.12082774E-04  3.03652181E-03 -1.04330764E-02
 -3.10914316E-03 -3.06397498E-02  4.12621798E-05  2.97967147E-03 -9.27920388E-02
 -4.46500005E-05 -1.22069908E-02 -4.12208731E-05 -7.38345662E-05 -2.61057965E-02
  6.56429733E-02 -8.21532266E-04 -2.87606950E-03  6.66697356E-03  2.24928931E-03
  5.77059422E-04  2.11207173E-04  1.05975756E-02  3.66686091E-02  9.01359089E-04
  7.27241648E-04  5.84160306E-04  6.56923497E-04 -1.85786855E-03  4.20101580E-03
  2.54496992E-03  1.24535122E-02  2.19967297E-03  4.43844228E-03 -2.03297252E-03
  1.50601957E-03 -2.60481651E-02 -7.37356028E-04  6.97788814E-03  1.90850923E-03
 -2.55239834E-02 -9.06795016E-02  3.92369432E-01 -8.25541466E-02 -3.13761403E-02
  5.29297840E-04  9.10969202E-03  2.65456858E-02  4.85513614E-05 -1.89354988E-02
  9.06975816E-05  3.54600903E-05 -1.00397512E-02 -2.38152524E-03  1.31012259E-02
  4.64002820E-02 -1.95882071E-01  3.65997509E-02  8.63394811E-03 -3.56772473E-04
 -1.81714929E-02  2.48500559E-02 -7.85798171E-05  1.70792167E-02 -4.99697970E-05
  1.33668454E-05  6.13452470E-03 -8.26090235E-04  2.12251239E-02  1.33272563E-01
  1.12306524E-01 -6.05993476E-03 -2.08398529E-02  5.90658563E-02  3.72551193E-02
 -6.13639473E-02  5.22509086E-06 -6.61479044E-03 -5.51790550E-02  1.88122469E-04
 -1.13937562E-02 -7.46967361E-06 -4.09271811E-05 -2.96282457E-02 -1.24588520E-02
 -1.07758258E-02 -3.83172617E-02  1.26692734E-01 -3.94517501E-02  2.38419121E-02
  2.93375248E-04  9.66755370E-02 -1.67626720E-02 -3.55492672E-04 -1.60725562E-02
  4.91315133E-05 -5.29619138E-05 -1.32912919E-02 -7.53558601E-03  8.85503130E-04
  2.69154589E-03 -1.13816396E-02 -2.18620509E-02 -1.57200916E-02  3.92057230E-04
  7.35828758E-02  4.86950308E-02  7.06955643E-04 -7.56030294E-03  7.19895642E-05
  8.23028162E-05  2.04336863E-02 -2.87649840E-03  2.18900143E-03  8.44488368E-03
 -3.18927057E-02  1.30066195E-02  1.03653663E-02 -1.77548500E-04  3.34505820E-02
  7.32479733E-02 -1.79944946E-03  2.37280315E-03 -4.97725803E-04 -7.58086312E-05
  1.18228391E-02  6.18646934E-04  1.23995731E-03  5.01130524E-03 -1.89611404E-02
  1.54218282E-03  3.67640613E-03 -3.29934124E-05 -2.22497565E-02  4.45751007E-02
  8.34646224E-04  1.41199693E-03  2.09908403E-04 -1.45016755E-04  5.18140580E-03
 -1.27978744E-03  2.30538473E-04  1.64861123E-03 -1.53738360E-02 -2.22161304E-03
  1.45147277E-04 -2.30331426E-05 -8.62561794E-03 -3.93659049E-02 -3.05742424E-04
 -8.96748810E-04 -4.03436461E-05  1.60802736E-05 -1.42671679E-02 -2.73881842E-03
  2.59604102E-04  1.12560989E-03 -4.69316809E-03 -1.80549852E-02  3.26592531E-03
 -3.57004050E-05  1.33854416E-02  4.59763242E-03 -7.05994792E-05 -4.10730273E-03
 -5.85402944E-06 -1.85546341E-05  7.19754110E-03 -1.57305706E-02  2.93771992E-04
  9.29216565E-04 -6.32874303E-04 -5.81933642E-04 -2.59806940E-03 -6.85984117E-04
  3.10959957E-02 -1.11490636E-02  3.52716328E-03 -1.11457005E-03  8.14317390E-04
 -3.30535195E-04 -5.24630412E-03 -1.33113839E-03  1.38360154E-03 -3.36519734E-02
  5.19946508E-03 -8.08947322E-03  1.43999099E-03 -1.86782495E-03 -2.28998406E-02
  4.49084681E-03  4.65814861E-03  4.90776075E-04  3.52406062E-03  1.22620454E-02
 -5.07418837E-02 -7.66561750E-03  2.08278685E-02  8.20897686E-05 -1.24556254E-02
  6.64491215E-03  7.15246098E-05  3.41116014E-03  2.32657282E-06 -3.24345636E-06
 -1.65653548E-03 -4.23751755E-04 -3.77135932E-03 -1.30839561E-02  5.47406578E-02
  5.19480554E-03  6.53411705E-03  1.10206869E-05  1.03046071E-02 -3.54754720E-03
  6.37878561E-06 -2.14389176E-03  6.16468046E-06 -1.26862126E-05 -2.32429088E-03
 -4.70807618E-04  2.70318861E-02  2.05435243E-02 -1.20650225E-02  2.67829497E-02
 -4.32790271E-05 -1.51361536E-04  4.53091658E-04  2.05590441E-04 -2.41491198E-04
  2.48975266E-02  4.52509477E-04  4.33859612E-04  1.16960110E-03 -7.03618193E-05
  1.50570134E-03 -6.40436776E-03  5.23676920E-05 -5.08946573E-05 -1.63018060E-05
 -5.81401302E-05  1.26239486E-04  3.92384622E-04  7.71611938E-04  4.86936224E-02
  9.31180065E-05  6.01093614E-05  9.06998816E-03 -2.20335857E-04  4.11734715E-03
  2.26326247E-03  1.65352141E-04 -2.38972141E-04 -5.52945398E-05 -1.92984726E-04
  6.21139590E-04 -1.58818146E-04  2.35896922E-07  4.32248627E-02 -7.48130637E-05
  5.28100002E-04  6.72262366E-03 -1.34308619E-04 -5.07509639E-03  3.92078081E-04
  4.72150064E-05 -1.30589356E-04 -5.21774376E-06 -1.74971664E-05 -4.57941195E-05
  1.11346978E-04 -4.18718499E-05  1.12090525E-02  1.42512122E-03  4.02193405E-05
  2.39465989E-03 -5.65096219E-05 -2.76257873E-03 -6.76029820E-03  4.54727354E-05
  2.32802457E-04 -9.57655327E-06 -3.99630220E-05  1.50360550E-04 -2.25485419E-04
  1.47621490E-04 -9.64832773E-03  8.53535991E-06 -5.51288105E-04 -1.93660415E-03
 -1.66727740E-05  1.88474930E-03 -8.97608588E-04 -2.17380735E-05  4.31858284E-05
 -2.94182858E-05 -1.12997379E-04  3.94217427E-04  1.55141096E-04  7.00590991E-05
 -5.64330815E-03  4.72298502E-04  4.93912376E-04  8.82364397E-04 -1.27780319E-04
 -3.12441806E-03 -2.58066013E-03  3.52283658E-05  8.48510711E-05 -1.76020247E-05
 -6.05645340E-05  7.43139845E-05  3.20169108E-05 -4.62217218E-05  3.75922793E-03
  2.17403931E-04 -6.85629930E-05  3.05954601E-03 -1.35914260E-04  3.34808716E-03
 -2.87122491E-03 -1.27891846E-05  1.73964432E-05 -3.32611233E-05 -1.15726202E-04
  2.67686994E-04 -3.68165459E-05  6.77887894E-04 -5.32981999E-03  6.23407587E-04
  5.20394727E-05 -2.28192043E-03 -1.65160701E-04 -1.33181980E-03  5.07464609E-05
  1.06917593E-05  1.32714289E-04 -5.90532132E-04 -6.90714071E-04  1.05081611E-04
 -6.95847163E-05 -1.06183275E-04 -2.21719405E-04 -4.90571248E-04 -5.32805396E-05
  5.52093167E-05  2.82366792E-04 -3.78376234E-05 -1.37861162E-04  6.40494016E-04
 -2.80444597E-04  5.70663402E-05  8.46544368E-03 -9.52671681E-05  1.32497683E-04
  2.95905062E-03 -1.30570225E-05 -1.38787268E-06  5.87480893E-04 -5.23426018E-05
  3.04996286E-05 -2.61097763E-05 -9.83289867E-05  4.85208043E-04 -1.72947820E-05
  1.35433004E-04 -1.58022375E-02  5.09511851E-06 -2.16628140E-05 -6.05502474E-03
  1.87219078E-05 -2.69730206E-04  4.07118478E-04 -2.73771842E-05 -2.46322672E-05
 -3.35958404E-04 -1.71440644E-04  4.77393043E-05  7.23759390E-05  5.89127837E-03
 -2.78721852E-03 -9.78829685E-03  3.42870267E-02  2.08925381E-02 -2.98368053E-02
  1.69427163E-04  4.69655479E-02 -4.16926629E-03  1.03069069E-04  9.65726382E-03
  4.02220973E-05  2.36864257E-05  7.99102975E-04  2.48690469E-03  2.38661587E-03
  9.10748357E-03 -4.75824667E-02 -3.62546123E-02  2.07358616E-02  1.35664541E-04
  2.32321425E-02 -1.25089764E-01  8.52757436E-05 -1.94659418E-02  1.12603839E-04
 -9.19666480E-06  2.32685042E-02 -6.57487311E-02 -1.90090852E-02 -6.62308444E-02
  2.14876318E-01  1.51817881E-01 -2.66538210E-01  1.06100247E-04 -3.39515551E-02
  1.36673232E-01  6.18683271E-04 -2.37479863E-02  2.95968619E-04  4.80257755E-04
 -3.21494314E-02 -6.94725096E-02  1.89347057E-03  7.27554239E-03 -4.05976796E-02
  1.72251216E-02  4.93726047E-02  1.68819803E-05  1.07692924E-01 -1.14692198E-02
 -2.29631264E-03 -2.04841015E-02  1.65243896E-04 -4.77094037E-05 -6.54901086E-02
 -5.85371916E-03 -2.39955916E-03 -8.41210595E-03  2.82349186E-02  8.84605008E-03
 -2.93380713E-02 -3.18611994E-04 -3.84934922E-02 -2.03593237E-02  1.01148647E-03
  3.44902099E-03  1.60217887E-04 -2.45186293E-04  1.49769857E-03  5.60791390E-03
 -1.34519899E-03 -4.90138512E-03  1.72423362E-02  7.40058478E-03 -5.89429335E-03
  7.28011900E-06 -1.78677330E-02  1.38861136E-02 -3.29727483E-04 -1.34700405E-02
 -9.43302697E-05  4.98632791E-05  5.91764045E-03  9.65112225E-03  6.77021926E-04
  2.44309320E-03 -7.39404893E-03 -1.18226604E-02 -1.27270007E-03  1.92034744E-05
  6.84996701E-03 -3.86682579E-03  2.77545279E-05 -6.09560763E-03  3.70285276E-05
 -6.18294630E-06 -2.33410749E-04 -6.19685388E-03  1.11544799E-03  4.21645273E-03
 -9.29479435E-03  9.49157064E-03  1.68484662E-02 -8.66701659E-04  4.40960699E-02
  1.93682777E-02  4.58894054E-03 -1.42365317E-03  1.43613135E-03  4.01525438E-04
 -3.63748258E-03 -1.14983824E-03 -3.89741346E-04 -2.84385045E-02  2.24977564E-03
 -6.96062763E-03  2.06404907E-04  6.42630003E-03 -4.26791140E-02  8.32658364E-03
  8.30784537E-03  1.89707967E-03 -7.43089786E-04 -2.81304921E-03  1.41765020E-02
  1.47867757E-03 -3.62287242E-03 -3.96785877E-05 -2.55066298E-03  3.10263404E-03
 -2.92722063E-05  8.63941695E-04 -7.42686635E-06  8.82469076E-06 -1.15924243E-03
  1.15568388E-03 -7.12760655E-04 -2.58642074E-03  1.25924986E-02  8.70086815E-03
 -3.23059789E-04 -5.16235702E-05  5.59290420E-03 -2.56700595E-03 -3.18588183E-05
  7.68761615E-04 -8.68385841E-06 -4.51564741E-06 -1.28451358E-03 -6.96466606E-04
 -1.77518036E-02 -5.59963159E-02 -2.51014910E-02  3.48394662E-03  1.77365903E-04
  2.16645289E-01  9.19669649E-04  6.95432278E-03 -4.19089053E-02 -3.01412651E-02
 -3.21664506E-02 -4.33984128E-03 -4.58923845E-02 -5.58093238E-02 -5.44434098E-04
  6.94806766E-03  3.58208635E-04 -4.39749730E-05  2.95666209E-02 -1.44702696E-02
  5.37557287E-03  1.64498722E-02 -4.62358155E-02  5.45394925E-02  1.81092249E-02
  3.43157188E-03  2.32255247E-02 -1.31163400E-01  3.26810340E-03 -1.32272054E-02
  1.75284264E-03 -6.32974706E-04  3.67449838E-02 -4.39148910E-02 -2.15248483E-02
 -7.63059357E-02  2.62097087E-01  8.34391486E-02 -1.82000719E-01  5.16011262E-03
 -1.63489273E-02  1.92666770E-01 -6.45408675E-03 -9.96880215E-03 -3.64219242E-04
 -1.85774583E-03 -2.04608209E-02 -5.51047388E-02  7.18497387E-03  2.29408209E-02
 -7.06971024E-02 -5.00977490E-03 -2.33070280E-02 -1.38709068E-02  3.87469479E-02
  1.21113534E-01  1.32603993E-02 -7.34300691E-03 -3.61377093E-03 -3.95271723E-05
 -5.11244624E-02  2.30250098E-02  4.77231716E-03  2.06012366E-02 -8.18329647E-02
  1.87963838E-02 -3.09843242E-03  4.66252824E-03 -1.61784241E-01  7.65265161E-02
 -5.69361527E-03  2.94071325E-02 -3.61840080E-04  1.99545644E-03 -2.33950149E-02
  1.20314314E-02  7.09036198E-03  2.71257992E-02 -9.49611858E-02 -9.85060492E-03
  2.99399263E-02  3.26656659E-03 -1.41345722E-01 -3.15657930E-02  2.88595034E-03
  1.41415640E-02  1.58868952E-03  5.89710594E-04 -8.90748396E-03 -7.45354284E-03
  1.41082942E-03  4.55283291E-03  4.77587908E-03  1.67993388E-02  8.50416179E-03
 -3.93383358E-03 -4.26894669E-02  3.75610253E-03 -2.10013498E-03  3.21469130E-02
 -1.38973892E-03  1.18384231E-04  3.55672794E-02 -2.34411291E-02 -7.76325436E-03
 -2.66359582E-02  5.11363647E-02  8.09338210E-02 -9.94392293E-03 -3.81959810E-02
 -1.19169997E-02 -1.66034865E-02 -3.24758321E-02 -1.33024975E-03  3.17684781E-03
 -1.27729740E-03 -3.30912639E-03  5.88824668E-03  3.92136049E-02  6.59477271E-02
 -1.42400757E-02  1.83553434E-02 -6.07028242E-03  2.93178348E-02  5.56569660E-02
 -8.45127757E-03 -2.06388890E-02 -3.42329219E-03  1.36455484E-02  4.94998740E-02
 -2.25349186E-01  1.14575016E-02  2.88333924E-02  3.41371893E-03 -1.44716893E-02
 -1.87146517E-02  2.08134714E-03  5.71819166E-03  2.91026817E-05 -1.98913743E-04
  6.85209158E-03 -1.76137589E-03  5.79905153E-03  2.10301464E-02 -9.80914172E-02
 -3.40018384E-03 -2.56859682E-02  3.96690991E-03  3.92290591E-03  8.94395942E-03
  2.20338705E-03 -2.87231775E-03  5.39040853E-05  1.73815967E-04  6.61529558E-03
  2.39347594E-03 -4.63847008E-02 -5.48014741E-02 -2.91249414E-02 -3.20995703E-03
  1.33771710E-04  1.59833423E-01  2.12800237E-01  7.63025257E-04  2.45586183E-03
 -4.14198503E-03 -3.64867704E-03  4.81554894E-04 -2.41394408E-04 -1.87348938E-02
  1.18962303E-01 -6.36068584E-05  4.11657750E-03  7.74717026E-06 -2.32522997E-05
 -1.03307782E-02  5.87660260E-03  4.99174613E-03  1.77546526E-02 -5.73077116E-02
 -8.42360279E-02 -2.05112047E-02 -3.43661637E-04 -1.10763313E-01  9.19628563E-02
 -4.22958641E-05  1.02462358E-02  5.56652852E-05 -2.62043828E-05 -1.25222769E-02
  1.89153495E-02  6.12422224E-03  2.12757840E-02 -6.71558311E-02  7.57164462E-02
  5.25302771E-02  1.99401142E-04 -1.18544770E-01 -1.11238499E-01  5.70778749E-04
  4.49272639E-03  1.74069667E-04  5.12443549E-04 -2.05723677E-02  1.59207390E-02
 -6.61906682E-03 -2.21147522E-02  6.67880622E-02 -3.85920778E-02 -1.23460073E-02
  3.69167369E-03 -1.75312255E-02 -1.35783747E-01  2.11801398E-04  7.26305378E-04
  1.48267206E-03 -1.64670460E-05 -1.19911084E-02 -9.76936492E-03 -2.53816587E-03
 -9.65040719E-03  3.33097595E-02  8.97166849E-03 -2.03177451E-02  1.03252708E-04
  7.76853895E-02 -8.39192565E-02  6.58363502E-05 -6.22069345E-03  7.42371872E-05
 -4.44796106E-04 -7.65433059E-03 -6.13319330E-03 -1.91356971E-04 -1.39472180E-03
  9.13805122E-03  1.02738307E-03 -2.02048126E-03 -5.85211838E-04  9.07782011E-02
  7.13473244E-02  7.77706253E-05 -5.96931576E-03  8.65267685E-06  7.75887351E-05
  9.82379793E-04 -4.27825778E-03  1.26353654E-03  4.32758347E-03 -8.43449650E-03
 -7.91620492E-03 -6.54398876E-03  1.98495038E-04 -4.59943359E-03 -2.22399853E-02
  1.65616451E-04  1.13902802E-03  1.97380067E-05  1.42523085E-05  5.52604678E-04
  1.97671176E-02 -1.05377114E-03 -3.28339267E-03  3.47196522E-03  1.85941458E-02
  3.09442912E-03  7.13767229E-03 -2.09976727E-02  2.10669848E-02  7.17112917E-04
 -3.11148953E-03 -4.36172091E-04  8.69913560E-04  5.71243888E-03  1.53155532E-03
  4.63920174E-03  2.82902293E-02 -2.54152525E-03  1.03753770E-02 -1.09433633E-03
  9.51533706E-03  1.27347406E-02 -2.68787008E-03 -2.86639761E-03 -3.80766101E-04
 -5.86712531E-03 -2.03612828E-02  8.32187025E-02 -1.38262483E-02 -1.10645994E-02
 -7.03538075E-05  7.10896512E-03  2.30507413E-03 -1.03089560E-04 -5.05798008E-03
  1.83935188E-05  1.13590333E-05  4.68939604E-04 -1.98226269E-03  6.65342082E-03
  2.31407083E-02 -9.56078020E-02  1.15424248E-02 -1.35465973E-02 -8.67155071E-05
 -7.57323592E-03  4.64667761E-03 -4.23368414E-05  5.55597024E-03 -1.72152969E-05
  6.88355300E-06  1.51882164E-03  6.23149937E-04  2.09044937E-02  2.51899888E-02
  1.21564062E-02 -1.06162955E-02 -9.35682319E-05 -2.00295926E-02 -3.25758689E-02
  3.29808687E-02  1.97571022E-03  7.85068067E-03 -3.14426886E-02 -1.61664277E-02
  7.86210710E-03 -3.32734882E-04 -8.94357042E-03  9.47309239E-02 -3.13197411E-05
  3.06398891E-03  6.21435708E-05 -7.99391947E-05  7.62268069E-03 -8.31742893E-03
  1.27177703E-03  4.11131515E-03 -1.71903966E-02  1.99273983E-02 -1.58099780E-02
  3.92296782E-04 -8.49372891E-02  4.44481164E-02  2.24648007E-04 -5.98363912E-03
  1.36655396E-04 -2.30520054E-05  2.19694950E-02  4.95441483E-03 -1.01571263E-02
 -3.59655940E-02  1.17881371E-01  4.01969847E-02  1.97756631E-02  5.26683983E-04
 -9.06973313E-02 -5.23358353E-03 -1.73192103E-04 -1.14119990E-02  4.88827264E-05
  1.05125316E-04 -8.46586400E-03  6.20166823E-03 -4.51215390E-03 -1.55148464E-02
  4.43747908E-02 -4.45143767E-02 -6.09345858E-02  4.32402055E-04  6.30185321E-03
 -3.40072623E-02  7.95147288E-04 -8.61240216E-03  5.72906093E-04 -3.41163624E-04
 -3.02355143E-02  2.14044394E-02  7.01551269E-04  3.26981870E-03 -1.78350949E-02
  5.24008585E-03  2.70855912E-03  1.37668314E-04  3.47333279E-03 -3.30704064E-02
 -1.12680122E-04  4.33938594E-04 -3.00702972E-05 -1.27254020E-04 -1.95824889E-02
  3.60144581E-03  1.98961369E-03  7.54011477E-03 -2.56357461E-02 -3.70660335E-03
  6.00748933E-03 -1.96919307E-04  2.77996690E-02  7.14072323E-02  2.11263039E-04
  3.48977125E-04  4.79135461E-05  1.02716382E-04 -1.21982983E-03 -2.38226047E-03
  3.36562448E-04  1.02975116E-03  1.87903722E-03  7.22753837E-03 -3.64394975E-03
 -2.50064796E-04 -1.33468729E-02 -1.75414556E-02 -9.13124251E-05  9.01572965E-03
 -8.39647728E-05  2.79878103E-05  8.86443964E-03  9.38723187E-03  1.44006511E-03
  5.04621295E-03 -1.05246343E-02  1.93439983E-02  2.59099024E-03 -1.19918596E-03
 -6.86524800E-03  2.53364832E-03 -8.36715719E-04 -1.36094612E-03  3.28561939E-04
  3.37837586E-04  5.61727499E-03  1.02581564E-02 -1.03799271E-03  1.41236675E-02
  6.76710456E-05  4.12170441E-03 -1.57721702E-03  6.96878003E-03 -3.17060478E-03
  4.56288242E-04  9.72411081E-04  9.85291359E-05 -1.23425200E-03 -3.74741891E-03
  9.87883982E-03 -4.59652954E-03 -7.61847904E-04  1.69824801E-04  1.97303132E-03
 -8.59643006E-04  9.09795476E-05 -2.55670223E-03  5.92518959E-06 -1.64791988E-05
  4.82165416E-04 -9.25044703E-05  5.91342086E-03  2.09220680E-02 -9.03608200E-02
  8.46835424E-03 -1.11770748E-02  2.18159192E-04 -4.73805848E-03  6.31208807E-03
  1.44172742E-04  3.15061553E-03 -1.22418452E-05  2.27849679E-05  3.20361030E-03
 -3.25080782E-04  1.18108673E-03 -1.26179543E-03  1.33756421E-02 -8.49803473E-03
  4.39415289E-05  2.67712754E-02  3.96277315E-02  3.63286749E-03  2.58170866E-02
  4.63117332E-05  1.66027923E-04 -5.45347459E-04 -1.72941809E-04  1.97662714E-04
 -2.91578027E-03 -2.06397598E-04  1.64846793E-03  1.82492826E-03  1.89003778E-04
  1.74337010E-03 -7.45717091E-03  2.18494483E-04 -6.03084578E-05  5.00818112E-06
  4.70135790E-05 -3.46254370E-04  1.14330874E-04 -2.26834892E-04  4.28984303E-02
 -1.12640150E-03  8.25130190E-04  6.47760298E-03 -1.96182790E-04  8.12580024E-03
 -1.46368698E-03  2.64024332E-04  7.82855424E-05  1.61901474E-05  2.74411800E-05
  3.64131064E-04  8.52639284E-05  6.51280681E-04  5.91802360E-02 -3.18567011E-03
  1.30205503E-03  8.55279773E-03  3.53323777E-04 -2.92519418E-03  1.76252880E-03
 -5.53971385E-04 -2.50597854E-04  1.82496468E-04  5.42572375E-04 -1.39109228E-03
 -2.12533105E-03 -2.67818456E-04  2.58308305E-02  5.53995516E-03 -1.10634384E-03
  7.35081517E-03  1.43577729E-04 -7.47906740E-03 -6.94064580E-03 -2.26811573E-05
 -2.08159309E-04 -1.59774690E-06 -1.63087065E-05  3.58244227E-04  2.08715518E-04
 -3.46387441E-04  4.86335324E-03 -9.16179056E-04 -2.71068443E-03 -1.62459514E-04
  4.50948430E-04  4.12578302E-03 -2.21522910E-03 -6.28779887E-04  3.53084374E-04
  3.11121456E-05  1.09366083E-04 -3.17377543E-04 -6.58788416E-05 -3.04201820E-05
 -1.17375000E-02  1.01713063E-03  1.57294460E-03 -1.49761431E-03 -1.30473452E-04
  7.58523503E-04  6.02598295E-04  1.35339076E-04 -8.77177683E-06  2.16080071E-05
  7.23923269E-05 -1.03551761E-04 -4.89677504E-05 -9.54701812E-05 -8.37783982E-03
 -8.66714131E-05 -2.92712284E-04 -3.41755388E-03  1.13846507E-04 -1.83070201E-03
  1.15175774E-03  1.58940700E-05  1.93954689E-04 -5.00286118E-04 -1.79133512E-03
  3.89668852E-03  5.02101551E-03 -1.84827068E-03 -2.34435132E-02  1.80147307E-03
 -7.02744308E-04 -1.24782571E-02 -7.53058504E-04 -2.86917320E-03 -6.16829902E-05
 -2.53009256E-04 -1.40112262E-04  1.39992194E-03  7.60520270E-04 -2.18941675E-04
  8.63938499E-04 -1.19055455E-03 -4.92619501E-04  6.01214501E-04 -2.35051101E-04
 -8.31796630E-04 -5.95150802E-04 -3.69068424E-05 -1.25989889E-04  4.88044244E-04
 -6.29373630E-05 -7.11249194E-05  1.05243139E-03  6.21861233E-05 -1.84634995E-05
  1.36470135E-03 -5.41537263E-05  2.25200131E-05 -5.30447887E-04  1.16197086E-05
 -3.88877649E-05  9.00330851E-05  3.16996461E-04 -1.34936334E-03  7.53411316E-05
 -1.66547483E-04  9.66529846E-03 -1.38272325E-04  7.90670230E-05  5.19822498E-03
  4.90103527E-05  3.15598699E-05  2.36161175E-04  4.24274051E-05  3.04172106E-05
  3.61366042E-05  6.35852032E-04  3.41533653E-04 -9.26169635E-05  5.29274908E-03
 -2.51673013E-04  1.71443406E-03  2.37576813E-04  2.54330214E-04  7.18695959E-03
 -2.79107345E-03 -9.80088178E-03  3.43626355E-02  2.08595858E-02  2.98316770E-02
  1.94043671E-04  4.72799108E-02  3.33895611E-03  1.06641848E-04  9.77772777E-03
  4.72202947E-05 -3.24091535E-05  9.46842973E-04 -2.52388703E-03 -1.34259650E-03
 -4.89143378E-03  1.71792168E-02  7.49407155E-03  5.96159151E-03 -6.72246649E-06
 -1.77606220E-02 -1.44838622E-02 -3.60570707E-04 -1.35654922E-02 -8.72365364E-05
 -3.11323928E-05  5.91542130E-03 -9.69362350E-03 -2.41159417E-03 -8.45373004E-03
  2.84014912E-02  9.01052680E-03  2.92043073E-02 -3.25782067E-04 -3.86704162E-02
  2.05611139E-02  1.01406522E-03  3.55431154E-03  1.62612705E-04  2.45568088E-04
  1.64110666E-03 -5.69167406E-03  1.91374893E-03  7.35049830E-03 -4.10441877E-02
  1.75027567E-02 -4.92595940E-02  3.49318461E-05  1.08776991E-01  1.12494706E-02
 -2.31367982E-03 -2.07234957E-02  1.51203469E-04  5.92435127E-05 -6.59496868E-02
  5.89504136E-03 -1.90726943E-02 -6.64643040E-02  2.15969596E-01  1.52082939E-01
  2.66999410E-01  1.78104129E-04 -3.51260776E-02 -1.38694967E-01  5.71702898E-04
 -2.36382410E-02  3.32065744E-04 -4.76027153E-04 -3.15807584E-02  6.92166204E-02
  2.38391483E-03  9.10345804E-03 -4.77806522E-02 -3.58643196E-02 -2.05858677E-02
  1.25459630E-04  2.24883374E-02  1.25584680E-01  1.62989820E-04 -1.96568976E-02
  1.36445672E-04 -2.23525834E-06  2.34307319E-02  6.60703859E-02  6.75430348E-04
  2.43716272E-03 -7.37751153E-03 -1.17690431E-02  1.27407631E-03  3.40893223E-05
  6.80975832E-03  4.01356336E-03  4.11343218E-05 -6.10649780E-03  4.13647059E-05
 -1.08804888E-05 -1.93443845E-04  6.25449544E-03  1.12273673E-03  4.24248391E-03
 -9.35340204E-03  9.55811483E-03 -1.67094260E-02 -8.80180966E-04  4.47619785E-02
 -1.94721908E-02  4.64068252E-03 -1.46528491E-03  1.44516557E-03 -3.83723429E-04
 -3.74905986E-03  1.08463377E-03  6.41452136E-03 -4.34966963E-02  8.47543444E-03
 -8.51818748E-03  1.93464727E-03 -3.27506318E-04 -2.87502950E-02  2.32344561E-03
  6.92231886E-03  2.17222697E-04 -7.09964112E-04 -2.57649170E-03  1.25541473E-02
  8.62609874E-03  4.01540209E-04 -7.19454695E-05  5.58402162E-03  2.58730328E-03
 -4.87876057E-05  7.75177855E-04 -1.18078578E-05  3.45220964E-06 -1.29560286E-03
  6.89067788E-04 -7.43425729E-04 -2.81378743E-03  1.41780885E-02  1.45146894E-03
  3.68741451E-03 -5.38805473E-05 -2.55872561E-03 -3.09137507E-03 -3.83837477E-05
  8.71000385E-04 -1.15573141E-05 -1.21422868E-05 -1.16089572E-03 -1.17948698E-03
  6.53754289E-03 -1.78355250E-02 -1.92102270E-03 -1.57228345E-03  6.75443320E-05
 -7.18330327E-03 -2.37979611E-02  2.54257010E-03  2.19128636E-03 -5.71596887E-05
  2.15925876E-01  8.62560287E-04  6.75669458E-03 -4.12792933E-02 -2.96428626E-02
  3.25428558E-02 -4.27373378E-03 -4.51933884E-02  6.02181098E-02 -5.12332251E-04
  7.03410650E-03  3.95601099E-04 -2.12299086E-05  2.96424734E-02  1.43049621E-02
  7.04988477E-03  2.69893643E-02 -9.46718132E-02 -9.77669379E-03 -3.01757377E-02
  3.23403869E-03 -1.44485976E-01  3.36916564E-02  2.82432445E-03  1.39077321E-02
  1.59755657E-03 -6.22584034E-04 -8.73272583E-03  7.41597115E-03  4.66790502E-03
  2.02369289E-02 -8.06820000E-02  1.92257236E-02  2.97404884E-03  4.73868117E-03
 -1.65336831E-01 -7.78420521E-02 -5.69784930E-03  2.92904352E-02 -3.65308225E-04
 -2.00279158E-03 -2.32922476E-02 -1.20064282E-02  7.14836362E-03  2.28260497E-02
 -7.06342072E-02 -4.80231671E-03  2.28250597E-02 -1.38837120E-02  4.04568779E-02
 -1.24796917E-01  1.32284806E-02 -7.76234827E-03 -3.65652628E-03  6.12674644E-05
 -5.16140877E-02 -2.26673780E-02 -2.16037114E-02 -7.66010006E-02  2.63333324E-01
  8.34501841E-02  1.82795393E-01  5.23511665E-03 -1.38315939E-02 -1.96693146E-01
 -6.54259749E-03 -1.00645659E-02 -3.35777153E-04  1.84653107E-03 -2.01297712E-02
  5.52886045E-02  5.33362318E-03  1.63052365E-02 -4.59561748E-02  5.50792633E-02
 -1.90576847E-02  3.50576356E-03  2.64999009E-02  1.34682834E-01  3.39597995E-03
 -1.36062552E-02  1.76672864E-03  5.77240896E-04  3.68032665E-02  4.43777686E-02
  1.40304500E-03  4.52628906E-03  4.76773945E-03  1.66883790E-02 -7.91168476E-03
 -3.93807933E-03 -4.24930519E-02 -4.41458962E-03 -2.07665812E-03  3.19345525E-02
 -1.39719618E-03 -9.44390868E-06  3.54198588E-02  2.33332196E-02 -7.75197867E-03
 -2.66000558E-02  5.10891048E-02  8.07121532E-02  1.06914152E-02 -3.83712790E-02
 -1.09292301E-02  1.75023035E-02 -3.24238585E-02 -1.41918148E-03  3.20297261E-03
  1.40698597E-03 -3.31700452E-03 -5.74979124E-03  2.89917434E-02  5.51473054E-02
 -8.31389672E-03  2.05642325E-02 -3.46589532E-03  3.94311110E-02  6.41755310E-02
 -1.40723997E-02 -1.80446633E-02 -5.96427553E-03  5.70017630E-03  2.06795270E-02
 -9.65016374E-02 -2.88257861E-03  2.43120964E-02  3.93333470E-03  4.33507429E-03
 -9.17872397E-03  2.21988021E-03 -2.86635952E-03  5.08244520E-05 -1.82060957E-04
  6.64359229E-03 -2.36737621E-03  1.36332914E-02  4.94534702E-02 -2.25203145E-01
  1.08622998E-02 -2.99216316E-02  3.39989566E-03 -1.49409362E-02  1.84815023E-02
  2.01229635E-03  5.70934511E-03  1.42857246E-05  2.04705423E-04  6.68986774E-03
  1.69341194E-03 -9.57585621E-03 -9.35617210E-03 -6.05473409E-04 -2.26064625E-02
  7.41362105E-06 -2.34626500E-02 -1.14585986E-03  2.33985658E-02 -1.37189588E-03
  1.77598787E-03  1.59750595E-01  2.12425038E-01  7.58295256E-04  2.43880310E-03
 -4.12076751E-03 -3.78778708E-03 -6.69336577E-04 -1.74379470E-04 -1.80023155E-02
 -1.18666002E-01 -1.04924259E-04  4.12890237E-03 -1.59377671E-05  3.04482418E-05
 -1.03795794E-02 -5.91207330E-03 -2.05489571E-04 -1.44584884E-03  9.31190111E-03
  1.04152943E-03  2.14601258E-03 -6.00241435E-04  9.06450191E-02 -7.14092323E-02
  4.02104990E-05 -5.96216951E-03 -7.44486078E-06 -5.29264995E-05  1.07687829E-03
  4.20240410E-03 -2.52185872E-03 -9.59204295E-03  3.30912419E-02  8.72726395E-03
  2.01879747E-02  3.91778666E-05  7.79561705E-02  8.37459355E-02  1.32550062E-04
 -6.23536206E-03  7.24842750E-05  4.49172110E-04 -7.59033181E-03  6.14859314E-03
 -6.62170204E-03 -2.21291674E-02  6.69050952E-02 -3.84072978E-02  1.27550187E-02
  3.69269433E-03 -1.74284271E-02  1.35372822E-01  1.41050936E-04  7.09966604E-04
  1.51090799E-03  1.19230317E-05 -1.16217654E-02  9.77462876E-03  6.13774504E-03
  2.13295536E-02 -6.74617170E-02  7.51399348E-02 -5.30134696E-02  1.13953993E-04
 -1.17698413E-01  1.11520008E-01  6.58208238E-04  4.47152926E-03  1.60549173E-04
 -5.06812014E-04 -2.05146187E-02 -1.62371893E-02  4.95943292E-03  1.76350258E-02
 -5.68635455E-02 -8.40116520E-02  2.08392197E-02 -2.90697163E-04 -1.10294058E-01
 -9.20412773E-02 -8.25331775E-05  1.02455507E-02  3.64283529E-05  1.90626992E-05
 -1.24447226E-02 -1.88546452E-02  1.26004888E-03  4.31961694E-03 -8.52562515E-03
 -7.78385565E-03  6.55521369E-03  1.70473253E-04 -4.27240297E-03  2.21939841E-02
  1.63836005E-04  9.44304686E-04  5.55560860E-05 -1.09248750E-05  4.12026098E-04
 -1.97781012E-02 -1.06753509E-03 -3.33191595E-03  3.57491251E-03  1.83511274E-02
 -3.11401595E-03  7.33184129E-03 -2.07862532E-02 -2.09852847E-02  8.61407583E-04
 -3.12930667E-03 -4.33871057E-04 -8.87429352E-04  5.69839154E-03 -1.61793222E-03
  9.57262409E-03  1.25163755E-02 -2.64042997E-03  2.75597396E-03 -3.57797730E-04
  4.57097694E-03  2.79738839E-02 -2.53077863E-03 -1.02930907E-02 -1.09245170E-03
  6.59171863E-03  2.29206839E-02 -9.45815718E-02  1.13002367E-02  1.33256612E-02
 -1.61088181E-04 -7.56408820E-03 -4.42491208E-03 -6.12793338E-05  5.56920784E-03
 -1.56787447E-05 -2.50143159E-06  1.51811858E-03 -6.30797877E-04 -5.92784470E-03
 -2.05775791E-02  8.42269845E-02 -1.39924319E-02  1.12801729E-02 -1.62810655E-04
  7.14405365E-03 -2.48729983E-03 -1.36830030E-04 -5.04795897E-03  1.77241165E-05
 -1.25723731E-05  4.56969049E-04  1.98983642E-03  7.56110621E-04 -2.33327578E-02
 -1.90492313E-02  3.77640556E-03 -7.19081143E-05  2.55748620E-03  2.31925098E-02
 -4.95183791E-03  5.17147939E-03  6.25865337E-05 -2.04065094E-02 -3.31389669E-02
  3.29129352E-02 -1.93099390E-03 -7.69480316E-03  3.09282301E-02  1.58014697E-02
  7.23502573E-03  2.72501142E-04  8.14843578E-03  9.37982752E-02  5.92800835E-05
 -3.18016432E-03 -5.71318943E-05 -5.64339865E-05 -7.51700607E-03 -8.28378520E-03
 -1.96983900E-03 -7.46807309E-03  2.54018207E-02  3.68824024E-03  6.12317445E-03
  1.88197479E-04 -2.71822406E-02  7.08411281E-02 -1.50199856E-04 -2.11013675E-04
 -3.85103530E-05  8.64909386E-05  1.15408038E-03 -2.43835778E-03 -6.67549160E-04
 -3.15100881E-03  1.74441831E-02 -5.37780258E-03  1.97471226E-03 -1.05842376E-04
 -3.02571220E-03 -3.26208443E-02  6.95001942E-05 -4.42503208E-04  3.57161464E-05
 -1.31130994E-04  1.94779526E-02  3.47683588E-03  4.48974301E-03  1.54341673E-02
 -4.40543059E-02  4.42262028E-02 -5.97822133E-02 -4.17335352E-04 -7.18057878E-03
 -3.35974759E-02 -7.38921048E-04  8.70610377E-03 -5.85717172E-04 -3.39359032E-04
  3.05045319E-02  2.09867434E-02  1.01904839E-02  3.60925075E-02 -1.18395577E-01
 -4.10342644E-02  1.74367443E-02 -4.79372320E-04  8.99805214E-02 -3.73546411E-03
  1.38610506E-04  1.15642122E-02 -4.22071342E-05  1.01916343E-04  8.75496669E-03
  5.55853804E-03 -1.28569156E-03 -4.16157124E-03  1.74204500E-02 -1.93370076E-02
 -1.51810817E-02 -4.06938361E-04  8.38708359E-02  4.28390046E-02 -2.22389750E-04
  6.06360519E-03 -1.17046549E-04 -6.58151387E-06 -2.20230081E-02  4.27592566E-03
 -3.51726419E-04 -1.08772720E-03 -1.65142081E-03 -7.03561277E-03 -3.75913101E-03
  2.57913683E-04  1.30214850E-02 -1.75088884E-02  8.41040943E-05 -8.80581977E-03
  6.24425653E-05  9.76878879E-06 -8.68351389E-03  9.33600828E-03 -1.43935036E-03
 -5.04491198E-03  1.05262679E-02 -1.93225067E-02  2.49869233E-03  1.13629558E-03
  6.42801502E-03  2.62969081E-03  7.53658020E-04  1.38664169E-03 -3.37404364E-04
  3.29932009E-04 -5.54281710E-03  1.01441361E-02 -6.91339661E-03  3.54262275E-03
 -5.75945257E-04  1.09256898E-03 -1.16449499E-04  9.00061700E-04 -1.37980589E-02
 -6.98994500E-05  4.02076144E-03  1.56941045E-03 -5.85118988E-03 -2.07006160E-02
  8.93308558E-02 -8.71847224E-03 -1.07336705E-02 -1.74559626E-04  4.50450952E-03
  6.20515326E-03 -1.35325976E-04 -3.16352637E-03  1.26955802E-05  2.04562127E-05
 -3.20357836E-03 -3.17526787E-04  1.28054451E-03  3.91230721E-03 -1.06229619E-02
  4.80163807E-03 -6.98722774E-04 -1.13257430E-04 -1.87104172E-03 -6.69164688E-04
 -6.31954366E-05  2.54175417E-03 -3.71799558E-06 -1.53541788E-05 -4.47709137E-04
 -9.72399197E-05  2.86931094E-03  4.42251794E-02  1.92972759E-02  4.99940126E-03
  4.14053840E-05 -1.96646989E-03  1.81480692E-03 -5.28233488E-03  9.53982401E-04
 -8.90332570E-05 -2.81900673E-02 -4.03682535E-02 -3.43642973E-03  2.57764542E-02
  4.52218142E-05  1.61860218E-04 -5.28615529E-04 -1.57440874E-04 -1.79918640E-04
 -2.10724384E-03 -1.70459133E-04 -1.36202572E-03  1.77977356E-03  1.93007330E-04
  1.73749412E-03  7.38520976E-03  2.27973257E-04  5.76796675E-05  3.05870680E-05
  1.07710799E-04 -3.16276969E-04 -6.14745048E-05  3.28138592E-05 -1.14775220E-02
  8.02053209E-04 -1.39294165E-03 -1.48343379E-03 -1.25667716E-04  7.23663968E-04
 -4.66433849E-04  1.39300867E-04  1.01647071E-05 -2.88164441E-06 -2.13821910E-05
  3.78056662E-04  2.13759010E-04  3.60325731E-04  4.88729946E-03 -1.07832966E-03
  2.53840471E-03 -1.45751947E-04  4.46166151E-04  4.07191853E-03  2.21156985E-03
 -6.18832585E-04 -3.47941949E-04  1.82836196E-04  5.43997663E-04 -1.39412278E-03
 -2.10795654E-03  2.36090290E-04  2.56117581E-02  5.47370073E-03  8.66351113E-04
  7.22207604E-03  1.43098682E-04 -7.35889375E-03  6.78445687E-03 -1.97559307E-05
  2.35297860E-04  2.04303074E-05  4.25084115E-05  3.08665825E-04  7.61441079E-05
 -6.45224581E-04  5.79476084E-02 -2.94286402E-03 -1.42296577E-03  8.26261335E-03
  3.57038095E-04 -2.92026052E-03 -1.89705780E-03 -5.55769263E-04  2.67738748E-04
  3.81091824E-06  4.33978714E-05 -3.33713787E-04  1.29639880E-04  1.68872280E-04
  4.24659027E-02 -9.05469216E-04 -6.37821660E-04  6.40195058E-03 -1.98713111E-04
  7.90055778E-03  1.22770753E-03  2.56152749E-04 -6.59243996E-05  2.08509314E-05
  6.99176776E-05 -1.02480424E-04 -4.80789166E-05  8.34600543E-05 -8.14575759E-03
 -7.35009208E-05  2.52060274E-04 -3.24223640E-03  1.06183134E-04 -1.66560321E-03
 -1.08621247E-03  2.29701294E-06 -1.74009298E-04 -4.95788329E-04 -1.77556323E-03
  3.86391418E-03  4.99286974E-03  1.88685788E-03 -2.29967941E-02  1.78222494E-03
  7.39767686E-04 -1.22329150E-02 -7.39031492E-04 -2.85077113E-03  1.05069676E-04
 -2.52456560E-04  1.47175873E-04 -4.85873170E-04  6.16909360E-04 -2.26352068E-04
  8.43089909E-04 -6.51462074E-04  1.42130213E-03  7.35584957E-04 -2.21831595E-04
 -8.49351480E-04 -1.11017322E-03  8.06403184E-05  2.84030573E-04 -1.20910701E-03
  7.29937684E-05  1.51918295E-04  9.13684782E-03 -1.21599254E-04 -6.68937037E-05
  4.97917069E-03  4.41209889E-05  1.47259653E-05 -2.50941173E-04  4.01276720E-05
 -3.03668241E-05 -3.33235271E-05 -1.13433314E-04  4.37081029E-04 -4.01299595E-05
  7.27782399E-05  9.13864349E-04  5.81339010E-05  1.94908854E-05  1.26232311E-03
 -4.98042212E-05  1.47980394E-05  5.14477975E-04  1.04039117E-05  3.64549742E-05
 -1.04856428E-04 -2.68506067E-04 -1.89070626E-04 -3.64078201E-05 -4.75340047E-04
 -5.77514847E-05  1.73542114E-03  8.08264560E-05  9.80745966E-05  1.05531207E-03
 -2.50656615E-04  1.68696805E-03  2.20552949E-04 -2.32756310E-04  6.93744182E-03
  2.09175700E-03  7.96201736E-03 -4.28926566E-02 -1.99769146E-02 -4.65191024E-02
  3.31717687E-04 -5.00936118E-02  3.93563911E-02  4.05885593E-04 -1.50890478E-02
  5.71653448E-05  2.05497042E-04 -7.40566781E-02 -1.11584219E-02 -2.26198777E-03
 -7.84735262E-03  2.45895302E-02 -7.00595081E-03  2.86706887E-02 -1.28765418E-04
  3.37554199E-02  5.10403273E-03 -4.71653355E-04  2.23552593E-03 -1.45114574E-04
 -1.96455306E-05  4.67219370E-03  9.51557071E-03 -1.33420206E-03 -4.84393635E-03
  1.67075727E-02 -7.37866941E-03  5.59821212E-03 -2.30159258E-04  1.29866827E-02
 -2.97709391E-03  1.17402189E-03 -1.13375051E-02  1.39092097E-04  2.64175859E-04
  4.44449795E-03  1.24657899E-02 -3.00994969E-03 -1.05708463E-02  3.74124312E-02
 -2.11865163E-02  3.06982360E-02  8.52012143E-05  1.55514658E-02 -1.50074927E-02
 -2.47816069E-03  2.56127947E-03 -1.20333346E-04  2.51272398E-04  9.34331505E-03
  3.15237478E-03  2.43521670E-03  9.25056893E-03 -4.75234072E-02  3.59312303E-02
 -1.88135991E-02 -5.38089743E-05  6.04850166E-03  8.95506821E-02  1.25883853E-03
 -1.78221274E-02  5.90630426E-05 -1.90260747E-04  2.17623793E-02 -6.84211229E-02
 -1.90811444E-02 -6.65551992E-02  2.18500887E-01 -1.55371303E-01  2.71935140E-01
  8.47333706E-04  6.74620537E-02 -1.08085607E-01 -7.05977734E-04 -2.47223699E-02
 -1.45725697E-04  2.53975551E-05 -3.16643104E-02 -7.26155565E-02  7.86514788E-04
  2.92874734E-03 -7.99759795E-03 -2.25120501E-02 -9.10229904E-03  3.07155475E-05
 -3.37551441E-03 -1.82316292E-02 -4.34774789E-05  4.70253451E-04  7.27398028E-05
 -8.21471153E-06  2.55381607E-03 -6.04893194E-03  4.89811867E-04  1.64980796E-03
 -3.09379571E-03  7.68294874E-03 -3.73000538E-04 -9.62620386E-05  3.24346797E-02
  8.20079598E-04  5.00266466E-03 -5.49325959E-03  1.05167681E-03 -4.39043006E-04
  3.64171300E-04 -6.43786956E-03  5.64995538E-03 -3.34197542E-02  4.91670468E-03
 -9.24128874E-03  6.82330043E-04 -1.01082736E-03 -3.41985637E-02  7.75303958E-03
  3.94826267E-03  1.11373624E-03 -1.15014102E-03 -4.28104624E-03  1.97012757E-02
  8.10091210E-03 -1.60665223E-03 -8.43265226E-05  3.66469778E-03  8.65479535E-04
 -1.75319211E-05 -6.48467535E-05 -7.26183649E-06  1.58167781E-05 -1.08604416E-03
  1.27042724E-03  8.45479837E-05  2.44774607E-04 -1.33645346E-03 -7.35944809E-03
 -1.26254487E-02 -9.00532405E-05  5.24853090E-04 -8.20738266E-03 -3.78947273E-06
 -1.26402833E-03  1.66194485E-05  1.66955668E-06  5.60084099E-04  3.05121921E-03
 -7.63693669E-03 -3.35769707E-02 -3.74644537E-03  2.30970674E-03  1.28175586E-04
  6.53889331E-03 -9.90392358E-03  7.81723549E-04 -3.07418699E-03 -1.14257519E-04
 -1.77333599E-02 -4.65768308E-02  2.09525904E-02 -9.00478309E-04  2.63780754E-05
  2.14531987E-01  2.28197203E-03  6.89074025E-03 -1.54078591E-02 -3.07516147E-02
  3.41259725E-02 -9.44713915E-04 -3.53038823E-02 -6.03271748E-01 -2.42752281E-04
 -5.11986896E-03 -5.24472034E-05  3.23327558E-04 -3.00602373E-02  5.65050879E-02
  8.90269577E-03  3.46680009E-02 -1.19999294E-01 -4.12550495E-02  1.03447306E-02
 -1.12485632E-03  4.65218301E-01 -3.82621284E-01  6.93563297E-04  2.23443030E-02
  1.30093618E-04 -1.69832445E-04 -4.85457596E-02 -1.84906205E-03  1.19662844E-02
  4.54785562E-02 -1.56908479E-01  1.88923339E-02 -4.15523391E-02 -3.19005788E-04
  4.39347856E-01  2.20304741E-01 -2.07434632E-03  2.75291912E-02 -1.94803445E-04
 -7.70209121E-04 -9.96287004E-03 -2.38110364E-02  1.02147542E-02  3.96103979E-02
 -1.37198433E-01  3.00051587E-02  2.62464808E-02 -1.38267902E-03 -5.70544519E-02
  3.87797091E-01  2.88640221E-03  4.51558134E-02 -9.76111044E-04  4.97982707E-04
  3.20536680E-02 -2.66660166E-02  1.05555693E-02  3.60477424E-02 -1.12274269E-01
 -5.52858029E-02 -4.58015209E-03  2.14647460E-03 -3.01926655E-01  3.50075142E-01
 -5.31575106E-04  1.26821620E-03 -2.18071586E-04  5.29223294E-04  5.37365556E-02
 -3.33068482E-02 -1.83386688E-02 -6.48923497E-02  2.20287536E-01 -1.04319271E-01
  1.64581680E-01  1.93999737E-03 -3.65558077E-01 -5.02266806E-01 -1.96986973E-04
  8.72056415E-03  4.86321492E-04 -1.90295508E-04 -2.81142840E-03 -3.54023462E-02
 -7.89202005E-04 -1.86451737E-03 -4.03402980E-03 -1.22769645E-02  3.17363007E-02
 -5.11918532E-04  1.87554651E-03  1.17190926E-01 -3.66446222E-04 -7.65482162E-03
 -2.01195582E-04  2.65341938E-04 -1.28845474E-02 -7.14697031E-02  4.07580451E-03
  1.39871979E-02 -2.54996681E-02  3.03292177E-02  5.15070220E-03 -5.50977031E-03
  1.90402077E-03 -4.07214600E-02 -6.82982843E-03  9.28308677E-03 -8.79892892E-04
 -8.60814410E-04 -2.04872587E-02 -8.86937269E-03 -6.68198643E-03  5.92076020E-03
  4.20570634E-04 -5.65353831E-03  2.28964007E-03 -4.20268604E-03  5.20691213E-02
  5.73007039E-03 -1.14764623E-02 -2.18877699E-03  1.68072146E-02  6.26538994E-02
 -2.93108827E-01  5.80626232E-02  1.34509977E-02 -7.41881004E-04 -1.32378028E-02
 -2.74381991E-02 -3.89195590E-05  2.02147795E-02 -5.53643949E-05 -6.12108123E-05
  8.33927045E-03  6.69813624E-04 -2.79247599E-02 -9.70264789E-02  3.98324750E-01
 -9.68728628E-02  1.58136180E-02  2.05758942E-03  1.17799929E-02 -3.36297129E-02
  8.05550628E-04 -2.33817449E-02  1.47803964E-04 -5.70937191E-05 -9.01085764E-03
  6.96245812E-03 -3.30266479E-02 -1.07891620E-01 -1.03353391E-01  2.77131031E-03
 -2.05905044E-04 -1.72857214E-02 -9.55008033E-03 -2.33114686E-02 -4.43743434E-02
 -3.14889057E-04 -5.63431581E-02 -5.61768965E-02  2.53296462E-02  1.72247756E-03
  5.86609828E-04  1.42115892E-01  3.15643380E-01  8.03897910E-03  2.71416900E-02
 -7.97756428E-02 -2.79461492E-02 -1.01883805E-02 -2.55377167E-05  4.30036544E-02
 -4.94721049E-01 -3.02193227E-06  1.14738628E-02 -2.28827254E-05  4.47397091E-05
  1.32262522E-02  3.89371224E-02  4.09980053E-03  1.47058752E-02 -3.95917384E-02
 -8.83466434E-04 -1.82596036E-02 -3.14347614E-04  3.41812390E-01 -3.26236562E-01
  1.50034735E-04  9.89467992E-04 -4.90315413E-05 -8.16813076E-05 -8.66472876E-03
  3.07082017E-03  2.18963098E-03  8.58433469E-03 -3.26859053E-02  6.37449705E-03
 -9.26734518E-03 -2.59705702E-04  3.16700939E-01  2.11313867E-01 -2.23034512E-04
  7.09027381E-03 -5.94938688E-05 -6.91148349E-05 -1.31057261E-02 -4.65350705E-03
  1.07640609E-03  4.09259184E-03 -1.62752857E-02  2.14072713E-03  4.35615927E-03
 -1.34280501E-04 -1.66065929E-03  3.33068356E-01 -3.83063179E-04 -8.83387574E-04
 -5.90326037E-05  1.43346572E-04  1.43455563E-02 -2.32645222E-02 -3.55114069E-03
 -1.21419919E-02  3.56008462E-02 -7.96496875E-02 -1.96811257E-02  3.58198547E-04
 -2.83382176E-01  2.28986505E-01  7.77323247E-04 -5.09632326E-03  1.47401891E-04
 -1.68885651E-04  2.10157458E-02 -1.90616270E-02 -5.30961604E-03 -1.81375317E-02
  5.32726930E-02  6.76890573E-02  5.58747275E-02  4.11519276E-04 -3.53396671E-01
 -3.30644605E-01 -5.18972940E-04  9.12378543E-03 -2.08419636E-05 -2.16196570E-04
  4.22371980E-02 -1.25956022E-02  9.58343513E-04  3.21466183E-03 -1.10875465E-02
 -2.76470101E-03  3.00060297E-02  5.72303419E-06  3.89099257E-03  9.31689128E-02
 -6.10312801E-05 -1.26361318E-02  4.71438613E-05  1.45290788E-05 -2.65994831E-02
 -6.52935276E-02 -8.25718771E-04 -2.89002865E-03  6.70231193E-03  2.13813985E-03
 -6.28914625E-04  4.02382633E-04  1.10583331E-02 -3.68043543E-02  1.09042176E-03
  6.84061017E-04  5.95810664E-04 -6.59083822E-04 -1.87195325E-03 -4.21202769E-03
  1.54630012E-03 -2.66525530E-02 -6.80622336E-04 -7.09635693E-03  1.92046446E-03
  2.53729683E-03  1.19016595E-02  2.29068761E-03 -4.32549017E-03 -2.02075233E-03
  1.29716501E-02  4.59396825E-02 -1.93761725E-01  3.59433236E-02 -8.19856427E-03
 -3.91171274E-04 -1.82687879E-02 -2.39371333E-02 -6.78990603E-05  1.70684997E-02
 -4.59893699E-05  1.07525175E-05  6.07950132E-03  8.08644817E-04 -2.56548283E-02
 -9.11464687E-02  3.94669499E-01 -8.12457566E-02  3.37088199E-02  3.49469004E-04
  1.00036812E-02 -2.65090097E-02  3.12458227E-05 -1.88369820E-02  9.90938555E-05
 -5.16281515E-05 -9.89452127E-03  2.48641100E-03 -3.58848148E-03 -1.03616396E-01
 -6.90916548E-02  2.72573554E-03 -3.19535611E-05 -1.74886074E-03 -9.94512168E-04
 -1.91476057E-02 -1.94481561E-02 -2.29279731E-04 -2.50970844E-02 -2.96837147E-02
  1.23654503E-02 -1.30984898E-02  3.06428827E-04  2.13724302E-02  1.33190207E-01
  1.12345923E-01  6.01035288E-03  2.06673550E-02 -5.84985348E-02 -3.69997809E-02
 -6.02363711E-02  5.85251244E-06  7.47161306E-03 -5.48818757E-02 -2.06834121E-04
  1.14449182E-02 -1.63405054E-05 -7.64031925E-05  2.99608104E-02 -1.22006189E-02
 -2.13735764E-04 -1.59073964E-03  1.51704959E-02  2.36082581E-03 -4.93355854E-04
  4.36293652E-05  8.22968173E-03 -3.90229870E-02  2.91265443E-04  8.52421103E-04
  3.43023813E-05  1.24279267E-05  1.42378576E-02 -2.73961454E-03 -1.23284700E-03
 -4.98394333E-03  1.88459649E-02 -1.55198716E-03  3.81212764E-03 -1.01435038E-06
  2.20639598E-02  4.41404506E-02 -8.06218003E-04 -1.33865308E-03 -2.15358936E-04
 -1.46573039E-04 -5.14077254E-03 -1.21179075E-03 -2.15428433E-03 -8.32349966E-03
  3.14726287E-02 -1.26596581E-02  9.77241581E-03  1.53540864E-04 -3.31551647E-02
  7.27782123E-02  1.76276469E-03 -2.43992821E-03  5.13001319E-04 -8.49449623E-05
 -1.17043834E-02  6.85555734E-04 -9.06712597E-04 -2.76659201E-03  1.16671662E-02
  2.12858956E-02 -1.52130427E-02 -4.68601436E-04 -7.26415046E-02  4.75514061E-02
 -6.72338755E-04  7.57073091E-03 -6.83769503E-05  8.90743177E-05 -2.04534801E-02
 -2.25495151E-03  1.07970774E-02  3.84030952E-02 -1.27118734E-01  4.02913614E-02
  2.14056613E-02 -3.29971095E-04 -9.63302732E-02 -1.54539773E-02  3.61949743E-04
  1.61719473E-02 -6.46795686E-05 -8.70751366E-05  1.35612681E-02 -6.84799990E-03
 -2.75801731E-04 -1.17781695E-03  4.72153989E-03  1.81615264E-02  3.32391467E-03
  4.89099822E-05 -1.30302951E-02  4.69431208E-03  7.01428357E-05  3.94919612E-03
  1.95984108E-05 -7.55534396E-06 -7.27912967E-03 -1.56893250E-02 -3.00793192E-04
 -9.53339745E-04  6.87818334E-04  3.68121898E-04 -2.48869247E-03  7.93743650E-04
 -3.09504252E-02 -1.10112133E-02 -3.44799566E-03  1.13565875E-03 -8.09622082E-04
 -3.27980556E-04  5.20133221E-03 -1.22228899E-03  1.75161539E-03  2.28342071E-02
 -4.46822203E-03  4.66345706E-03 -4.77500848E-04 -1.31502168E-03  3.33816899E-02
 -5.19878919E-03 -7.96760983E-03 -1.43711135E-03  3.72907183E-03  1.29329721E-02
 -5.40376794E-02 -5.07239989E-03  6.22062990E-03 -4.38196091E-05 -1.01782375E-02
 -3.49829641E-03 -1.36377544E-05  2.14771563E-03 -3.36015360E-06 -6.92627348E-06
  2.33278744E-03 -4.45911957E-04 -3.55907163E-03 -1.23896732E-02  5.13699323E-02
  7.16212388E-03  2.07223861E-02 -1.16623661E-04  1.22125846E-02  6.35551479E-03
 -8.55453808E-05 -3.38968293E-03  7.16420962E-07 -5.61649723E-06  1.61777674E-03
 -4.44565393E-04 -2.04719447E-03 -2.39085650E-03 -2.53985323E-03  9.10623459E-04
 -5.85382684E-05  1.42722268E-03  2.23540879E-02 -3.73816173E-03  4.98345287E-03
  2.84991881E-05 -3.16947302E-03  3.35019123E-03  1.03422772E-02 -8.29983127E-03
  7.49955078E-05 -2.83878503E-02 -2.13445717E-02  1.19695755E-02  2.67213649E-02
 -3.92237069E-05 -1.36442239E-04  4.09334192E-04  2.02214576E-04  1.82907240E-04
  2.47925160E-02  4.46203672E-04 -5.44615447E-04  1.12094846E-03 -4.70011322E-05
  1.50125386E-03  6.28491870E-03  7.77023884E-05  4.18341594E-05 -2.83475073E-05
 -1.10166538E-04  3.96646641E-04  1.58576173E-04 -4.99460899E-05 -5.35002982E-03
  5.41555412E-04 -5.56780370E-04  9.01384713E-04 -1.23234908E-04 -3.04637888E-03
  2.61380663E-03  3.78666396E-05 -8.41405133E-05 -8.53083903E-06 -3.73959605E-05
  1.48866012E-04 -2.23654973E-04 -1.27630475E-04 -9.16226358E-03  8.72096312E-05
  6.00860497E-04 -1.89235615E-03 -1.68886832E-05  1.87693147E-03  9.83891067E-04
 -2.62218652E-05 -4.89450704E-05 -5.15851488E-06 -1.88147615E-05 -2.88766529E-05
  1.00425345E-04  4.20251092E-05  1.16303409E-02  1.36541856E-03  8.11567465E-05
  2.41545689E-03 -4.69413526E-05 -2.79531942E-03  6.63724514E-03  3.09502021E-05
 -2.26462427E-04 -5.34654675E-05 -1.85879588E-04  6.00651540E-04 -1.07607443E-04
 -8.98506711E-06  4.26790837E-02 -1.76899774E-04 -4.51703192E-04  6.56349777E-03
 -1.20207062E-04 -4.94982545E-03 -5.55238573E-04  2.10719981E-05  1.44820736E-04
 -4.55170443E-06 -1.60404182E-05 -1.54755962E-05  4.22449192E-04 -8.03739998E-04
  4.78338539E-02 -3.51990551E-05 -1.13749001E-04  8.85960960E-03 -2.02244429E-04
  4.06938336E-03 -2.36461073E-03  1.67854896E-04  2.36478811E-04 -1.26728002E-05
 -4.39102832E-05  4.40630625E-05  1.96765862E-05  5.35394559E-05  3.77724339E-03
  2.01182391E-04  8.31872747E-05  3.08691439E-03 -1.39069716E-04  3.34378021E-03
  2.69572900E-03 -1.55488985E-05 -4.76974325E-05 -3.17167439E-05 -1.10219174E-04
  2.55180921E-04 -2.54477347E-05 -6.73485546E-04 -5.34405210E-03  5.68352452E-04
 -7.34510635E-05 -2.29410836E-03 -1.56326201E-04 -1.38657922E-03 -3.93931395E-05
  7.34102775E-06 -1.31657149E-04 -2.30034412E-04 -4.58989976E-04 -5.05127728E-05
 -4.11668966E-05  2.51434469E-04 -5.99790097E-04 -6.30117896E-04  1.01035536E-04
  5.33270684E-05 -1.00491868E-04 -1.94300534E-05 -7.58927783E-05  3.99956284E-04
 -3.96991528E-05 -1.53197191E-04 -1.51320325E-02 -1.77438460E-05 -4.63183606E-06
 -5.83889735E-03  2.65162861E-05 -2.63365496E-04 -3.60509347E-04 -2.26029026E-05
  1.93353430E-05 -4.33336780E-05 -1.58756886E-04  7.44389003E-04 -3.40865300E-04
 -4.40235042E-05  7.70561932E-03 -1.02212344E-04 -1.29835852E-04  2.64933783E-03
 -1.50651519E-05 -9.67609574E-06 -5.68012986E-04 -5.30462522E-05 -2.52442130E-05
  1.19212197E-04 -2.08662920E-04 -4.75748766E-05  6.13421002E-05 -4.95474354E-04
  5.87990143E-05  9.89087904E-06 -7.43907463E-05 -4.18307933E-05 -4.62826102E-04
  1.83467138E-04  1.40099371E-04 -7.58079390E-05 -5.17014733E-05  5.16387825E-03
 -3.67422258E-04 -1.73116639E-04  6.89928523E-05 -4.72576766E-05  5.70447861E-03
Mulliken Charges                           R   N=          16
  8.95810902E-01 -6.50799446E-02  7.83014541E-02  2.00249813E-01  8.23500813E-02
 -6.36922946E-02  7.69931884E-02 -1.88604595E-02  2.22371925E-01  2.29590044E-01
 -6.05290721E-01 -5.96518389E-01 -4.62485327E-02 -1.75737011E-01 -1.72118982E-01
 -4.21210750E-02
ONIOM Charges                              I   N=          16
           0           0           0           0           0           0
           0           0           0           0           0           0
           0           0           0           0
ONIOM Multiplicities                       I   N=          16
           1           0           0           0           0           0
           0           0           0           0           0           0
           0           0           0           0
Atom Layers                                I   N=          16
           1           1           1           1           1           1
           1           1           1           1           1           1
           1           1           1           1
Atom Modifiers                             I   N=          16
           0           0           0           0           0           0
           0           0           0           0           0           0
           0           0           0           0
Force Field                                I                0
Int Atom Modified Types                    I   N=          16
           0           0           0           0           0           0
           0           0           0           0           0           0
           0           0           0           0
Link Atoms                                 I   N=          16
           0           0           0           0           0           0
           0           0           0           0           0           0
           0           0           0           0
Atom Modified MM Charges                   R   N=          16
  0.00000000E+00  0.00000000E+00  0.00000000E+00  0.00000000E+00  0.00000000E+00
  0.00000000E+00  0.00000000E+00  0.00000000E+00  0.00000000E+00  0.00000000E+00
  0.00000000E+00  0.00000000E+00  0.00000000E+00  0.00000000E+00  0.00000000E+00
  0.00000000E+00
Link Distances                             R   N=          64
  0.00000000E+00  0.00000000E+00  0.00000000E+00  0.00000000E+00  0.00000000E+00
  0.00000000E+00  0.00000000E+00  0.00000000E+00  0.00000000E+00  0.00000000E+00
  0.00000000E+00  0.00000000E+00  0.00000000E+00  0.00000000E+00  0.00000000E+00
  0.00000000E+00  0.00000000E+00  0.00000000E+00  0.00000000E+00  0.00000000E+00
  0.00000000E+00  0.00000000E+00  0.00000000E+00  0.00000000E+00  0.00000000E+00
  0.00000000E+00  0.00000000E+00  0.00000000E+00  0.00000000E+00  0.00000000E+00
  0.00000000E+00  0.00000000E+00  0.00000000E+00  0.00000000E+00  0.00000000E+00
  0.00000000E+00  0.00000000E+00  0.00000000E+00  0.00000000E+00  0.00000000E+00
  0.00000000E+00  0.00000000E+00  0.00000000E+00  0.00000000E+00  0.00000000E+00
  0.00000000E+00  0.00000000E+00  0.00000000E+00  0.00000000E+00  0.00000000E+00
  0.00000000E+00  0.00000000E+00  0.00000000E+00  0.00000000E+00  0.00000000E+00
  0.00000000E+00  0.00000000E+00  0.00000000E+00  0.00000000E+00  0.00000000E+00
  0.00000000E+00  0.00000000E+00  0.00000000E+00  0.00000000E+00
Cartesian Gradient                         R   N=          48
  0.00000000E+00  0.00000000E+00  0.00000000E+00  0.00000000E+00  0.00000000E+00
  0.00000000E+00  0.00000000E+00  0.00000000E+00  0.00000000E+00  0.00000000E+00
  0.00000000E+00  0.00000000E+00  0.00000000E+00  0.00000000E+00  0.00000000E+00
  0.00000000E+00  0.00000000E+00  0.00000000E+00  0.00000000E+00  0.00000000E+00
  0.00000000E+00  0.00000000E+00  0.00000000E+00  0.00000000E+00  0.00000000E+00
  0.00000000E+00  0.00000000E+00  0.00000000E+00  0.00000000E+00  0.00000000E+00
  0.00000000E+00  0.00000000E+00  0.00000000E+00  0.00000000E+00  0.00000000E+00
  0.00000000E+00  0.00000000E+00  0.00000000E+00  0.00000000E+00  0.00000000E+00
  0.00000000E+00  0.00000000E+00  0.00000000E+00  0.00000000E+00  0.00000000E+00
  0.00000000E+00  0.00000000E+00  0.00000000E+00
Dipole Moment                              R   N=           3
  4.93693379E+00  3.70594381E-04  2.03336418E-01
Polarizability                             R   N=           6
  2.59556417E+02 -3.98299445E-03  1.29030001E+02 -1.04433179E+00 -1.59576371E-03
  6.57338702E+01
HyperPolarizability                        R   N=          10
 -5.85842945E+03 -1.07449631E+00  5.58276981E+02  1.90166760E-01  6.48079483E+01
 -6.30404267E-01  1.85120225E+00  9.98397492E+01  2.17866569E-02  5.47103691E+00
Quadrupole Moment                          R   N=           6
 -1.47894398E+00  3.23293825E+00 -1.75399427E+00 -1.32024077E-03  1.56423513E+00
  6.62072440E-03
QEq coupling tensors                       R   N=          96
 -2.92310909E-01  1.93696856E-03  2.08070663E-01  4.46047131E-04  1.15324957E-05
  8.42402467E-02  1.90013001E-01  4.51636505E-02  1.49731514E-01 -7.66425552E-04
 -4.04347749E-04 -3.39744515E-01  9.72947360E-02 -3.34638701E-02  4.57836590E-02
 -1.84000941E-03 -9.92113012E-04 -1.43078395E-01  3.80195833E-02 -2.01437820E-03
  3.09559256E-01  1.47741699E-02  2.30940138E-05 -3.47578839E-01  9.94965496E-02
  4.06678405E-02  5.32726366E-02 -1.88499227E-03  1.08772678E-03 -1.52769186E-01
  1.92520507E-01 -5.18008429E-02  1.56648273E-01 -8.52614504E-04  8.29666447E-04
 -3.49168781E-01  3.55523028E-01 -2.45340424E-03 -3.54971927E-01  1.91202114E-03
  2.06447041E-04 -5.51101182E-04 -6.78089554E-01  5.51915460E-03 -4.50929118E-01
 -1.31967683E-01  2.64712691E-04  1.12901867E+00  2.90643067E-02  2.85620847E-01
 -2.78074789E-01 -5.68897933E-02  8.54495572E-02  2.49010482E-01  2.83051388E-02
 -2.84950398E-01 -2.76394187E-01 -5.71778685E-02 -8.57477116E-02  2.48089048E-01
  1.20273992E+00 -1.81788014E+00 -1.04159889E+00  5.38632921E-04 -1.43283019E-03
 -1.61141032E-01  1.21441929E+00  1.82560518E+00 -1.02315007E+00 -2.02590148E-03
  2.15809399E-03 -1.91269223E-01  4.45116897E-02 -2.19901110E-01 -2.14721964E-01
  2.13358827E-04  4.46560108E-04  1.70210274E-01  3.29768815E-02  2.14906873E-01
 -2.12621662E-01 -4.37427826E-04 -3.38615458E-04  1.79644780E-01  3.25825398E-02
 -2.13970348E-01 -2.11055129E-01 -5.03798650E-04  2.19736895E-04  1.78472589E-01
  4.41593239E-02  2.18886422E-01 -2.13388884E-01  4.89117808E-04 -8.74294363E-04
  1.69229560E-01
