Polar                                                                   
SP        RB3LYP                                                      Gen                 
Number of atoms                            I               16
Info1-9                                    I   N=           9
         125         123           0           0           0         110
           1          18        -502
Charge                                     I                0
Multiplicity                               I                1
Number of electrons                        I               72
Number of alpha electrons                  I               36
Number of beta electrons                   I               36
Number of basis functions                  I              170
Number of independent functions            I              170
Number of point charges in /Mol/           I                0
Number of translation vectors              I                0
Atomic numbers                             I   N=          16
           6           6           6           6           6           6
           7           7           1           1           8           8
           1           1           1           1
Nuclear charges                            R   N=          16
  6.00000000E+00  6.00000000E+00  6.00000000E+00  6.00000000E+00  6.00000000E+00
  6.00000000E+00  7.00000000E+00  7.00000000E+00  1.00000000E+00  1.00000000E+00
  8.00000000E+00  8.00000000E+00  1.00000000E+00  1.00000000E+00  1.00000000E+00
  1.00000000E+00
Current cartesian coordinates              R   N=          48
 -1.34381938E+00  8.21720526E-04  2.61159356E-04 -2.77911747E-02 -2.28696630E+00
  1.68493597E-03  2.56210006E+00 -2.29055533E+00  1.25731370E-03  3.92838544E+00
 -7.33421153E-05 -2.28454201E-03  2.56326380E+00  2.29109135E+00  1.49030750E-03
 -2.68539917E-02  2.28817910E+00  2.75444839E-03 -4.04632551E+00  6.02137296E-05
  5.71100436E-04  6.47690702E+00 -8.15294836E-04 -6.93185161E-02  7.43836574E+00
 -1.61331354E+00  2.13064713E-01  7.43923395E+00  1.61090973E+00  2.14890460E-01
 -5.17845518E+00 -2.05880276E+00  1.31351438E-03 -5.18075892E+00  2.05755682E+00
 -9.43914809E-04 -1.05726844E+00 -4.04554698E+00  5.28676577E-03  3.58089886E+00
 -4.06166211E+00  2.35423654E-03  3.58171468E+00  4.06237023E+00  3.17313237E-03
 -1.05501107E+00  4.04751254E+00  8.52406840E-03
Force Field                                I                0
Int Atom Types                             I   N=          16
           0           0           0           0           0           0
           0           0           0           0           0           0
           0           0           0           0
MM charges                                 R   N=          16
  0.00000000E+00  0.00000000E+00  0.00000000E+00  0.00000000E+00  0.00000000E+00
  0.00000000E+00  0.00000000E+00  0.00000000E+00  0.00000000E+00  0.00000000E+00
  0.00000000E+00  0.00000000E+00  0.00000000E+00  0.00000000E+00  0.00000000E+00
  0.00000000E+00
Integer atomic weights                     I   N=          16
          12          12          12          12          12          12
          14          14           1           1          16          16
           1           1           1           1
Real atomic weights                        R   N=          16
  1.20000000E+01  1.20000000E+01  1.20000000E+01  1.20000000E+01  1.20000000E+01
  1.20000000E+01  1.40030740E+01  1.40030740E+01  1.00782504E+00  1.00782504E+00
  1.59949146E+01  1.59949146E+01  1.00782504E+00  1.00782504E+00  1.00782504E+00
  1.00782504E+00
Atom fragment info                         I   N=          16
           0           0           0           0           0           0
           0           0           0           0           0           0
           0           0           0           0
Atom residue num                           I   N=          16
           0           0           0           0           0           0
           0           0           0           0           0           0
           0           0           0           0
Nuclear spins                              I   N=          16
           0           0           0           0           0           0
           2           2           1           1           0           0
           1           1           1           1
Nuclear ZEff                               R   N=          16
 -3.60000000E+00 -3.60000000E+00 -3.60000000E+00 -3.60000000E+00 -3.60000000E+00
 -3.60000000E+00 -4.55000000E+00 -4.55000000E+00 -1.00000000E+00 -1.00000000E+00
 -5.60000000E+00 -5.60000000E+00 -1.00000000E+00 -1.00000000E+00 -1.00000000E+00
 -1.00000000E+00
Nuclear ZNuc                               R   N=          16
  6.00000000E+00  6.00000000E+00  6.00000000E+00  6.00000000E+00  6.00000000E+00
  6.00000000E+00  7.00000000E+00  7.00000000E+00  1.00000000E+00  1.00000000E+00
  8.00000000E+00  8.00000000E+00  1.00000000E+00  1.00000000E+00  1.00000000E+00
  1.00000000E+00
Nuclear QMom                               R   N=          16
  0.00000000E+00  0.00000000E+00  0.00000000E+00  0.00000000E+00  0.00000000E+00
  0.00000000E+00  2.04400000E+00  2.04400000E+00  0.00000000E+00  0.00000000E+00
  0.00000000E+00  0.00000000E+00  0.00000000E+00  0.00000000E+00  0.00000000E+00
  0.00000000E+00
Nuclear GFac                               R   N=          16
  0.00000000E+00  0.00000000E+00  0.00000000E+00  0.00000000E+00  0.00000000E+00
  0.00000000E+00  4.03761000E-01  4.03761000E-01  2.79284600E+00  2.79284600E+00
  0.00000000E+00  0.00000000E+00  2.79284600E+00  2.79284600E+00  2.79284600E+00
  2.79284600E+00
MicOpt                                     I   N=          16
          -1          -1          -1          -1          -1          -1
          -1          -1          -1          -1          -1          -1
          -1          -1          -1          -1
Number of contracted shells                I               78
Number of primitive shells                 I              232
Pure/Cartesian d shells                    I                0
Pure/Cartesian f shells                    I                0
Highest angular momentum                   I                2
Largest degree of contraction              I                5
Shell types                                I   N=          78
           0           0           0           1           1          -2
           0           0           0           1           1          -2
           0           0           0           1           1          -2
           0           0           0           1           1          -2
           0           0           0           1           1          -2
           0           0           0           1           1          -2
           0           0           0           1           1          -2
           0           0           0           1           1          -2
           0           0           1           0           0           1
           0           0           0           1           1          -2
           0           0           0           1           1          -2
           0           0           1           0           0           1
           0           0           1           0           0           1
Number of primitives per shell             I   N=          78
           5           3           3           4           2           2
           5           3           3           4           2           2
           5           3           3           4           2           2
           5           3           3           4           2           2
           5           3           3           4           2           2
           5           3           3           4           2           2
           5           3           3           4           2           2
           5           3           3           4           2           2
           3           2           2           3           2           2
           5           3           3           4           2           2
           5           3           3           4           2           2
           3           2           2           3           2           2
           3           2           2           3           2           2
Shell to atom map                          I   N=          78
           1           1           1           1           1           1
           2           2           2           2           2           2
           3           3           3           3           3           3
           4           4           4           4           4           4
           5           5           5           5           5           5
           6           6           6           6           6           6
           7           7           7           7           7           7
           8           8           8           8           8           8
           9           9           9          10          10          10
          11          11          11          11          11          11
          12          12          12          12          12          12
          13          13          13          14          14          14
          15          15          15          16          16          16
Primitive exponents                        R   N=         232
  6.77990000E+03  1.01720000E+03  2.31570000E+02  6.55470000E+01  7.53390000E+00
  2.12530000E+01  7.53390000E+00  2.80310000E+00  5.21510000E-01  1.59570000E-01
  4.88250000E-02  1.87340000E+01  4.13620000E+00  1.20040000E+00  3.83460000E-01
  1.21290000E-01  3.83650000E-02  4.16900000E-01  1.08560900E-01  6.77990000E+03
  1.01720000E+03  2.31570000E+02  6.55470000E+01  7.53390000E+00  2.12530000E+01
  7.53390000E+00  2.80310000E+00  5.21510000E-01  1.59570000E-01  4.88250000E-02
  1.87340000E+01  4.13620000E+00  1.20040000E+00  3.83460000E-01  1.21290000E-01
  3.83650000E-02  4.16900000E-01  1.08560900E-01  6.77990000E+03  1.01720000E+03
  2.31570000E+02  6.55470000E+01  7.53390000E+00  2.12530000E+01  7.53390000E+00
  2.80310000E+00  5.21510000E-01  1.59570000E-01  4.88250000E-02  1.87340000E+01
  4.13620000E+00  1.20040000E+00  3.83460000E-01  1.21290000E-01  3.83650000E-02
  4.16900000E-01  1.08560900E-01  6.77990000E+03  1.01720000E+03  2.31570000E+02
  6.55470000E+01  7.53390000E+00  2.12530000E+01  7.53390000E+00  2.80310000E+00
  5.21510000E-01  1.59570000E-01  4.88250000E-02  1.87340000E+01  4.13620000E+00
  1.20040000E+00  3.83460000E-01  1.21290000E-01  3.83650000E-02  4.16900000E-01
  1.08560900E-01  6.77990000E+03  1.01720000E+03  2.31570000E+02  6.55470000E+01
  7.53390000E+00  2.12530000E+01  7.53390000E+00  2.80310000E+00  5.21510000E-01
  1.59570000E-01  4.88250000E-02  1.87340000E+01  4.13620000E+00  1.20040000E+00
  3.83460000E-01  1.21290000E-01  3.83650000E-02  4.16900000E-01  1.08560900E-01
  6.77990000E+03  1.01720000E+03  2.31570000E+02  6.55470000E+01  7.53390000E+00
  2.12530000E+01  7.53390000E+00  2.80310000E+00  5.21510000E-01  1.59570000E-01
  4.88250000E-02  1.87340000E+01  4.13620000E+00  1.20040000E+00  3.83460000E-01
  1.21290000E-01  3.83650000E-02  4.16900000E-01  1.08560900E-01  9.15560000E+03
  1.37360000E+03  3.12730000E+02  8.85470000E+01  1.02460000E+01  2.87560000E+01
  1.02460000E+01  3.84430000E+00  7.46500000E-01  2.24750000E-01  6.76660000E-02
  2.66670000E+01  5.95570000E+00  1.74400000E+00  5.56290000E-01  1.73150000E-01
  5.38940000E-02  6.67104000E-01  1.48097000E-01  9.15560000E+03  1.37360000E+03
  3.12730000E+02  8.85470000E+01  1.02460000E+01  2.87560000E+01  1.02460000E+01
  3.84430000E+00  7.46500000E-01  2.24750000E-01  6.76660000E-02  2.66670000E+01
  5.95570000E+00  1.74400000E+00  5.56290000E-01  1.73150000E-01  5.38940000E-02
  6.67104000E-01  1.48097000E-01  1.87358400E+01  2.82571200E+00  6.40137000E-01
  1.75608000E-01  4.81740000E-02  6.05839000E-01  1.25177000E-01  1.87358400E+01
  2.82571200E+00  6.40137000E-01  1.75608000E-01  4.81740000E-02  6.05839000E-01
  1.25177000E-01  1.18520000E+04  1.77820000E+03  4.04860000E+02  1.14660000E+02
  1.33340000E+01  3.72790000E+01  1.33340000E+01  5.03850000E+00  1.01360000E+00
  3.02500000E-01  9.02780000E-02  3.44930000E+01  7.75620000E+00  2.28200000E+00
  7.16910000E-01  2.14610000E-01  6.42440000E-02  1.37401000E+00  2.28450000E-01
  1.18520000E+04  1.77820000E+03  4.04860000E+02  1.14660000E+02  1.33340000E+01
  3.72790000E+01  1.33340000E+01  5.03850000E+00  1.01360000E+00  3.02500000E-01
  9.02780000E-02  3.44930000E+01  7.75620000E+00  2.28200000E+00  7.16910000E-01
  2.14610000E-01  6.42440000E-02  1.37401000E+00  2.28450000E-01  1.87358400E+01
  2.82571200E+00  6.40137000E-01  1.75608000E-01  4.81740000E-02  6.05839000E-01
  1.25177000E-01  1.87358400E+01  2.82571200E+00  6.40137000E-01  1.75608000E-01
  4.81740000E-02  6.05839000E-01  1.25177000E-01  1.87358400E+01  2.82571200E+00
  6.40137000E-01  1.75608000E-01  4.81740000E-02  6.05839000E-01  1.25177000E-01
  1.87358400E+01  2.82571200E+00  6.40137000E-01  1.75608000E-01  4.81740000E-02
  6.05839000E-01  1.25177000E-01
Contraction coefficients                   R   N=         232
  2.26362740E-03  1.73766691E-02  8.85810663E-02  3.34916989E-01  7.49227380E-01
  4.89058686E-01  1.34849886E-01  5.11182216E-01  5.06672273E-01  1.61744167E-01
  5.00681748E-01  1.85607174E-02  1.16521571E-01  3.80385846E-01  6.42426708E-01
  9.25948446E-01  1.05230571E-01  3.43790816E-01  7.89056784E-01  2.26362740E-03
  1.73766691E-02  8.85810663E-02  3.34916989E-01  7.49227380E-01  4.89058686E-01
  1.34849886E-01  5.11182216E-01  5.06672273E-01  1.61744167E-01  5.00681748E-01
  1.85607174E-02  1.16521571E-01  3.80385846E-01  6.42426708E-01  9.25948446E-01
  1.05230571E-01  3.43790816E-01  7.89056784E-01  2.26362740E-03  1.73766691E-02
  8.85810663E-02  3.34916989E-01  7.49227380E-01  4.89058686E-01  1.34849886E-01
  5.11182216E-01  5.06672273E-01  1.61744167E-01  5.00681748E-01  1.85607174E-02
  1.16521571E-01  3.80385846E-01  6.42426708E-01  9.25948446E-01  1.05230571E-01
  3.43790816E-01  7.89056784E-01  2.26362740E-03  1.73766691E-02  8.85810663E-02
  3.34916989E-01  7.49227380E-01  4.89058686E-01  1.34849886E-01  5.11182216E-01
  5.06672273E-01  1.61744167E-01  5.00681748E-01  1.85607174E-02  1.16521571E-01
  3.80385846E-01  6.42426708E-01  9.25948446E-01  1.05230571E-01  3.43790816E-01
  7.89056784E-01  2.26362740E-03  1.73766691E-02  8.85810663E-02  3.34916989E-01
  7.49227380E-01  4.89058686E-01  1.34849886E-01  5.11182216E-01  5.06672273E-01
  1.61744167E-01  5.00681748E-01  1.85607174E-02  1.16521571E-01  3.80385846E-01
  6.42426708E-01  9.25948446E-01  1.05230571E-01  3.43790816E-01  7.89056784E-01
  2.26362740E-03  1.73766691E-02  8.85810663E-02  3.34916989E-01  7.49227380E-01
  4.89058686E-01  1.34849886E-01  5.11182216E-01  5.06672273E-01  1.61744167E-01
  5.00681748E-01  1.85607174E-02  1.16521571E-01  3.80385846E-01  6.42426708E-01
  9.25948446E-01  1.05230571E-01  3.43790816E-01  7.89056784E-01  2.28777817E-03
  1.76059450E-02  8.97206917E-02  3.39055356E-01  7.44522591E-01  4.93471575E-01
  1.43060213E-01  4.96278419E-01  9.88246542E-01  8.02516465E-03  1.31721057E-02
  2.57651181E-02  1.62851962E-01  3.55251732E-01  6.38239802E-01  9.34869210E-01
  9.38504545E-02  2.92752760E-01  8.45538853E-01  2.28777817E-03  1.76059450E-02
  8.97206917E-02  3.39055356E-01  7.44522591E-01  4.93471575E-01  1.43060213E-01
  4.96278419E-01  9.88246542E-01  8.02516465E-03  1.31721057E-02  2.57651181E-02
  1.62851962E-01  3.55251732E-01  6.38239802E-01  9.34869210E-01  9.38504545E-02
  2.92752760E-01  8.45538853E-01  2.90966555E-02  2.09264994E-01  8.36043900E-01
  8.81146894E-01  1.52516984E-01  1.14643488E-01  9.38523049E-01  2.90966555E-02
  2.09264994E-01  8.36043900E-01  8.81146894E-01  1.52516984E-01  1.14643488E-01
  9.38523049E-01  2.30589061E-03  1.77882990E-02  9.06873835E-02  3.42622403E-01
  7.40520298E-01  5.00852235E-01  1.46856961E-01  4.83494475E-01  4.99340042E-01
  1.29877306E-01  5.48846215E-01  2.03245889E-02  1.28155678E-01  3.94358849E-01
  6.23519234E-01  9.48976657E-01  7.58447981E-02  2.47638038E-01  9.00635960E-01
  2.30589061E-03  1.77882990E-02  9.06873835E-02  3.42622403E-01  7.40520298E-01
  5.00852235E-01  1.46856961E-01  4.83494475E-01  4.99340042E-01  1.29877306E-01
  5.48846215E-01  2.03245889E-02  1.28155678E-01  3.94358849E-01  6.23519234E-01
  9.48976657E-01  7.58447981E-02  2.47638038E-01  9.00635960E-01  2.90966555E-02
  2.09264994E-01  8.36043900E-01  8.81146894E-01  1.52516984E-01  1.14643488E-01
  9.38523049E-01  2.90966555E-02  2.09264994E-01  8.36043900E-01  8.81146894E-01
  1.52516984E-01  1.14643488E-01  9.38523049E-01  2.90966555E-02  2.09264994E-01
  8.36043900E-01  8.81146894E-01  1.52516984E-01  1.14643488E-01  9.38523049E-01
  2.90966555E-02  2.09264994E-01  8.36043900E-01  8.81146894E-01  1.52516984E-01
  1.14643488E-01  9.38523049E-01
Coordinates of each shell                  R   N=         234
 -1.34381938E+00  8.21720526E-04  2.61159356E-04 -1.34381938E+00  8.21720526E-04
  2.61159356E-04 -1.34381938E+00  8.21720526E-04  2.61159356E-04 -1.34381938E+00
  8.21720526E-04  2.61159356E-04 -1.34381938E+00  8.21720526E-04  2.61159356E-04
 -1.34381938E+00  8.21720526E-04  2.61159356E-04 -2.77911747E-02 -2.28696630E+00
  1.68493597E-03 -2.77911747E-02 -2.28696630E+00  1.68493597E-03 -2.77911747E-02
 -2.28696630E+00  1.68493597E-03 -2.77911747E-02 -2.28696630E+00  1.68493597E-03
 -2.77911747E-02 -2.28696630E+00  1.68493597E-03 -2.77911747E-02 -2.28696630E+00
  1.68493597E-03  2.56210006E+00 -2.29055533E+00  1.25731370E-03  2.56210006E+00
 -2.29055533E+00  1.25731370E-03  2.56210006E+00 -2.29055533E+00  1.25731370E-03
  2.56210006E+00 -2.29055533E+00  1.25731370E-03  2.56210006E+00 -2.29055533E+00
  1.25731370E-03  2.56210006E+00 -2.29055533E+00  1.25731370E-03  3.92838544E+00
 -7.33421153E-05 -2.28454201E-03  3.92838544E+00 -7.33421153E-05 -2.28454201E-03
  3.92838544E+00 -7.33421153E-05 -2.28454201E-03  3.92838544E+00 -7.33421153E-05
 -2.28454201E-03  3.92838544E+00 -7.33421153E-05 -2.28454201E-03  3.92838544E+00
 -7.33421153E-05 -2.28454201E-03  2.56326380E+00  2.29109135E+00  1.49030750E-03
  2.56326380E+00  2.29109135E+00  1.49030750E-03  2.56326380E+00  2.29109135E+00
  1.49030750E-03  2.56326380E+00  2.29109135E+00  1.49030750E-03  2.56326380E+00
  2.29109135E+00  1.49030750E-03  2.56326380E+00  2.29109135E+00  1.49030750E-03
 -2.68539917E-02  2.28817910E+00  2.75444839E-03 -2.68539917E-02  2.28817910E+00
  2.75444839E-03 -2.68539917E-02  2.28817910E+00  2.75444839E-03 -2.68539917E-02
  2.28817910E+00  2.75444839E-03 -2.68539917E-02  2.28817910E+00  2.75444839E-03
 -2.68539917E-02  2.28817910E+00  2.75444839E-03 -4.04632551E+00  6.02137296E-05
  5.71100436E-04 -4.04632551E+00  6.02137296E-05  5.71100436E-04 -4.04632551E+00
  6.02137296E-05  5.71100436E-04 -4.04632551E+00  6.02137296E-05  5.71100436E-04
 -4.04632551E+00  6.02137296E-05  5.71100436E-04 -4.04632551E+00  6.02137296E-05
  5.71100436E-04  6.47690702E+00 -8.15294836E-04 -6.93185161E-02  6.47690702E+00
 -8.15294836E-04 -6.93185161E-02  6.47690702E+00 -8.15294836E-04 -6.93185161E-02
  6.47690702E+00 -8.15294836E-04 -6.93185161E-02  6.47690702E+00 -8.15294836E-04
 -6.93185161E-02  6.47690702E+00 -8.15294836E-04 -6.93185161E-02  7.43836574E+00
 -1.61331354E+00  2.13064713E-01  7.43836574E+00 -1.61331354E+00  2.13064713E-01
  7.43836574E+00 -1.61331354E+00  2.13064713E-01  7.43923395E+00  1.61090973E+00
  2.14890460E-01  7.43923395E+00  1.61090973E+00  2.14890460E-01  7.43923395E+00
  1.61090973E+00  2.14890460E-01 -5.17845518E+00 -2.05880276E+00  1.31351438E-03
 -5.17845518E+00 -2.05880276E+00  1.31351438E-03 -5.17845518E+00 -2.05880276E+00
  1.31351438E-03 -5.17845518E+00 -2.05880276E+00  1.31351438E-03 -5.17845518E+00
 -2.05880276E+00  1.31351438E-03 -5.17845518E+00 -2.05880276E+00  1.31351438E-03
 -5.18075892E+00  2.05755682E+00 -9.43914809E-04 -5.18075892E+00  2.05755682E+00
 -9.43914809E-04 -5.18075892E+00  2.05755682E+00 -9.43914809E-04 -5.18075892E+00
  2.05755682E+00 -9.43914809E-04 -5.18075892E+00  2.05755682E+00 -9.43914809E-04
 -5.18075892E+00  2.05755682E+00 -9.43914809E-04 -1.05726844E+00 -4.04554698E+00
  5.28676577E-03 -1.05726844E+00 -4.04554698E+00  5.28676577E-03 -1.05726844E+00
 -4.04554698E+00  5.28676577E-03  3.58089886E+00 -4.06166211E+00  2.35423654E-03
  3.58089886E+00 -4.06166211E+00  2.35423654E-03  3.58089886E+00 -4.06166211E+00
  2.35423654E-03  3.58171468E+00  4.06237023E+00  3.17313237E-03  3.58171468E+00
  4.06237023E+00  3.17313237E-03  3.58171468E+00  4.06237023E+00  3.17313237E-03
 -1.05501107E+00  4.04751254E+00  8.52406840E-03 -1.05501107E+00  4.04751254E+00
  8.52406840E-03 -1.05501107E+00  4.04751254E+00  8.52406840E-03
Constraint Structure                       R   N=          48
 -1.34381938E+00  8.21720526E-04  2.61159356E-04 -2.77911747E-02 -2.28696630E+00
  1.68493597E-03  2.56210006E+00 -2.29055533E+00  1.25731370E-03  3.92838544E+00
 -7.33421153E-05 -2.28454201E-03  2.56326380E+00  2.29109135E+00  1.49030750E-03
 -2.68539917E-02  2.28817910E+00  2.75444839E-03 -4.04632551E+00  6.02137296E-05
  5.71100436E-04  6.47690702E+00 -8.15294836E-04 -6.93185161E-02  7.43836574E+00
 -1.61331354E+00  2.13064713E-01  7.43923395E+00  1.61090973E+00  2.14890460E-01
 -5.17845518E+00 -2.05880276E+00  1.31351438E-03 -5.18075892E+00  2.05755682E+00
 -9.43914809E-04 -1.05726844E+00 -4.04554698E+00  5.28676577E-03  3.58089886E+00
 -4.06166211E+00  2.35423654E-03  3.58171468E+00  4.06237023E+00  3.17313237E-03
 -1.05501107E+00  4.04751254E+00  8.52406840E-03
Num ILSW                                   I              100
ILSW                                       I   N=         100
           0           0           0           0           2           0
           0           0           0           0         402          -1
           0           0           0           0           0           0
           0           0           0           0           0           0
           1           0           0           0           0           0
           0           0      100000           0          -1           0
           0           0           0           0           0           0
           0           0           0           1           0           0
           0           0           1           0           0           0
           0           0           4          41           0           0
           0           0           5           0           0           0
           0           0           0          16           0           0
           0           0           0           0           0           0
           0           0           0           0           0           0
           0           0           0           0           0           0
           0           0           0           0           0           0
           0           0           0           0
Num RLSW                                   I               41
RLSW                                       R   N=          41
  8.00000000E-01  7.20000000E-01  1.00000000E+00  8.10000000E-01  2.00000000E-01
  0.00000000E+00  0.00000000E+00  1.00000000E+00  0.00000000E+00  0.00000000E+00
  0.00000000E+00  0.00000000E+00  1.00000000E+00  0.00000000E+00  0.00000000E+00
  0.00000000E+00  0.00000000E+00  1.00000000E+00  0.00000000E+00  0.00000000E+00
  0.00000000E+00  0.00000000E+00  1.00000000E+00  0.00000000E+00  0.00000000E+00
  0.00000000E+00  0.00000000E+00  1.00000000E+00  0.00000000E+00  0.00000000E+00
  0.00000000E+00  0.00000000E+00  1.00000000E+00  0.00000000E+00  0.00000000E+00
  0.00000000E+00  0.00000000E+00  0.00000000E+00  1.00000000E+00  1.00000000E+00
  0.00000000E+00
MxBond                                     I                3
NBond                                      I   N=          16
           3           3           3           3           3           3
           3           3           1           1           1           1
           1           1           1           1
IBond                                      I   N=          48
           2           6           7           1           3          13
           2           4          14           3           5           8
           4           6          15           1           5          16
           1          11          12           4           9          10
           8           0           0           8           0           0
           7           0           0           7           0           0
           2           0           0           3           0           0
           5           0           0           6           0           0
RBond                                      R   N=          48
  1.50000000E+00  1.50000000E+00  1.00000000E+00  1.50000000E+00  1.50000000E+00
  1.00000000E+00  1.50000000E+00  1.50000000E+00  1.00000000E+00  1.50000000E+00
  1.50000000E+00  1.50000000E+00  1.50000000E+00  1.50000000E+00  1.00000000E+00
  1.50000000E+00  1.50000000E+00  1.00000000E+00  1.00000000E+00  2.00000000E+00
  2.00000000E+00  1.50000000E+00  1.00000000E+00  1.00000000E+00  1.00000000E+00
  0.00000000E+00  0.00000000E+00  1.00000000E+00  0.00000000E+00  0.00000000E+00
  2.00000000E+00  0.00000000E+00  0.00000000E+00  2.00000000E+00  0.00000000E+00
  0.00000000E+00  1.00000000E+00  0.00000000E+00  0.00000000E+00  1.00000000E+00
  0.00000000E+00  0.00000000E+00  1.00000000E+00  0.00000000E+00  0.00000000E+00
  1.00000000E+00  0.00000000E+00  0.00000000E+00
Virial Ratio                               R      1.950927674246125E+00
SCF Energy                                 R     -4.902759740171924E+02
Total Energy                               R     -4.902759740171924E+02
RMS Density                                R      5.166046341803450E-09
External E-field                           R   N=          35
  0.00000000E+00  0.00000000E+00  0.00000000E+00  0.00000000E+00  0.00000000E+00
  0.00000000E+00  0.00000000E+00  0.00000000E+00  0.00000000E+00  0.00000000E+00
  0.00000000E+00  0.00000000E+00  0.00000000E+00  0.00000000E+00  0.00000000E+00
  0.00000000E+00  0.00000000E+00  0.00000000E+00  0.00000000E+00  0.00000000E+00
  0.00000000E+00  0.00000000E+00  0.00000000E+00  0.00000000E+00  0.00000000E+00
  0.00000000E+00  0.00000000E+00  0.00000000E+00  0.00000000E+00  0.00000000E+00
  0.00000000E+00  0.00000000E+00  0.00000000E+00  0.00000000E+00  0.00000000E+00
IOpCl                                      I                0
IROHF                                      I                0
Alpha Orbital Energies                     R   N=         170
 -1.90234587E+01 -1.90233867E+01 -1.44387157E+01 -1.42032864E+01 -1.01761099E+01
 -1.01541510E+01 -1.01261129E+01 -1.01260440E+01 -1.01139704E+01 -1.01139186E+01
 -1.20850522E+00 -1.02890081E+00 -9.41099304E-01 -8.71237170E-01 -7.94772327E-01
 -7.66531020E-01 -6.92824631E-01 -6.47066385E-01 -6.02901593E-01 -5.73953287E-01
 -5.64344885E-01 -5.62065077E-01 -5.52672771E-01 -5.23971007E-01 -4.75763417E-01
 -4.69217204E-01 -4.59762517E-01 -4.41197989E-01 -4.31399792E-01 -3.80307741E-01
 -3.61685553E-01 -3.51892526E-01 -3.51769045E-01 -3.29759259E-01 -2.97203217E-01
 -2.50449233E-01 -1.22547980E-01 -4.23922955E-02 -1.05788885E-02  5.36849148E-02
  6.41334378E-02  7.14126253E-02  9.80246355E-02  1.05989081E-01  1.14578018E-01
  1.27281683E-01  1.49385379E-01  1.56069084E-01  1.72452149E-01  1.85016104E-01
  1.99503413E-01  2.05168771E-01  2.06154834E-01  2.16840456E-01  2.23190543E-01
  2.38927419E-01  2.56800055E-01  2.64343617E-01  2.66849241E-01  2.77316282E-01
  2.81222935E-01  2.96867834E-01  3.09924085E-01  3.20248325E-01  3.25196064E-01
  3.36403582E-01  3.52079672E-01  3.74122521E-01  3.89538267E-01  3.92031747E-01
  3.98539633E-01  4.22604287E-01  4.38982241E-01  4.43192855E-01  4.72500730E-01
  4.76764411E-01  4.82526223E-01  5.06316788E-01  5.23348539E-01  5.43919408E-01
  5.45883053E-01  5.46187445E-01  5.47381997E-01  5.71966455E-01  5.72305720E-01
  6.10124072E-01  6.16084018E-01  6.17356001E-01  6.23018444E-01  6.30344112E-01
  6.36205990E-01  6.62391029E-01  6.71410662E-01  6.87989032E-01  6.89512294E-01
  7.08588623E-01  7.22164672E-01  7.28754320E-01  7.30909310E-01  7.34077519E-01
  7.53088988E-01  7.70481747E-01  7.71573857E-01  7.94373754E-01  8.15513278E-01
  8.19357860E-01  8.42498375E-01  8.60952556E-01  8.65488325E-01  8.94959062E-01
  9.07715660E-01  9.12853083E-01  9.24512939E-01  9.25800399E-01  9.70769645E-01
  1.01064183E+00  1.02883978E+00  1.05040197E+00  1.06885538E+00  1.11376231E+00
  1.13518648E+00  1.16943558E+00  1.17006113E+00  1.22524241E+00  1.24697388E+00
  1.25436016E+00  1.29695320E+00  1.30198215E+00  1.30442209E+00  1.32450050E+00
  1.34984071E+00  1.36162909E+00  1.37501887E+00  1.41471064E+00  1.41518369E+00
  1.47907322E+00  1.50762554E+00  1.55692876E+00  1.57458791E+00  1.60107725E+00
  1.67881004E+00  1.68417215E+00  1.68662875E+00  1.71688270E+00  1.75642449E+00
  1.75742503E+00  1.82706872E+00  1.84479500E+00  1.91644508E+00  1.92062986E+00
  1.95026626E+00  1.97914234E+00  1.97929334E+00  2.05268352E+00  2.21206938E+00
  2.25901180E+00  2.34653254E+00  2.40866532E+00  2.66871595E+00  2.72477080E+00
  1.06125681E+02  1.16721742E+02  1.17683559E+02  1.21571121E+02  1.22255338E+02
  1.25985861E+02  1.63619053E+02  1.68063675E+02  2.13408336E+02  2.16098116E+02
Alpha MO coefficients                      R   N=       28900
 -2.40418260E-05  9.20429378E-05 -9.41979125E-04  1.27125868E-04 -9.04748397E-05
 -4.97181605E-08  1.00947192E-02  8.61690988E-03  9.02676006E-06  2.28165403E-04
 -8.12182272E-07  6.30774540E-07 -5.69447846E-05  5.09960914E-04  1.53328431E-06
 -9.83968951E-06  1.81733512E-04 -6.29159861E-07 -3.74564131E-05  1.66451029E-06
 -1.02296969E-02 -8.00621411E-04 -6.85625993E-06 -2.09044797E-04  8.70514193E-07
 -1.17989011E-06  2.49602265E-04 -5.11700036E-04 -1.19689698E-05  4.31791114E-05
 -2.66911287E-04  1.79460007E-05 -5.91572179E-05 -2.53147093E-06 -8.35310888E-03
 -2.98219553E-03  4.51838358E-05  2.08563409E-05  1.45064967E-05  1.43676275E-05
 -2.19438665E-04 -3.75833332E-04 -5.06961395E-06  1.66510885E-05 -1.25392453E-04
  8.16231165E-05  1.16287939E-05 -5.00666034E-06  1.46190965E-03 -1.14016047E-02
 -9.63774839E-05 -2.76206696E-04 -9.26818734E-06 -5.32890629E-06  1.15315895E-04
  1.75098544E-04 -5.72223510E-06  2.19934114E-05 -1.56956467E-04  1.52039119E-04
  1.98564154E-05 -7.36448399E-07  1.10645229E-02 -4.87971020E-03  2.44745307E-05
  3.10367132E-04  7.68616639E-06 -9.15359204E-06 -3.13855533E-04 -3.14241372E-04
 -2.08565204E-05  7.79470797E-05 -7.72751005E-04  2.00952785E-04 -1.78407787E-05
 -2.98087726E-07  7.97963408E-03  6.31736397E-03 -2.55926472E-06 -2.99140845E-04
 -1.76101538E-06 -1.16026893E-06  1.35982997E-03  3.36884620E-05 -8.67810975E-06
  5.65106193E-05 -1.79099246E-05 -4.00744156E-06 -1.84564944E-04  3.44849943E-07
  6.02189774E-03 -1.04131315E-02  1.37509078E-06  1.08180001E-03 -3.70623083E-06
  3.64906619E-06  9.48670365E-04  4.76041223E-03  1.41960699E-06 -7.79039132E-06
  5.73519263E-05 -1.49024769E-05 -3.14450366E-05 -8.00844803E-06  1.34296395E-03
  1.70799024E-03  1.68213436E-04 -7.31122673E-05  4.26944810E-05  6.39171158E-05
 -2.14881638E-04  1.18107299E-05  8.56715926E-05 -3.78234865E-04  1.03562825E-04
 -4.87388258E-05 -1.71980519E-05 -1.72865315E-05 -1.98558030E-03  2.22298331E-04
  4.17558224E-04  8.28460989E-05 -1.08043893E-01 -2.52144553E-01 -9.25146682E-03
 -3.04082739E-04 -6.66687324E-04  2.34942121E-07 -6.30540995E-04 -1.25127083E-03
  1.49284051E-06 -3.21280817E-04  3.83498474E-07  3.35012820E-07 -1.36634096E-04
 -3.07553132E-05  2.81811153E-01  6.57897864E-01  2.25494455E-02  6.69521105E-04
 -1.48954683E-03  9.36926921E-07  1.92588689E-03 -4.10692046E-03  4.23836322E-06
 -5.32338694E-05  4.95236027E-07 -1.25045071E-07 -3.27953888E-04  1.64723716E-04
  2.67089171E-04 -3.74674268E-03 -6.45495939E-04 -4.13989778E-04  5.58512397E-06
  8.87676974E-06  7.74933338E-05  5.98802942E-04  2.77166151E-04  3.15757273E-06
  2.08530774E-04 -1.41775999E-03 -5.68254545E-04  7.30904430E-04 -5.28047418E-06
  5.71213843E-05 -2.28747451E-04  8.40090630E-04 -3.69677548E-04  3.48037700E-06
 -5.38787225E-05  2.06298931E-04 -2.11207209E-03  2.85298385E-04  3.98111156E-05
  2.85246252E-08  2.26347080E-02 -3.83323107E-03  9.45826431E-06  5.12113313E-04
  1.19144424E-06 -3.50646437E-06 -1.27574208E-04 -2.28048002E-04 -2.66647107E-05
  9.59928641E-05 -8.77297522E-04  2.69814948E-04 -9.24913605E-06  1.13401070E-06
  1.53014353E-03 -9.20165113E-03 -1.36119358E-05 -5.89938358E-04 -4.87933042E-07
 -1.85444215E-06  2.05579181E-03 -5.04545881E-04 -1.84378161E-05  6.83466003E-05
 -4.51803615E-04  2.21081903E-04 -7.98509757E-05 -3.37207447E-06  7.37316773E-03
  3.86445077E-03  7.82234284E-05  4.35533427E-04  2.13252076E-05  2.46129967E-05
 -6.18227659E-04  8.64769925E-05 -1.13663091E-05  3.73384929E-05 -2.81467721E-04
  1.83495027E-04 -5.23659695E-06 -1.11108048E-05  3.28540562E-03  5.07619594E-03
 -2.14678640E-04 -6.19137418E-04 -2.13788180E-05  2.33312557E-06  2.60421476E-04
 -7.80741020E-05 -2.12351871E-05  7.78335467E-05 -5.00778907E-04  1.61294825E-04
  9.73191983E-05 -4.20112423E-06 -1.27799219E-03 -3.71487362E-04  8.50983254E-05
  3.07069645E-04  2.57304157E-05 -2.69543714E-05 -5.77458802E-04  2.21767791E-04
 -1.66859194E-05  5.68519363E-05 -4.51607840E-04  1.80220270E-04  3.39901215E-05
  2.15304276E-06 -6.57565465E-03  6.75828483E-03 -6.19228546E-06 -5.50929550E-04
 -1.43543898E-08  9.51147975E-07  1.56011955E-03  7.16894843E-04 -1.94259391E-05
  1.26532223E-04 -3.88073252E-05 -9.20674016E-06  8.18018453E-05  3.30569887E-07
  1.34902968E-02  4.65068508E-03 -5.96248059E-06  2.42715961E-03  2.29116159E-07
  1.67282234E-06  2.14185071E-03 -2.11887157E-03  3.17964524E-06 -1.74488105E-05
  1.28458144E-04 -3.32789778E-05  1.40040441E-05 -1.80387805E-05  3.01228804E-03
 -7.61230521E-04  3.77039746E-04 -1.64449197E-04  9.52369679E-05 -2.78052745E-05
 -4.83144965E-04 -4.91119781E-06  5.34215026E-05 -3.00880797E-03  3.91392445E-04
 -6.05377092E-04  9.52913458E-05  9.92564312E-05 -2.29409839E-03  3.39278272E-04
  4.40761195E-04  5.13461715E-05  2.81804063E-01  6.57960196E-01  2.20034102E-02
  6.24456801E-04  1.40510085E-03 -5.06037613E-07  2.01715174E-03  4.39623830E-03
 -1.34465437E-06 -3.60629989E-04  8.48085507E-08 -8.77344963E-09 -5.64147788E-04
 -2.51897149E-04  1.08025493E-01  2.52307171E-01  7.82796926E-03  1.91704515E-04
 -4.43333130E-04  4.55049998E-07  8.82043474E-04 -2.00664670E-03  2.46845252E-06
 -4.80051008E-04  7.58150386E-08 -1.74480976E-06 -4.78671591E-04  1.90041132E-04
  3.15714002E-04 -3.66368569E-03  5.55402210E-04  1.27433837E-04  7.98882967E-06
  2.88592851E-04 -1.84370603E-03 -2.25670297E-04 -7.34412318E-04 -4.45742837E-06
  1.99397827E-04 -1.17294870E-03  2.95055081E-04  2.84323927E-04 -9.07862204E-07
  4.09858442E-04 -5.24145712E-03 -1.09492653E-04  2.24146552E-04  1.15768338E-05
  2.75879864E-06 -9.01897488E-06  4.66601668E-04 -1.56380007E-04 -2.55756123E-07
 -3.30043799E-08  1.33355607E-04  1.10214980E-05 -4.37884772E-06  3.15161792E-04
 -2.03196252E-06  2.14746038E-07 -3.26488748E-03 -2.67594553E-06 -8.74089329E-06
  4.75195310E-05 -7.44258832E-04  2.12622004E-04 -7.11097936E-05  4.36665023E-07
  8.55295890E-04  1.46300769E-03  8.91082071E-06 -4.14391665E-04  2.07448086E-07
  5.78210314E-07 -5.19980746E-04  1.22706218E-03 -1.10819221E-07  1.09276993E-07
  7.90008631E-06  4.02538894E-05 -6.02243180E-05 -2.24170627E-07  5.19270272E-04
 -1.54342006E-03 -9.14481097E-06  1.21193292E-04  3.04762059E-06 -4.60021821E-08
  2.25239551E-04  6.44978907E-04  9.22029485E-07 -3.77909037E-06  2.89122868E-05
  8.01975541E-07 -3.73726204E-08 -2.65344416E-06 -1.44693878E-03 -9.40451100E-06
  3.04226440E-06  5.68155845E-05 -3.64997641E-06 -4.43516488E-08  4.75595073E-04
 -2.29664031E-07 -1.03242268E-07  6.16644119E-08  8.99352433E-06  3.97450164E-05
  6.02404110E-05 -1.53285543E-07  5.35287611E-04  1.53364347E-03 -7.84464613E-06
  1.21309555E-04  2.62981126E-06 -1.74542368E-08  2.25364279E-04 -6.46243934E-04
 -8.73872659E-06  4.74872149E-05 -7.42824579E-04  2.12430593E-04  7.02822225E-05
  4.70375835E-07  8.76293173E-04 -1.45905382E-03  8.03411906E-06 -4.13992368E-04
 -1.20850245E-06 -1.39474108E-07 -5.25421643E-04 -1.22746998E-03  3.00246052E-01
  7.05975520E-01  1.49079581E-02 -8.01819347E-04 -5.07216747E-07 -8.42647688E-07
  1.76909715E-03 -7.98189419E-07  7.05867864E-08  9.87258411E-04 -9.62132794E-07
  5.68883524E-07 -1.10041537E-04 -4.89423420E-07 -7.82987259E-07  2.18563765E-06
 -2.73032311E-05  3.21446799E-05 -1.24148049E-08 -2.09740453E-06 -3.54776234E-04
  1.43905807E-06 -2.61277972E-05  1.82404918E-05 -2.16912089E-05  2.72608972E-08
 -4.84300873E-05  5.98715675E-08 -1.96944599E-06  2.38146703E-04  1.69565846E-05
  1.25207461E-04 -7.81019932E-06 -2.04496330E-06  2.36887581E-04  1.68248839E-05
 -1.24729585E-04 -7.77467629E-06 -2.02761753E-05 -6.21766367E-05  6.79185077E-04
  2.37342422E-05  7.08341442E-05 -5.15806425E-08 -9.43122489E-04 -1.01170076E-03
  2.10032130E-07  6.18598391E-04  7.24350068E-07  3.65661634E-07  5.06198670E-04
 -1.27243333E-03 -2.02820715E-05 -6.21604289E-05  6.79232129E-04  2.38273597E-05
 -7.04630097E-05 -1.35303859E-08 -9.44283000E-04  1.00925609E-03 -5.12227855E-07
  6.18641064E-04 -4.93860695E-07  1.54609321E-06  5.03572309E-04  1.27293136E-03
 -9.39233265E-05 -9.69275474E-04  5.82589460E-04 -1.72561627E-04  4.89512304E-07
  9.22779683E-05 -2.90548499E-04  2.25667944E-04 -2.77448943E-05  3.96727368E-06
  9.23052792E-05 -2.88534445E-04  2.24034401E-04  2.80530171E-05  3.89513715E-06
 -9.43883554E-05 -9.64957536E-04  5.79055816E-04  1.69679001E-04  1.45133641E-06
  7.89047577E-06 -3.62715522E-05  3.34258026E-04  2.89437910E-05 -1.89478468E-08
 -2.94669175E-07  6.26133514E-04  8.39144798E-06 -3.19168641E-05 -4.23973984E-05
  1.05108293E-05  1.64253478E-07  5.56605846E-04 -1.38212099E-07  6.92571490E-07
 -5.73225167E-07 -7.93268451E-05 -1.23936108E-04 -6.96345439E-05 -8.32020211E-06
  3.45640992E-04 -1.17882792E-03  1.65670268E-05  4.47157420E-04 -3.54953783E-06
  7.54622089E-06  2.28324417E-04 -8.20522044E-04 -6.29242940E-06  3.99202560E-05
 -9.58019408E-04 -3.91619229E-04  1.20660193E-05  1.00180131E-05 -8.67979522E-04
  1.80582337E-03 -9.74035847E-05 -1.20950670E-03 -6.38658005E-05 -3.82653130E-05
 -8.51987460E-04 -1.81764803E-03  6.91006297E-06 -1.33218874E-05  1.66020189E-03
  2.97994026E-05 -2.19289506E-08 -6.15696423E-06  5.04911569E-04 -7.19275453E-06
  3.26676019E-04  1.47283524E-03  1.11881717E-04 -5.60750824E-08 -5.49323062E-03
  3.49514386E-06 -6.29241604E-06  3.99161632E-05 -9.57809783E-04 -3.91485776E-04
 -1.18296234E-05  1.00657250E-05 -8.55811033E-04 -1.81169755E-03 -9.82549543E-05
 -1.20932707E-03 -6.32277645E-05  3.83379619E-05 -8.50855128E-04  1.81805227E-03
  6.85066500E-07 -5.34841324E-07 -7.99447376E-05 -1.23918037E-04  6.96826954E-05
 -8.20286216E-06  3.59920630E-04  1.18553347E-03  1.63218970E-05  4.46694010E-04
 -2.49446640E-06 -8.18627035E-06  2.28973534E-04  8.19709504E-04 -3.02934871E-07
  7.24302591E-06 -4.07866109E-05 -5.04854892E-05 -1.40117955E-09 -6.48885758E-07
  1.33546273E-04 -1.02654817E-06  1.80986438E-05 -3.26840403E-05  3.38351045E-06
  1.75179624E-07 -8.84718255E-05 -1.71776342E-07  3.00060985E-01  7.05983399E-01
  1.46759580E-02 -1.02725411E-03  7.65883619E-09  4.44866781E-04  2.03256232E-03
 -4.73938505E-07 -3.56130986E-04  8.69464143E-04 -2.34963769E-06 -1.25335140E-07
 -5.15944493E-04  1.26681190E-07 -1.01368134E-04 -1.48576546E-04  4.57928351E-04
 -6.56331472E-04  1.56631011E-04 -1.01448305E-04 -1.46794603E-04  4.57843901E-04
  6.55500261E-04  1.56891824E-04  2.52116023E-07 -6.96474332E-06  1.63062199E-05
 -8.65107948E-06 -3.21215359E-06 -1.77133328E-07 -6.05153382E-07  9.95080257E-06
 -1.52364059E-06 -1.20641466E-05 -4.17488751E-07 -1.70660648E-06  1.89279723E-05
 -2.90124419E-05  2.53071195E-07 -6.98137052E-06  1.65210459E-05 -8.61619724E-06
  3.20471416E-06 -1.85972282E-07 -8.27085439E-07 -1.02071765E-05 -1.71809693E-06
 -1.20986952E-05 -4.87661254E-07  1.73064116E-06  1.88161715E-05  2.91133220E-05
  4.71860887E-05  7.50623200E-04 -1.86915639E-04  4.51040431E-05 -1.00207792E-05
 -3.68876059E-04 -1.40304102E-03 -5.19351882E-04  1.48250294E-04 -1.11023853E-05
 -3.68571152E-04 -1.40420423E-03 -5.21492047E-04 -1.46222539E-04 -1.07062956E-05
  4.70287362E-05  7.50368917E-04 -1.88561564E-04 -4.60193893E-05 -9.81537601E-06
 -3.29486965E-04 -5.53914924E-04 -1.74439555E-03 -1.68878873E-04  1.84504023E-07
  2.66920875E-06  5.92605621E-03 -8.02530161E-06  2.87388477E-06  7.54272871E-04
  1.06187508E-06 -1.56471569E-06  1.92567127E-03  1.35635654E-07 -1.28634912E-04
 -1.19648188E-04 -1.69231301E-03 -2.65007568E-04 -1.04089146E-04  7.28526805E-06
 -7.18243988E-03 -9.19073190E-03  8.02874310E-05 -2.01372124E-03  4.01092797E-05
 -2.65729884E-05  1.08177944E-03 -2.10085768E-03  9.84344994E-04  2.66633686E-03
 -2.12509899E-03  7.45380530E-05 -3.25443485E-04 -1.79051763E-07 -8.38002380E-03
  6.10795213E-03  1.45754864E-04  5.50593010E-04  1.25456911E-04  2.05568526E-04
  1.48518727E-03 -3.35291597E-03  2.99499728E-01  7.06812796E-01  3.04820795E-02
  7.16663205E-04 -3.18320481E-07 -4.87015886E-05  6.84233673E-03  2.99011112E-06
 -4.61270451E-04 -1.81011666E-03  2.40632605E-04 -7.28933011E-07 -1.80540799E-03
  7.27959224E-07  9.84682912E-04  2.66711561E-03 -2.12452365E-03  7.45384646E-05
  3.25641851E-04 -2.60061752E-07 -8.38737104E-03 -6.10019487E-03  1.45663442E-04
  5.50009122E-04  1.26541127E-04 -2.07003044E-04  1.48745121E-03  3.35181875E-03
 -1.28721774E-04 -1.19867401E-04 -1.69173450E-03 -2.65168712E-04  1.04205155E-04
  7.67237474E-06 -7.18571526E-03  9.18719664E-03  8.90495530E-05 -2.01253836E-03
  3.94361296E-05  2.70471970E-05  1.08225444E-03  2.10044842E-03  5.24239493E-07
 -7.18900786E-06  5.22215338E-05  8.09731390E-05 -1.80731988E-07 -1.22581827E-06
 -5.77746096E-04  3.01652045E-06  6.47480205E-06  2.12634764E-04  4.47483199E-06
 -7.46935508E-07  1.89020223E-04  5.55026381E-07 -3.42904723E-05 -1.83070721E-04
  5.73002860E-04 -7.04600251E-05  4.95662241E-08 -9.99442899E-05  6.98195061E-03
 -4.13682309E-06  1.04305829E-03 -5.68626025E-04  6.12259605E-04  2.45502591E-06
 -2.50560564E-03  1.02892832E-06  6.08513921E-05 -6.69419178E-03  4.88330243E-04
 -4.12852380E-04 -1.28045663E-04  6.08222242E-05 -6.69180618E-03  4.88550804E-04
  4.11424981E-04 -1.28845946E-04  6.50359908E-07  1.85876830E-05 -4.25497129E-05
  6.20760368E-05 -6.47402160E-06  1.31565180E-07 -4.23820330E-05  1.13301845E-04
 -5.74122874E-07  9.99745974E-06 -4.33306096E-08  3.03519464E-07 -2.15064840E-05
  1.78585107E-04  6.49317744E-07  1.86256278E-05 -4.31627880E-05  6.20170184E-05
  6.54491614E-06  2.11605752E-07 -4.18410755E-05 -1.12475770E-04  1.41210491E-07
  1.02694922E-05  2.91778419E-07 -6.26613535E-07 -2.10531168E-05 -1.79298815E-04
  5.03294799E-04 -7.94444664E-03 -5.98217411E-04 -1.12129213E-03  8.56654597E-06
 -1.01336298E-04  2.87997198E-03 -1.35674843E-03  9.39392201E-05  1.30146737E-04
 -1.00985231E-04  2.87923242E-03 -1.35559645E-03 -9.36308958E-05  1.29614557E-04
  5.03452302E-04 -7.94266941E-03 -5.96250098E-04  1.12205605E-03  1.03190867E-05
  2.99454598E-01  7.06689581E-01  3.13544289E-02 -6.15867157E-04 -6.10059800E-07
  1.91508893E-06  2.56317400E-03 -4.81621366E-05  4.17128499E-05 -8.18428079E-04
 -1.30074419E-06  2.17738084E-06 -3.16597937E-03  3.57400176E-06  2.55634677E-03
  6.35898189E-03 -1.88787574E-03  1.00111560E-05 -3.02916713E-04  3.47928580E-06
  9.97821827E-03  2.27686934E-03 -5.00979059E-05  1.56192197E-04 -9.59918660E-06
 -3.83431930E-06  2.00678272E-03  4.10568753E-03 -1.81338356E-04 -1.92017537E-04
 -2.10781739E-03  3.78375136E-04 -1.87793371E-04 -7.00416566E-06  8.76576363E-03
 -5.72622003E-03  1.64012188E-04 -1.74384908E-03  3.26510442E-05  3.92990823E-05
  7.74198799E-04  2.69939557E-03  2.89572094E-04  9.05745154E-04 -1.64614835E-03
  4.44331986E-04  4.96608412E-08 -2.50757897E-05  3.05693228E-03  4.27803562E-05
 -3.82844919E-04 -1.93024979E-04 -4.26876936E-05  7.80307359E-07  3.08189374E-03
 -1.88497608E-06 -1.81379638E-04 -1.92141254E-04 -2.10682358E-03  3.78768864E-04
  1.87567832E-04 -6.95491588E-06  8.68895515E-03  5.76259440E-03  1.63861885E-04
 -1.74263211E-03  3.10060559E-05 -3.74399484E-05  7.69781214E-04 -2.69831690E-03
  2.55932809E-03  6.36604054E-03 -1.88757726E-03  1.07518927E-05  3.03040988E-04
  3.60109731E-06  9.89817385E-03 -2.32032178E-03 -5.31803034E-05  1.55863791E-04
 -1.28939875E-05  5.02888145E-06  2.00574596E-03 -4.10408303E-03 -2.26224993E-05
 -8.96007919E-05  2.02120778E-04  1.82483305E-04 -2.32261858E-07  6.29292792E-07
 -5.23077388E-04  7.28932713E-06 -1.31367697E-05  5.08082866E-04 -1.82948789E-06
 -1.75718991E-06 -1.91283905E-03  1.31978407E-06  2.05438090E-06 -3.89914417E-05
  2.68490968E-04 -2.34442928E-05  2.77032386E-08 -3.17440349E-05  6.31108618E-03
 -6.16306962E-06  7.59122282E-04 -2.42178698E-04  1.94606502E-04  8.85377162E-07
 -7.83403410E-04  2.82722277E-07  2.58729195E-04 -5.82184346E-03  8.84619232E-04
 -1.19891058E-03  1.77974711E-04  2.59044492E-04 -5.81944951E-03  8.86311863E-04
  1.19657141E-03  1.79041235E-04  1.58632668E-06  8.59753332E-05 -6.39794216E-04
 -1.17441313E-04 -1.20262055E-04 -8.50663252E-08  1.57327197E-04  8.58993305E-04
  1.11418982E-06 -5.50791495E-04  3.59634500E-07  7.47805348E-07  7.20302839E-05
  5.88366773E-05  1.58737941E-06  8.60467728E-05 -6.40395846E-04 -1.17654679E-04
  1.20176240E-04 -3.46891339E-07  1.55659483E-04 -8.60698352E-04  3.62579787E-06
 -5.50827320E-04  9.55329510E-07 -1.50147864E-06  7.12467270E-05 -5.94689249E-05
 -6.15264038E-05  7.26059354E-04  1.10303374E-03  1.94298825E-04  9.40295106E-06
  5.41152376E-04 -6.51384193E-03  1.57715260E-04 -1.41065486E-03 -1.02496603E-05
  5.40987761E-04 -6.51131841E-03  1.64661576E-04  1.40655884E-03 -9.65315247E-06
 -6.11598489E-05  7.28093643E-04  1.10941170E-03 -1.91723989E-04  7.20371932E-06
 -1.29975750E-03 -2.88887646E-03 -1.16545317E-03 -9.07357023E-05 -3.93798937E-04
 -8.52269148E-07  3.17763286E-03 -5.58090304E-03  2.88056933E-05  6.32752158E-04
  1.80670337E-06 -8.75031020E-06  1.68180028E-03 -4.79498251E-03 -1.26085841E-01
 -2.97450810E-01 -1.44637018E-02 -2.16751493E-04 -8.09244921E-04  4.61553441E-06
 -6.11222153E-03 -5.60971956E-03 -1.51958571E-05 -1.39951254E-03  8.58947770E-06
 -2.19393977E-06  5.08471373E-04  1.88730654E-04 -3.78471985E-03 -8.83233323E-03
 -1.44225395E-03 -4.39932950E-05 -2.33716993E-04 -7.01171810E-06 -8.19414704E-03
 -7.50280010E-03  5.98747495E-05 -8.52093865E-05  3.31940318E-05  2.34620651E-05
  1.06653372E-03 -1.42603522E-03  3.15890633E-05  1.69124428E-04 -8.03826759E-04
  1.53252300E-04 -2.26630484E-04 -4.09397153E-06  7.34939574E-03 -1.29447405E-02
 -1.81913731E-04 -1.04593676E-03 -1.21640164E-05 -4.48870879E-05 -9.14312921E-04
  1.10446765E-03  7.02174803E-03  1.68188298E-02 -7.84192403E-04  3.53786316E-04
 -6.94967288E-05  2.54171298E-06  8.88953793E-03 -1.59140918E-02  1.20589998E-04
  5.31546750E-04 -9.01189352E-06 -1.23723346E-05 -3.65370722E-03  1.72317611E-04
  2.71492062E-01  6.40809209E-01  2.81567974E-02  3.62130187E-04 -1.23179487E-03
 -3.44660431E-06  5.91149939E-03  1.47451632E-03 -7.08439898E-05 -2.64179369E-04
 -1.56564922E-05  7.60655408E-06  1.23583092E-03  2.93307958E-03 -7.59317297E-07
  2.10180813E-05 -1.85950338E-04 -4.93138221E-05 -1.70029184E-04  6.31276759E-07
  2.61206614E-04 -1.26127592E-03 -8.54236302E-06 -3.95607107E-04  4.17612629E-07
  3.67376875E-06  1.47555884E-04 -7.08221018E-04  3.46870115E-07 -8.61423125E-06
  8.87842105E-05 -7.41868310E-05 -6.24081624E-05 -1.00653802E-05  3.48467335E-03
  2.71749921E-03  4.01419011E-04 -1.76187181E-04  1.31719709E-04  1.53904685E-04
 -1.90199483E-04  3.82132290E-04  1.85642380E-04 -9.68831129E-04  4.84063942E-04
  1.46407846E-04  2.71920094E-05  2.95818577E-05 -5.31440391E-03  2.58245057E-04
  1.82767641E-03  1.71929306E-04 -1.26844835E-07 -6.40004509E-06  7.36151335E-05
  6.06569133E-05 -8.31543363E-06  1.39233603E-07 -5.76292929E-04  1.41031652E-05
  2.90345681E-06  2.64625837E-04  1.05702420E-07  2.05834688E-06 -2.27026731E-04
  6.96998383E-05  6.24221442E-07  4.10206715E-05 -3.25064655E-04 -6.56397060E-05
  8.99227413E-05 -1.55660607E-07  7.28881884E-04 -3.71846872E-04  1.28263096E-07
 -2.56965380E-04  1.60796238E-07 -4.32727654E-07  2.88206783E-04 -1.43378932E-04
  2.04656660E-04 -7.13883232E-03 -1.21546035E-03 -1.44366812E-03  1.58610128E-05
  4.54639605E-04 -5.80861763E-03  1.22271424E-03 -1.32162415E-03  1.06558000E-05
 -3.53479691E-04  5.12535749E-03 -1.07373867E-03 -1.24550621E-03 -4.26986078E-05
  2.60478833E-04  4.14071159E-03  4.47654092E-04 -1.79997188E-03 -2.25406161E-06
 -3.54739957E-03 -7.88371284E-03 -3.18542899E-03 -2.48458646E-04  1.44330670E-04
 -1.59944353E-06  8.69102205E-03  2.00445785E-03  8.03823796E-05  1.73048529E-03
  6.91133852E-06  1.06937559E-06  4.60446712E-03  1.75205264E-03  2.71479137E-01
  6.40959541E-01  2.65177024E-02  3.05803323E-04  9.51341493E-04  1.74895823E-06
  1.95551877E-03 -8.95270192E-03 -1.21277406E-04 -2.06696660E-03 -1.49705983E-05
 -1.51987672E-05  2.51298009E-03 -4.32409591E-03  6.43223250E-03  1.56818904E-02
 -2.92172329E-03  4.96292279E-04 -1.68884302E-04 -3.92793898E-06  4.10845006E-03
  1.57979492E-02  2.64026447E-04  7.22825545E-04  2.25667205E-05  4.66217154E-05
 -4.40052207E-03 -1.95166919E-03  8.60516816E-05  4.61742730E-04 -2.19768903E-03
  4.18945524E-04  8.25202781E-05 -1.12169927E-05  2.01156512E-02  4.76608348E-03
 -4.94843120E-04 -2.85894404E-03 -3.12677061E-05  1.57442459E-05 -2.50429280E-03
 -4.02595465E-04  2.45896391E-03  6.25077782E-03 -3.16367280E-03  3.51035240E-04
  2.79808709E-04 -7.81493281E-06 -2.20768041E-03 -7.19569908E-03  2.37130977E-04
  4.96773739E-04  4.18816638E-05 -5.18203401E-05 -2.67428333E-03  2.41409918E-03
  1.26059671E-01  2.97778282E-01  1.09261316E-02  9.34122538E-05 -2.04660006E-04
  4.20819634E-06 -2.49799072E-03  1.04302731E-02 -9.32083118E-05 -2.48216457E-03
 -4.44611736E-06  1.50743955E-05  2.25021074E-03  3.18197529E-03 -2.07817751E-06
  5.75049045E-05 -5.08793376E-04 -1.35953203E-04  6.17718617E-05  1.34590383E-06
  7.15293240E-04  4.65028182E-04 -2.18468771E-05 -1.08200122E-03 -9.23715737E-07
 -1.13631783E-06  3.98697367E-04  2.59386146E-04  9.52603509E-07 -2.36245958E-05
  2.43228710E-04 -2.03058361E-04  2.29145417E-05 -2.75370643E-05  9.52707859E-03
 -1.00301540E-03  1.09278336E-03 -4.82550006E-04  3.59022863E-04 -5.48800794E-05
 -5.19551684E-04 -1.39898522E-04  2.65794890E-04 -9.38857667E-03  9.71408175E-04
 -2.66223047E-03  2.97103109E-04  3.23142109E-04 -7.79336023E-03  1.05599620E-03
  1.93675705E-03  2.45686796E-04  8.18584659E-07  5.59817051E-05 -4.16494218E-04
 -2.98961760E-05 -1.49176630E-04  9.83678961E-08  4.47336653E-04  5.93443162E-04
  2.57468924E-06 -8.53702379E-05 -3.20078649E-07  3.00788683E-06  1.76820442E-04
  3.03828703E-04  5.41870180E-07  3.86771591E-05 -2.71304461E-04  1.61635432E-05
  1.19239053E-04  8.74155007E-08 -2.95150803E-05 -4.61036436E-04  2.80653090E-06
  1.05726866E-04 -5.24198609E-08 -3.23793849E-06 -1.07950135E-05 -2.77729636E-04
  6.46773109E-04 -2.03987263E-03 -7.47419156E-04  1.08092784E-03  1.89895846E-05
 -8.95447269E-06  1.06661478E-03 -2.19184604E-04  3.64926164E-04 -5.20139295E-05
  2.86284101E-04 -2.93429720E-03  6.27576049E-04  5.70897253E-04 -3.32372864E-05
  6.26479794E-04 -6.16500765E-03 -1.34930885E-03  1.09306220E-04  2.44601797E-05
  4.84396684E-05  1.70300370E-04 -5.02894071E-04 -3.16380317E-05 -2.43494462E-04
  2.36203472E-08 -1.20735922E-03 -8.14601150E-03  2.24553951E-06 -3.11879466E-04
 -3.30449463E-06  5.60413647E-06 -8.05191265E-04 -7.98424258E-04  4.88666267E-03
  1.15361825E-02  1.86053414E-04  1.85523912E-04 -1.47472576E-04  2.18351248E-06
  5.17606189E-03 -8.46327995E-03 -1.57514164E-05 -2.54369792E-04 -1.19523296E-05
  6.20349584E-06  1.90099182E-03  1.02745448E-03 -1.71554399E-01 -4.04791223E-01
 -1.87833236E-02  3.15516088E-04 -9.29961600E-04 -4.86167564E-06  3.02054944E-03
 -5.08055092E-03  2.78116758E-05 -8.67490914E-04 -5.65100608E-06 -1.16776138E-05
 -1.96730893E-04 -9.45555249E-04 -2.71611431E-04 -5.50535007E-04 -5.75922146E-04
  8.08008162E-05 -4.16322883E-04 -3.43926239E-06 -6.49429296E-04 -1.01827500E-02
 -1.01182306E-04  1.75051031E-04 -1.57572762E-05 -8.54551978E-05  1.07789418E-03
  4.71848497E-03  2.45313765E-01  5.78973588E-01  2.56505821E-02 -3.69889144E-04
 -1.08649131E-03  8.20449741E-07 -2.24400489E-03 -2.28778429E-03  3.20649544E-05
  1.52577144E-04  3.47577126E-05 -3.68679105E-05  1.07462579E-03 -2.51765263E-03
 -6.56359725E-03 -1.53251614E-02 -1.63535863E-03 -3.07321865E-04 -5.60285408E-05
  7.70858601E-07 -5.22281618E-03 -1.06577930E-02  1.20778155E-05  2.93563830E-04
  1.65029936E-05  1.02198922E-05 -3.13870671E-03 -1.26512409E-04  1.98480151E-07
 -3.60418781E-06  3.00268477E-05  3.51685640E-05 -3.40201649E-05 -4.19425314E-08
 -1.74808191E-04  9.96519302E-04 -2.61341392E-06  6.54700491E-05 -8.32287100E-07
 -1.50044680E-06  1.33912858E-04  1.55822986E-04 -3.07237682E-08  4.90676431E-06
 -5.99884861E-05  4.52432337E-05 -2.24222136E-04 -1.05582219E-05  4.31086561E-04
  3.00468744E-05  1.21101609E-04 -2.65107390E-04  3.33463037E-06  9.91417677E-05
 -1.48600961E-04  1.42773246E-04 -1.76728188E-05 -3.37129209E-04  4.60800158E-04
 -3.70143702E-04  6.48613648E-05  4.65912009E-05 -1.19248035E-03 -1.99808300E-04
 -3.84980591E-04 -2.15255652E-05  5.50042227E-07  9.52963509E-06  2.03849013E-05
  1.52484455E-05 -5.13080358E-05  1.72965820E-07 -3.77992848E-05  3.01100278E-04
 -1.39674483E-06 -1.68064707E-05 -3.03849907E-07  3.65680215E-07  1.95842143E-05
  1.00451433E-04 -9.82920626E-08  4.36209030E-06 -4.81597852E-05  3.15045721E-06
 -6.78893132E-05 -1.75374958E-07  5.34876273E-05  4.05474902E-04  1.61965019E-06
  5.79196909E-05  7.76439809E-07  3.43570799E-07 -2.29422756E-05  6.03195273E-05
  4.38227907E-04 -5.87058071E-03 -9.35892365E-04 -1.34096050E-03  1.03958522E-05
  1.26078104E-04 -6.36344226E-03  1.14334616E-03 -1.48445274E-03 -1.62825683E-05
  1.45440891E-04  5.05684840E-03 -8.40660152E-04 -1.52246343E-03  2.43685065E-05
 -3.68390946E-04  4.14787873E-03  5.16675724E-04 -1.35721942E-03 -7.44488920E-06
  2.74227067E-04  9.63597259E-04 -2.84415397E-03 -1.78643384E-04  4.29979550E-05
  4.70446535E-07 -6.82206277E-03  1.40193880E-03  1.92808908E-05 -1.76425531E-03
 -1.39888641E-05  2.10475010E-06 -4.54770419E-03  1.43443762E-04 -5.81459643E-03
 -1.32315466E-02 -4.26638193E-03 -3.88957061E-04 -2.39915082E-04  8.57484659E-06
 -1.00273675E-03  7.89274885E-03  5.40099088E-06  1.60068944E-04  1.20168186E-05
 -7.23030536E-06 -3.94514251E-03  3.19057733E-03  2.45304188E-01  5.79225347E-01
  2.33417968E-02 -2.13047955E-04  6.21371434E-04 -1.16780898E-05  1.76684562E-03
 -7.24157587E-03  1.63629713E-04 -1.93138809E-03  8.91032940E-05  7.46550122E-05
  2.60197686E-03  4.75521999E-03 -1.53366242E-03 -3.10808505E-03 -3.25528676E-03
  4.57978347E-04  7.35400796E-05 -1.95413597E-05 -3.67357435E-03  1.84222917E-03
 -5.66017080E-04  9.93001378E-04 -9.34493875E-05  1.53667142E-05  6.08535858E-03
 -8.38202907E-04  1.71541810E-01  4.05153959E-01  1.54781456E-02 -9.18202822E-05
 -2.64785421E-04 -1.22524357E-05  2.63293770E-03  8.57505902E-03  1.61991809E-04
 -2.11241612E-03  8.07204892E-05 -6.48960652E-05  2.37077429E-03 -4.14195774E-03
 -3.77410183E-03 -8.44461956E-03 -3.94031485E-03 -3.01234925E-04  2.76018862E-04
  9.38903075E-06  7.71497898E-04 -4.54107750E-03  1.48949348E-06  6.38419143E-05
  7.80748145E-06  9.82356059E-06 -3.05608171E-03 -3.34470821E-03  1.11202601E-06
 -2.02131386E-05  1.68702989E-04  1.98738961E-04  6.03483237E-06 -1.03273048E-07
 -9.89351384E-04 -1.70765089E-04 -1.35576232E-05  3.69510180E-04 -2.37513133E-06
 -1.07810292E-06  7.57629965E-04 -2.55109000E-05 -1.73634620E-07  2.77333560E-05
 -3.39203672E-04  2.56499630E-04  3.95893626E-05 -5.91746516E-05  2.43170166E-03
 -1.13764943E-05  6.84316865E-04 -1.49813695E-03  1.62696604E-05 -1.63617821E-05
 -8.40301271E-04 -2.51734226E-05  8.73189719E-05 -4.39601238E-03  6.78888359E-04
  1.08415649E-04  1.15382620E-04  7.65059793E-05 -4.23981046E-03  7.96480424E-04
  2.27001002E-05  1.30946451E-04  1.21839911E-06  3.87000897E-05 -8.35523478E-05
  5.09902174E-05  5.73345292E-05  2.23367346E-08  5.28696115E-05 -3.57813763E-04
  8.19379244E-07  1.23159239E-04  7.72258965E-07  1.19762705E-06 -1.36543773E-05
  1.00483140E-04  1.33240478E-06  3.96580121E-05 -7.21279674E-05  5.31472996E-05
 -3.61785197E-05  1.99018659E-07  3.63784404E-05  2.33514694E-04  1.60048035E-06
  1.10485283E-04  1.12456439E-06 -1.61567305E-06 -6.41548120E-06 -1.29499421E-04
  1.26415981E-04 -3.97828648E-03 -1.05490875E-03  2.84725588E-04  1.32927913E-05
  7.69948425E-04 -2.68494153E-03  6.77949845E-04  3.71458102E-04  2.78547388E-05
  7.66177402E-04 -4.70546562E-03  1.03509324E-03  1.56354476E-04  2.12858664E-05
  2.69427188E-04 -5.75157538E-03 -1.30656481E-03  1.96151117E-04  1.60236053E-05
 -8.12992600E-03 -2.71799624E-02  7.28111664E-02 -6.42966513E-02 -1.08162595E-05
 -2.68839630E-05  3.06542403E-01 -1.57733426E-03  9.36343058E-04  1.19247295E-02
 -1.13912169E-05  7.23844150E-05  1.22276127E-01  3.85552044E-05 -7.96967271E-04
 -2.53890411E-03  1.68658765E-02 -1.65356139E-02  1.04432551E-02  4.62274899E-05
  2.73624552E-02 -1.03438017E-01 -1.27767222E-03  2.94919516E-04 -7.26580159E-05
 -2.32640262E-06  4.21164141E-02 -6.47660837E-02  4.15832177E-04  2.25316528E-03
 -1.58264119E-02  1.06886131E-03 -4.69918798E-04 -1.18763883E-04  9.78237196E-02
  7.44832173E-02  3.34841831E-03 -5.50614532E-03  6.39524179E-04  7.31359654E-04
 -8.76505912E-03 -2.21887967E-02  5.21666855E-04  2.33729089E-03 -1.13584046E-02
  1.73701333E-03  3.21742914E-07 -2.94644791E-04  1.81294609E-01  1.61264148E-03
 -7.59429250E-03 -1.73418748E-02 -8.50887388E-04 -9.45676080E-06  1.35694026E-03
 -2.27405188E-05  4.16046209E-04  2.25418240E-03 -1.58295019E-02  1.08168554E-03
  4.70260068E-04 -1.15326324E-04  9.49034811E-02 -7.29133312E-02  3.33019493E-03
 -5.49139577E-03  6.65988468E-04 -7.65376164E-04 -8.77391551E-03  2.22310668E-02
 -7.93899421E-04 -2.52817178E-03  1.67868482E-02 -1.65296422E-02 -1.04143915E-02
  1.91160957E-05  2.44026906E-02  1.02009744E-01 -1.32289606E-03  2.67297526E-04
 -6.70335103E-05  1.08693882E-05  4.22229391E-02  6.47824553E-02 -5.31091616E-02
 -1.85412383E-01  3.38748512E-01 -1.10639125E-01 -4.45968576E-05 -3.18254919E-05
  1.69216927E-01  1.32917429E-04 -2.80593581E-04 -1.02846260E-01 -3.61594875E-05
 -1.51992924E-04 -1.20048639E-01 -1.59587969E-04  1.18334529E-04  6.68778885E-05
  4.05786782E-03 -8.15773634E-04  1.83214305E-06 -4.94207220E-04  1.17543437E-01
 -2.34941745E-04  1.55722932E-02 -7.63250874E-03  3.98969556E-03  1.68754424E-05
 -8.56539542E-03 -3.18855503E-06  3.95530262E-03 -1.13746997E-01  1.59134543E-02
 -2.47736628E-02  3.10495888E-03  3.96524699E-03 -1.13574492E-01  1.59399528E-02
  2.46937544E-02  3.11109270E-03 -3.13583955E-02 -1.10180774E-01  4.52063102E-01
  5.53546803E-02  1.24095412E-01 -4.96546457E-05  4.83912247E-02  1.59020113E-01
 -2.85886265E-05 -2.80035830E-02 -1.89607856E-05 -4.86117673E-06 -4.83982120E-02
  4.17386709E-02 -3.13634572E-02 -1.10197763E-01  4.52125858E-01  5.55151493E-02
 -1.24041250E-01  8.44020418E-05  4.85634535E-02 -1.59128761E-01  1.52677820E-04
 -2.80056763E-02  3.77151724E-05 -8.31255997E-05 -4.83224599E-02 -4.19168555E-02
  1.33737231E-02  2.81964241E-02  2.52589174E-02  8.44540024E-03  3.03767085E-04
  5.15716946E-03 -7.48471423E-02 -5.79024387E-03 -1.96191648E-02 -2.95061930E-04
  5.15668438E-03 -7.48112969E-02 -5.54432523E-03  1.94844378E-02 -2.77867517E-04
  1.33597454E-02  2.81057205E-02  2.53926398E-02 -8.27614711E-03  2.74755259E-04
 -1.00197830E-05 -3.58931657E-05  1.58392060E-04 -2.67198900E-05 -5.26392435E-02
  2.76969324E-05 -1.16632026E-04  8.80301088E-01  1.75234119E-04 -3.42876451E-05
  5.31761419E-05  1.03230611E-04  1.81616259E-05 -1.04154670E-02 -1.64564391E-03
 -4.94421330E-03 -1.24107786E-03 -1.13612340E-02  6.53283024E-03  1.31109599E-05
 -6.54368132E-01  6.04519125E-01 -4.16472633E-04  1.62764766E-02  9.15119125E-06
  2.01054226E-04  3.49659343E-02  4.56389273E-04 -2.78933713E-04 -1.22901118E-03
  7.01890334E-03  2.07458146E-05 -8.37690918E-04 -2.73580300E-05 -5.96699442E-01
 -4.51749614E-01  7.94209897E-04 -4.01354046E-03  3.53585604E-04  3.29110466E-04
  1.14726974E-02  1.02944454E-02  2.43862181E-07  1.65761979E-06 -1.18956011E-05
 -1.22487650E-08  5.65316276E-04 -2.23523591E-06 -5.38762713E-05 -7.03147744E-01
  4.18282868E-05  5.60285514E-07 -9.28302739E-06  1.14965849E-04  1.37537078E-05
  1.73165132E-02  2.78370487E-04  1.22846023E-03 -7.04468727E-03 -2.13220327E-05
 -8.36881780E-04  2.73275681E-05  5.96658910E-01 -4.51905882E-01 -1.16253979E-03
  3.97219121E-03 -3.13653238E-04  3.16119522E-04 -1.14813877E-02  1.02964429E-02
  1.63719255E-03  4.91622379E-03  1.32877021E-03  1.13055508E-02  6.49907546E-03
  1.57670605E-06  6.55002476E-01  6.03956581E-01  7.17020334E-04 -1.62614421E-02
  1.00928524E-06  2.79259452E-04 -3.49631177E-02  4.98301746E-04 -3.11319528E-06
 -1.26367990E-05  4.71033961E-05  2.63475142E-04 -3.71804614E-01  2.02026380E-04
 -9.94783929E-05 -1.02851875E-01  1.45632415E-05  3.67929606E-06 -7.02678861E-05
  7.91493107E-05 -1.92306707E-04  1.59487134E-01  2.21127224E-07  4.83913969E-07
  2.42479062E-06 -1.11581126E-06 -1.16237534E-03  1.11710134E-06  1.02441764E-04
  8.58311783E-02  1.20789526E-05 -8.16321268E-06  8.60484949E-06  1.63946852E-03
  5.67820634E-08  5.55101962E-03  2.33397989E-03  4.16563059E-02  1.26662786E-03
  1.36065715E-02 -3.89806927E-03 -2.32426147E-03 -4.18391662E-02 -1.22746393E-03
  1.36314007E-02  3.92932883E-03 -4.22833759E-02 -1.48471763E-01  6.10153292E-01
  7.72373699E-02  1.01450739E-01 -3.08602353E-05  1.35641759E-01  1.11230639E-01
  9.12906338E-06 -5.17752159E-02  1.62535665E-05 -5.99020747E-05 -1.24814039E-02
  2.48446836E-02  4.22832065E-02  1.48471397E-01 -6.10165040E-01 -7.73550308E-02
  1.01358037E-01 -7.46744321E-05 -1.35697744E-01  1.11272197E-01 -1.62393819E-04
  5.17562611E-02 -7.09355570E-05  1.24124751E-05  1.24057656E-02  2.49069289E-02
  8.63125254E-04  1.95999695E-01  1.56383261E-01 -2.03250095E-02  2.08126160E-05
  1.83484425E-03 -3.40903320E-02  4.74240485E-02  2.58027647E-02  4.82527104E-04
 -1.82210264E-03  3.39737331E-02 -4.74128582E-02  2.58594353E-02 -4.34485164E-04
 -8.13771694E-04 -1.95894180E-01 -1.56145470E-01 -2.02715865E-02 -5.74150343E-05
 -3.78369528E-03 -1.17950682E-02  2.18717141E-02  1.51925422E-02 -2.55517718E-06
  6.20845731E-05  5.68052908E-03 -8.10248986E-04  3.46900266E-04 -4.59843615E-03
  1.12431034E-04  4.54655068E-06 -2.32132515E-02  2.84622989E-05 -4.38230746E-03
 -1.42894789E-02  3.23682138E-02  1.77615155E-02  1.23569051E-02  8.82572445E-05
 -2.43063220E-02 -2.93799493E-02  3.45144162E-04 -3.27206024E-02  9.36260870E-05
 -4.01998300E-04  1.86071147E-02  1.61953349E-02 -1.20114311E-02 -4.03108832E-02
  1.09632907E-01  3.78401270E-02  3.83394035E-02 -1.01608290E-04 -6.78350382E-02
  5.21885524E-02  1.43649700E-03 -9.16131804E-03  1.27633469E-03  1.90124819E-03
 -1.16155312E-02  6.65234144E-02 -3.63567642E-02 -1.23815879E-01  3.37342898E-01
  1.29098243E-01 -4.80988581E-05 -3.54362990E-04  1.72540381E-01  6.78212389E-04
 -2.02021875E-03 -1.13474575E-01  1.85920108E-03  8.61769538E-06  1.04852436E-01
 -7.42157550E-05 -1.20090301E-02 -4.03026965E-02  1.09612277E-01  3.78144558E-02
 -3.83612546E-02 -1.03169547E-04 -6.91609473E-02 -5.15469438E-02  1.40992078E-03
 -9.16412111E-03  1.25830885E-03 -1.89816157E-03 -1.17187641E-02 -6.64781567E-02
 -4.38170999E-03 -1.42882949E-02  3.23972067E-02  1.77555305E-02 -1.23595305E-02
  8.12895208E-05 -2.55882230E-02  2.87641454E-02  4.34216024E-04 -3.26965352E-02
  6.63755072E-05  4.67134086E-04  1.85973387E-02 -1.61446201E-02 -7.47738209E-04
 -2.72947074E-03  6.14957690E-03  1.36985697E-02  9.15074793E-06  8.43767982E-06
  6.94515127E-03  1.25145255E-04 -1.81516639E-05 -2.26958928E-03  3.74286279E-05
 -1.70577254E-05  2.00373541E-02  2.56739509E-05 -5.48939764E-02 -1.95781604E-01
  4.00560816E-01 -6.19484708E-02 -9.01320693E-07  2.50353938E-02  1.17568745E-02
 -5.81211304E-05 -4.65862126E-04 -5.45334857E-02  8.08588620E-03  2.80616963E-05
  5.02909563E-02 -3.71800106E-05  1.20975891E-01 -2.13247985E-02 -4.57863911E-02
  3.41274475E-02 -4.18837991E-03  1.20971757E-01 -2.12985728E-02 -4.57681569E-02
 -3.41385143E-02 -4.23811176E-03  8.12910696E-04  2.97007175E-03 -1.24176083E-02
  3.01175989E-03 -9.49002378E-04  7.74905926E-07 -2.15968820E-03  2.97650217E-03
 -8.30005158E-06  1.57511498E-03 -1.21312973E-05  1.51088150E-05 -1.75741143E-03
  5.03015116E-03  8.11190474E-04  2.96456551E-03 -1.24075005E-02  3.00902897E-03
  9.49405904E-04  7.50987206E-07 -2.13802857E-03 -2.95431758E-03  6.22267908E-06
  1.58036599E-03 -6.17296051E-06 -1.88468453E-05 -1.74699829E-03 -5.04547993E-03
  1.11931077E-02 -1.10091690E-01 -9.18185359E-03 -5.40705735E-03  7.36135154E-05
  2.88066774E-02  4.08667653E-02  1.88489537E-02  1.70710199E-02  1.40037463E-03
  2.87758332E-02  4.09104535E-02  1.90279296E-02 -1.71912168E-02  1.39620569E-03
  1.12067958E-02 -1.10100797E-01 -9.03291307E-03  5.48617061E-03  5.86791226E-05
 -4.14416846E-02 -1.40789500E-01  3.89568588E-01  9.55580675E-03 -5.01140266E-05
  1.19599497E-04 -3.49678905E-02 -1.25394874E-03  1.56997545E-03 -9.41425020E-02
  1.14366871E-04  2.74589045E-05 -4.69941382E-02  1.04628100E-04 -2.73296594E-02
 -9.25845835E-02  2.46933125E-01 -2.69958431E-03  7.39465273E-02  5.67769389E-05
  1.09282013E-01 -6.54159170E-03 -2.62096373E-03 -6.88526936E-02 -4.34058106E-04
 -2.26793882E-04 -1.75303222E-02 -3.87408387E-02 -1.59734633E-02 -5.34130123E-02
  1.33889394E-01 -5.90723660E-02  3.22434859E-02 -2.08204005E-04 -5.71458825E-03
  8.93779981E-02  6.14368881E-03 -4.76975348E-02  5.85834559E-04  8.94800553E-04
  3.22796027E-02 -1.20740759E-03 -5.42021996E-03 -1.71471827E-02  3.55304457E-02
 -1.08076803E-01  2.19625648E-05 -3.78542001E-04  2.25806137E-01  1.05445304E-03
 -1.29776343E-02 -3.02659792E-02 -1.82396789E-03  1.12047027E-05 -4.22210519E-02
  3.66554036E-05 -1.59675036E-02 -5.33929055E-02  1.33844352E-01 -5.90468286E-02
 -3.22189064E-02 -2.01332060E-04 -7.58812256E-03 -8.83640950E-02  6.08492881E-03
 -4.77030712E-02  5.75997277E-04 -8.98407013E-04  3.21808972E-02  1.24994876E-03
 -2.73200422E-02 -9.25518056E-02  2.46868295E-01 -2.72506475E-03 -7.39146216E-02
  2.96487424E-05  1.07426901E-01  5.42427010E-03 -2.56081598E-03 -6.87934351E-02
 -4.11278797E-04  3.40452177E-04 -1.74480143E-02  3.88355281E-02 -8.98724737E-03
 -3.22296478E-02  7.22736459E-02  2.17905497E-01  1.64579903E-04  5.89124962E-05
  3.98372636E-02  2.58319662E-04 -4.07537818E-04  2.50771334E-03 -5.75218578E-05
  1.01852471E-05  1.01884915E-01  6.89116270E-05  1.64935210E-02  5.82654084E-02
 -1.14257089E-01 -9.87189284E-03  7.24208652E-06 -1.03150621E-02  1.64279664E-01
 -2.06316645E-04  2.96329404E-02 -7.62349652E-03  4.27366519E-03  2.48250960E-05
  5.27736150E-04 -5.04264539E-06 -3.23728388E-02 -2.05531752E-01  3.98056146E-02
 -5.50687970E-02  5.73856875E-03 -3.23655244E-02 -2.05379330E-01  3.98602247E-02
  5.49500864E-02  5.77934876E-03  1.08387525E-02  3.82750193E-02 -1.62446961E-01
  3.12047461E-02 -3.19599302E-02  2.01667312E-05  8.01262875E-03 -1.50821161E-02
  3.61514154E-05  4.15831342E-03 -1.83663283E-06  4.79055234E-05  5.38870877E-03
  1.52351214E-02  1.08194512E-02  3.82080805E-02 -1.62191269E-01  3.11643959E-02
  3.19528931E-02 -8.80774118E-06  8.09617197E-03  1.51459079E-02  3.25711793E-05
  4.14256491E-03  7.32181494E-06 -4.93457207E-05  5.42807185E-03 -1.52292046E-02
  4.48013620E-02 -5.63265442E-02 -4.31166225E-02  4.68479480E-02  4.69315900E-04
  2.60835281E-02 -4.82636407E-02 -1.68440953E-02  7.09538936E-03 -9.31823968E-04
  2.60808972E-02 -4.83185320E-02 -1.66458714E-02 -7.17111489E-03 -9.27727279E-04
  4.48083644E-02 -5.62586791E-02 -4.28344554E-02 -4.67220665E-02  3.98851366E-04
 -2.46283120E-02 -8.64460401E-02  2.90209725E-01 -1.76338366E-01 -1.00914580E-04
  7.32862812E-05 -1.33150761E-01  7.82032082E-04 -9.62751314E-04 -5.25912633E-02
 -5.52472706E-05 -2.35340186E-05  6.85221568E-02  5.61201104E-06  6.60950740E-03
  2.16695308E-02 -4.82911367E-02 -1.14307829E-01  1.43018409E-02  8.40090202E-06
 -5.48465304E-03  3.63127515E-02  2.08354071E-03  2.40447986E-02  5.18165844E-04
  2.54975966E-05 -5.37798018E-02 -4.75425770E-02  2.53667436E-02  8.63352368E-02
 -2.37840381E-01  1.38360042E-02 -5.41675935E-02  3.31789963E-04  4.43726641E-02
 -3.13738895E-02 -4.21269303E-03  5.36475741E-02 -2.38865639E-07 -1.70694755E-04
  1.82533788E-02 -2.91523818E-02  2.15183683E-02  7.27751534E-02 -1.97678076E-01
  1.41261233E-01 -7.12526947E-05  1.25393489E-03 -4.68676336E-02 -7.21625352E-04
  8.68028275E-03  5.05967102E-02  2.08041033E-03 -2.17608560E-05  7.58859207E-02
 -1.22248577E-05  2.53851400E-02  8.63989572E-02 -2.38044560E-01  1.39229890E-02
  5.41594474E-02  3.16574376E-04  4.58180237E-02  3.08512771E-02 -4.21371934E-03
  5.36900504E-02  2.28869813E-05  1.50671773E-04  1.82618551E-02  2.91174479E-02
  6.63995918E-03  2.17760230E-02 -4.86594436E-02 -1.14294262E-01 -1.42504078E-02
  2.39241743E-05 -4.28756959E-03 -3.56587233E-02  2.06248135E-03  2.40803261E-02
  5.94613384E-04 -5.55336637E-05 -5.37071176E-02  4.75133045E-02 -1.61865944E-02
 -5.77864756E-02  1.30559946E-01  2.92866741E-01  1.79387251E-04  2.36215774E-06
 -1.23834093E-02 -8.35469913E-05  3.29755808E-04  1.74508994E-02  4.01092880E-05
  7.62242458E-05  6.48641437E-02  1.27359176E-05 -2.03262476E-02 -7.23253008E-02
  1.48519321E-01  6.60375497E-02 -3.77621174E-05  1.62256822E-02 -5.58162477E-02
  1.06652821E-04 -1.98811027E-02  2.86965493E-04  3.80756107E-04 -8.21328292E-06
 -2.02214186E-02  2.61730979E-05  5.65658586E-02  1.39427508E-01 -2.91070830E-02
  4.10758529E-02 -3.95913557E-03  5.65530596E-02  1.39294368E-01 -2.91476817E-02
 -4.09817266E-02 -3.98706725E-03  1.32889564E-02  4.69414853E-02 -2.07149694E-01
  5.13041648E-02 -3.39997581E-02  1.62179286E-05  2.89035851E-02 -3.21301460E-02
 -1.98659173E-05 -2.61550833E-03 -2.52422151E-06 -2.42690920E-05  1.64791471E-02
  1.04500180E-02  1.32752574E-02  4.68926850E-02 -2.06933940E-01  5.12576963E-02
  3.40372541E-02 -1.85082830E-05  2.89254076E-02  3.21940171E-02 -7.46627285E-05
 -2.64247318E-03  2.01803220E-06  3.13646924E-05  1.65051350E-02 -1.03801904E-02
 -1.02095700E-02  1.00141906E-01 -3.17631144E-02  9.21794848E-03 -3.81836187E-04
 -4.43907707E-02  2.86410429E-02  2.67532830E-03 -3.47333189E-02  9.82310156E-04
 -4.44156238E-02  2.84877717E-02  2.56724669E-03  3.48460826E-02  9.85260109E-04
 -1.02858179E-02  1.00091489E-01 -3.17736226E-02 -9.21314478E-03 -4.02678462E-04
 -1.43807275E-05 -4.98105139E-05  1.51699630E-04 -5.36231367E-05  1.46636913E-01
  3.74688896E-05 -2.20841489E-05 -1.53412800E-01 -1.35809092E-06 -3.76242150E-05
  3.34007761E-05  3.97091705E-07  6.41083693E-05  1.00383373E-01  3.42888457E-02
  1.18673484E-01 -3.59919106E-01 -6.88631216E-02  1.35167866E-02 -1.51664218E-05
 -1.87994846E-02 -1.06015512E-01 -5.14522485E-05  5.25014598E-02 -6.01192484E-05
 -6.28821744E-05 -6.45066236E-02  1.53443378E-02  3.41192619E-02  1.17965936E-01
 -3.54249401E-01  6.64705546E-02  1.28165076E-02  3.67597747E-05 -3.81219035E-02
 -1.68146746E-01  4.98431843E-04  5.05734546E-02 -2.10038118E-05  2.53807736E-05
 -6.68412259E-02 -1.20749162E-02  7.80208728E-06  2.68515741E-05 -8.23643286E-05
  8.20292923E-05  1.53950240E-01  1.88425991E-05 -3.61052307E-05 -2.30324908E-01
 -2.85425343E-05  7.25330443E-06  6.94917256E-06  4.57809307E-04 -4.49841586E-05
 -9.73174314E-02 -3.41020200E-02 -1.17907006E-01  3.54107065E-01 -6.64782589E-02
  1.28815811E-02  1.06680641E-05  3.81030801E-02 -1.68184843E-01 -4.93217976E-04
 -5.05314872E-02 -5.80910749E-06  1.24698278E-05  6.68166585E-02 -1.20849527E-02
 -3.42924612E-02 -1.18687105E-01  3.60009337E-01  6.87632117E-02  1.35048706E-02
  1.10849071E-05  1.86691314E-02 -1.06040544E-01 -9.11014575E-05 -5.25067635E-02
  4.02017872E-05 -5.30931389E-05  6.44643475E-02  1.53717481E-02 -9.66395620E-06
 -3.40770057E-05  7.19811438E-05  1.05040838E-04 -6.84078330E-03  3.92284822E-05
 -3.03602611E-05  5.37873742E-02  1.14649591E-05  4.62414543E-06 -8.07759527E-06
 -4.75887964E-05 -6.00532755E-07  4.44686387E-02 -8.41031498E-06 -2.99455426E-05
  6.18036394E-05  4.77941100E-05  4.69997978E-02  1.99698571E-05 -4.00217600E-06
  6.48095401E-02 -1.12437558E-06 -4.54660796E-08 -3.12828471E-06  3.41442320E-03
 -1.97856869E-05 -2.55984566E-02 -1.49706570E-02 -8.55436570E-03  1.81288567E-04
  1.04623354E-03  2.53828763E-03  1.50252004E-02  8.63021016E-03 -1.90333716E-04
  9.96863355E-04 -2.54000307E-03 -2.89374985E-03 -1.02197367E-02  4.48989009E-02
 -5.61109444E-03  6.30018811E-03  6.63292751E-06  1.29653611E-02  6.69329463E-03
 -2.23907986E-05 -2.81732473E-03 -1.90501266E-06  4.65600574E-07  2.43072651E-03
  2.09281765E-03  2.90532697E-03  1.02607752E-02 -4.50819665E-02  5.63017387E-03
  6.28929503E-03  9.31532248E-06 -1.29267970E-02  6.70335516E-03  2.22932850E-05
  2.81147845E-03 -4.21333476E-06  4.03992709E-06 -2.40717876E-03  2.07746599E-03
 -6.60680620E-02 -1.32105422E-01 -4.42879010E-02 -5.20627766E-02  7.65803480E-05
 -6.60976647E-02 -1.49742059E-01  5.50015946E-02 -5.01811475E-02 -1.51232780E-04
  6.60841880E-02  1.49746341E-01 -5.49791330E-02 -5.01626646E-02  1.40687463E-04
  6.61125466E-02  1.32138951E-01  4.42180993E-02 -5.21117809E-02 -1.29482905E-04
  6.86594108E-03  2.32033802E-02 -5.15369759E-02 -2.38711200E-01 -5.70251948E-05
 -2.30989111E-04 -4.83274692E-02  5.61875368E-04 -2.77376295E-04  4.27267037E-03
 -1.06789071E-04 -6.01770971E-05  1.41096579E-01  2.32519432E-05  2.34271026E-02
  8.11242512E-02 -2.53434324E-01  1.07898965E-03 -3.15822376E-02 -3.42307853E-04
 -2.15607304E-01 -4.40265179E-02 -7.23674892E-04  2.59767274E-02 -5.32989984E-04
  7.84658281E-05  3.89758622E-02 -4.07489301E-03 -7.37441336E-03 -2.57860715E-02
  8.05849584E-02  1.41184521E-01  7.69915404E-02 -1.04521154E-03 -1.27322776E-01
 -3.81863347E-02 -2.03782775E-03 -1.48446154E-02 -1.77582182E-03 -2.38572348E-03
 -6.10540863E-02  2.64292051E-02 -3.37060631E-02 -1.16873664E-01  3.79418979E-01
 -3.27279553E-02  4.57602034E-05 -5.26694152E-03 -2.37057511E-01 -5.82687622E-04
  4.18397981E-03 -1.97237338E-02 -4.23535531E-03  1.16130650E-05 -9.27403373E-02
  4.53629109E-05 -7.38797041E-03 -2.58327100E-02  8.07180998E-02  1.41118038E-01
 -7.70632436E-02 -1.07736345E-03 -1.26127820E-01  3.75279676E-02 -2.03527979E-03
 -1.48688060E-02 -1.76616571E-03  2.41266127E-03 -6.10831387E-02 -2.63915258E-02
  2.34317534E-02  8.11412109E-02 -2.53521783E-01  1.21146968E-03  3.15998945E-02
 -3.24138819E-04 -2.14563904E-01  4.48253597E-02 -6.07537552E-04  2.59822047E-02
 -5.03892042E-04 -1.06131925E-04  3.90524052E-02  4.03940309E-03 -1.85893809E-02
 -6.64785409E-02  1.54848294E-01  2.14245521E-01  9.37376412E-05 -8.37397018E-05
 -5.37868779E-02 -2.89757704E-05 -6.10050115E-05  3.29500125E-02 -5.23790458E-05
  5.58224458E-05  3.30219607E-02  4.05917676E-05  1.82815037E-02  6.60376268E-02
 -1.49111703E-01 -2.12458724E-01  1.01559361E-04 -2.54234013E-02 -2.09243879E-01
  1.33959732E-04 -1.36505960E-02  8.90690550E-03 -1.25535148E-02 -3.26077651E-05
  5.25967632E-02 -2.91678477E-05 -9.95205380E-02  6.80659310E-02 -1.17369313E-02
 -2.69569695E-03  1.24292901E-03 -9.94980213E-02  6.80726239E-02 -1.17506291E-02
  2.71272084E-03  1.24235116E-03  1.17586752E-02  4.18112887E-02 -1.90922663E-01
  6.30999312E-02  3.66876039E-03 -3.77587888E-05  2.72224086E-02 -1.30401488E-02
 -2.88739283E-05 -6.40051813E-03 -1.46373564E-05 -9.75047915E-06  1.15432539E-02
  1.59564151E-02  1.17577233E-02  4.18077430E-02 -1.90908539E-01  6.31114007E-02
 -3.57007318E-03 -3.96463395E-05  2.72311497E-02  1.31569209E-02 -5.63234899E-05
 -6.40773736E-03 -3.51379910E-06  9.91214931E-07  1.15826646E-02 -1.58974264E-02
 -4.77464181E-02 -8.88882770E-02 -2.49550820E-02 -5.13005804E-02 -2.15558630E-04
  1.51560670E-02  2.73430916E-02  2.69031100E-02  4.15489401E-02 -1.66196115E-03
  1.51448499E-02  2.73128380E-02  2.67850518E-02 -4.15122079E-02 -1.67609653E-03
 -4.77592017E-02 -8.89773929E-02 -2.49238503E-02  5.12868327E-02 -1.88512283E-04
  8.21375083E-06  2.88015038E-05 -9.62099359E-05  1.47817735E-05 -2.32869590E-01
 -9.30589500E-05  4.23530424E-05 -2.67046240E-02 -1.50201973E-05  2.23576558E-05
 -8.74076002E-06 -2.42869887E-04 -6.08965428E-05 -4.86234334E-02 -2.51181773E-02
 -8.78627287E-02  3.03572707E-01 -1.10675181E-01  4.10666553E-03  7.91561029E-05
  2.92551912E-02  3.44761929E-02 -4.91085150E-04 -9.32308081E-03  2.50396564E-06
 -2.57060323E-05 -2.65028622E-02 -6.63963804E-04  2.16296232E-02  7.56237583E-02
 -2.61753734E-01 -1.52123375E-01 -1.89073985E-02  2.39641285E-05  3.74863311E-02
 -4.04803152E-02 -4.10578212E-04  3.67648468E-03 -7.52285284E-05 -6.58830504E-04
  2.77053873E-02 -3.86525262E-04  1.80729268E-06  6.54469934E-06 -3.26360263E-05
  7.06179680E-05  2.79859973E-01  3.00128288E-05  2.52334930E-05  2.78055472E-02
 -4.66146748E-06 -1.52999626E-05  6.57829133E-06 -2.49474680E-03  1.74834484E-05
 -2.40814357E-02 -2.16352519E-02 -7.56431926E-02  2.61819275E-01  1.52006578E-01
 -1.89608951E-02 -3.34345533E-05 -3.74128385E-02 -4.04848607E-02  4.11563016E-04
 -3.68173228E-03  1.04211698E-04 -6.56418188E-04 -2.76805779E-02 -4.04373268E-04
  2.51117376E-02  8.78408111E-02 -3.03521347E-01  1.10735171E-01  4.09128765E-03
 -1.33259484E-04 -2.91628502E-02  3.44708032E-02  5.51447274E-04  9.32553103E-03
 -8.09690926E-07 -5.48320093E-05  2.65077832E-02 -7.20667916E-04  1.16468122E-05
  4.17320496E-05 -9.88640770E-05 -4.34752932E-07 -1.27168715E-02 -1.41594017E-04
  5.90179632E-06 -2.21150292E-02 -1.92085178E-05 -1.59779878E-05  2.99953197E-06
  2.40337018E-05  4.99467711E-06 -4.75159724E-02 -3.49493504E-06 -1.26108787E-05
  2.82615036E-05  8.88415904E-05  2.01219806E-01  8.13101223E-05  7.02838582E-05
  6.92748864E-02  2.07335095E-05  6.17516965E-06  1.25220994E-05  1.01383213E-02
 -1.49672421E-05 -1.52950335E-02 -7.73086650E-02 -4.34381715E-02  1.14168213E-02
 -8.46369812E-03  8.63530745E-03  7.73396954E-02  4.33755597E-02 -1.14111550E-02
 -8.44942456E-03 -8.65794894E-03  5.28276099E-03  1.87788099E-02 -8.41264560E-02
  2.64241622E-02 -2.86728365E-03 -4.88592080E-05 -3.00474187E-03 -1.22314516E-02
 -2.82629187E-05  3.52301423E-03 -1.47360081E-05 -1.12125516E-06  4.27737182E-03
 -1.21599903E-03 -5.29836283E-03 -1.88341395E-02  8.43740847E-02 -2.64218872E-02
 -2.74557274E-03 -7.61191221E-05  3.02050994E-03 -1.22060082E-02 -2.54850988E-05
 -3.51728375E-03  1.70434362E-06  1.13775732E-05 -4.26890518E-03 -1.21405791E-03
  8.17809293E-02  8.83829346E-02  1.82492769E-03  4.87194652E-02  4.80801893E-05
 -7.68900385E-02 -9.94331575E-02  4.31496242E-03 -4.76976064E-02 -8.82030793E-04
  7.68587688E-02  9.94145844E-02 -4.33466046E-03 -4.76990387E-02  8.60295230E-04
 -8.17580595E-02 -8.83687737E-02 -1.77246753E-03  4.87339805E-02  1.90516465E-06
 -2.27472689E-02 -7.91036846E-02  2.63701753E-01  2.03016072E-01  1.28315329E-04
 -2.52475005E-04  1.35636749E-02 -6.42905812E-04  6.97085326E-04  6.53522952E-03
 -2.27284552E-04  6.57302655E-05 -9.45249680E-02 -4.04329656E-06  2.03898012E-03
  7.46181769E-03 -3.30700299E-02 -1.37905358E-01  1.93541458E-01 -7.12828377E-04
  1.16393233E-01  7.98702378E-02 -1.65074573E-03  6.73552592E-03 -6.03337101E-04
  5.02381971E-06 -7.51372084E-02  4.15580497E-03  2.06049280E-02  7.19222006E-02
 -2.42780534E-01  5.46097577E-02  1.44394054E-01 -2.32227930E-03  1.57613541E-01
 -9.56491661E-02 -1.24883514E-04 -4.33924923E-05 -8.61994066E-04 -2.07854221E-03
  1.42145737E-02  3.37905276E-02 -1.80454681E-02 -6.27596298E-02  2.24574364E-01
  1.04204170E-01  4.52866360E-05 -9.58593091E-03 -1.23874007E-01  7.09622822E-04
 -3.18214165E-03  1.29201913E-02 -6.59811543E-03 -9.99926456E-06  9.61060749E-02
 -3.98154509E-05  2.06106933E-02  7.19424850E-02 -2.42855609E-01  5.46385198E-02
 -1.44524541E-01 -2.39003463E-03  1.56390856E-01  9.63186850E-02 -1.26762812E-04
 -3.25698507E-05 -8.50437353E-04  2.06107839E-03  1.42224128E-02 -3.37998493E-02
  2.02861648E-03  7.42568238E-03 -3.29535118E-02 -1.38109913E-01 -1.93638755E-01
 -7.95980782E-04  1.15220042E-01 -8.06568429E-02 -1.74415866E-03  6.72392312E-03
 -5.69878635E-04  3.94107463E-05 -7.51379187E-02 -4.08827959E-03  1.70510724E-02
  6.12274194E-02 -1.50315347E-01 -8.64699590E-02 -4.59289700E-05 -2.36443425E-04
  5.99567232E-02  4.22847425E-05 -4.62324522E-04 -5.01111434E-02 -1.40370740E-04
 -5.09159120E-05 -2.25492869E-02 -1.76315310E-05  3.27691435E-03  1.21677074E-02
 -3.29607117E-02 -2.21715114E-01  2.11296470E-04 -2.10670749E-02 -7.40788317E-02
 -3.48670994E-07 -2.83163296E-03 -4.34623941E-03 -7.74422167E-03 -1.43599238E-06
  1.89223130E-02 -1.29155043E-06 -6.84648729E-02 -3.72595735E-02 -1.33035247E-03
 -1.39316218E-02  4.68184462E-03 -6.83434092E-02 -3.71871575E-02 -1.33207348E-03
  1.39142745E-02  4.68693775E-03 -1.25691152E-02 -4.47841758E-02  2.06941811E-01
 -7.12492491E-02 -5.98257320E-02 -1.07451180E-04 -2.24052516E-02 -9.27335819E-03
 -3.79321348E-05  9.13918653E-03 -8.35957500E-06  7.23504063E-06 -3.82569467E-03
 -1.35574490E-02 -1.25683868E-02 -4.47814843E-02  2.06931665E-01 -7.13146818E-02
  5.97669867E-02 -1.74342154E-04 -2.24468570E-02  9.19013471E-03 -5.07097759E-05
  9.14469186E-03 -2.07051716E-05  9.40543404E-06 -3.87209444E-03  1.35257751E-02
 -4.26201961E-02  4.98580992E-03 -1.78849940E-02  1.94028790E-02 -1.89635096E-05
 -9.26599851E-02 -1.48093818E-01  2.48340251E-02 -3.71030871E-02 -1.73768267E-03
 -9.27201885E-02 -1.48125946E-01  2.49372975E-02  3.70638447E-02 -1.71812434E-03
 -4.26669033E-02  5.06786866E-03 -1.78466243E-02 -1.93611810E-02 -2.42152652E-06
  4.07504583E-03  1.47548746E-02 -4.75338443E-02 -7.97424922E-02 -1.81384964E-04
 -9.71043794E-04  6.42082307E-02 -1.34148132E-03  9.82880127E-04  7.73250913E-03
 -1.51417699E-04  7.00487395E-05 -6.71130908E-02  2.17928229E-05 -1.01020136E-02
 -3.49052867E-02  1.14607743E-01 -6.96130875E-02 -1.64305386E-01 -8.19914610E-04
  8.12944923E-02  4.07720857E-02 -2.41490051E-03 -7.54778989E-03 -8.59075789E-04
 -6.16815610E-05  5.12999125E-03  5.71051936E-03  2.40061349E-04  1.12892030E-03
 -8.45095724E-03  1.87827462E-02 -1.54753912E-01 -3.06756079E-03  1.32174303E-01
 -6.71865603E-02  1.02785885E-03 -1.80264837E-02 -7.07194036E-04 -2.29212478E-03
  4.70278025E-02  3.44083921E-02 -8.00929647E-04 -2.25075236E-03  6.34971060E-03
  2.57176977E-01 -2.43496637E-04 -1.33728133E-02 -2.26528851E-02  1.31735197E-03
 -7.32382407E-03 -1.19199583E-02 -8.40331981E-03  1.25925754E-05  6.25141271E-02
 -1.36671475E-04  2.18716701E-04  1.05430261E-03 -8.19952938E-03  1.85373852E-02
  1.54939509E-01 -3.01288524E-03  1.29950034E-01  6.83827395E-02  1.06633004E-03
 -1.80306937E-02 -7.29798855E-04  2.29151003E-03  4.69916286E-02 -3.44252666E-02
 -1.00983031E-02 -3.48916192E-02  1.14536093E-01 -6.91227479E-02  1.64458087E-01
 -7.00770287E-04  7.89132296E-02 -4.21620957E-02 -2.51166104E-03 -7.55496412E-03
 -9.07028341E-04  1.03465502E-04  5.14996225E-03 -5.66605689E-03  1.45844485E-02
  5.22500526E-02 -1.30783539E-01  1.28202986E-01  5.08435403E-05 -1.77528073E-03
  4.87533365E-03  8.96830021E-05 -8.69610591E-04 -4.55772480E-02 -1.77525884E-04
 -7.74300302E-05 -6.52176489E-02 -1.20193032E-04  1.99339072E-03  7.30891265E-03
 -1.77553524E-02 -2.62247978E-01 -2.90686712E-04 -2.55149438E-02  1.93339653E-02
 -2.98412240E-04  4.06301861E-03  1.54205344E-03 -5.36363861E-03 -1.74353501E-05
  4.26978697E-03 -3.12741355E-05 -7.28569441E-02 -1.07105619E-01  4.18848739E-03
 -3.32629747E-02  7.17965197E-03 -7.31654017E-02 -1.07001079E-01  4.24494888E-03
  3.31957069E-02  7.21780164E-03 -1.75003132E-02 -6.23193583E-02  2.84955610E-01
 -2.10250487E-02 -1.84902868E-01 -8.83352932E-04  9.64500109E-03 -5.27169880E-02
 -3.51054798E-04  5.92266253E-03 -7.23041338E-05 -9.58320701E-05  1.13281422E-02
 -8.81273057E-03 -1.75188058E-02 -6.23849432E-02  2.85251037E-01 -2.13799997E-02
  1.84882078E-01 -1.05967907E-03  9.52414914E-03  5.25771727E-02 -3.86843445E-04
  5.92113435E-03 -6.71849576E-05  1.34158138E-04  1.12712781E-02  8.78891445E-03
  1.11679065E-01  7.94523540E-02  3.58286929E-02  1.20686206E-02 -2.81479580E-05
  6.49458458E-02 -3.89161721E-02 -1.57708024E-02 -1.95288742E-02 -2.18771685E-03
  6.50215368E-02 -3.88076901E-02 -1.56251335E-02  1.94117270E-02 -2.18548456E-03
  1.11598766E-01  7.95759963E-02  3.60023934E-02 -1.19823511E-02 -5.62927783E-05
  4.85333016E-06  1.96087419E-05  5.37642757E-05 -6.19957820E-04  1.96988377E-03
  1.49553763E-01  7.88868910E-04  2.69272051E-03  1.55005698E-02  2.51703444E-04
 -4.96171744E-02 -3.59185123E-05 -5.57267503E-05 -2.33305567E-04  5.14759823E-05
  1.84471008E-04 -7.28849389E-04  1.19850137E-03 -9.72769170E-04  4.40487269E-02
 -1.65168613E-03  1.47545652E-03  1.48855269E-02 -1.14642181E-05  1.07502836E-03
  1.74560284E-02  4.69739356E-04 -6.44916927E-05 -1.18936118E-04 -4.12904028E-04
  1.28195620E-03 -3.71071574E-04 -7.40525781E-04  1.27228241E-02 -8.58567204E-04
 -8.60026299E-04  5.18818208E-03 -2.07157561E-04 -3.76687270E-03  6.31498268E-04
 -6.12207575E-05  8.21383664E-05 -6.44258401E-05 -2.19766127E-04  6.86840786E-04
  1.18089979E-04  1.02502413E-03  8.81293535E-03  6.47038061E-04 -1.52425169E-03
 -3.19911583E-03  4.69855776E-05 -3.79374179E-03 -4.98842553E-05 -2.16398424E-04
  8.96885786E-04  1.13666568E-04  3.99322619E-04 -1.35933099E-03  1.52493120E-03
 -6.82896017E-04  1.27158146E-02  1.51265714E-03 -8.86614987E-04  5.17238120E-03
 -3.62059147E-05 -3.76863578E-03 -6.46662974E-04 -2.37283280E-04 -1.20889175E-04
 -2.12235361E-05 -7.59733037E-05  3.74060730E-04 -2.32807337E-03 -1.91784937E-04
  4.40187535E-02  2.31764486E-03  1.18095349E-03  1.49776771E-02 -7.09950396E-05
  1.06375688E-03 -1.74642618E-02 -1.09873237E-04  6.09111650E-05  1.23145418E-04
  4.42560179E-04 -1.14692776E-03  1.42671235E-03  1.02189361E-03  5.46375128E-01
  1.40508652E-04 -4.27070706E-04  5.70671331E-02 -5.01338762E-04 -2.29649260E-03
 -2.77226925E-06 -6.70910794E-04  3.71556367E-04  6.49982486E-05  2.32936437E-04
 -5.15952590E-04 -4.68540493E-04  3.57316883E-03  3.31285776E-03  4.17912560E-04
  1.41977919E-03  5.46743816E-03  1.15730145E-06 -2.36659624E-03  1.78187105E-04
 -5.34153582E-05  3.42194867E-04 -1.62104117E-03 -7.71475512E-04  2.40118212E-04
 -1.81004887E-04  7.84982129E-04  1.44311937E-03 -5.98920086E-04  1.57635755E-05
  1.68517825E-04  6.51897562E-04 -2.52895730E-04 -9.00524937E-04  4.09781571E-03
 -9.23798017E-04 -2.13211175E-03  2.96424710E-01 -9.09789281E-05 -5.06550324E-04
  1.33019089E-01 -7.94527342E-07  2.63349345E-02  4.28963606E-02  1.28307192E-05
 -1.37497688E-04 -8.98194391E-05 -3.20074421E-04  1.48267230E-03  3.91833660E-04
  1.70002810E-03  2.96491386E-01  2.02388320E-04  5.78032329E-04  1.33049942E-01
  1.53947294E-04  2.63854397E-02 -4.28745828E-02  2.05888989E-04  3.74032955E-05
  8.03880933E-05  5.46057716E-04  8.36683672E-04 -2.80811268E-04  8.24440516E-03
  5.29105443E-04 -2.37022105E-05 -4.85139695E-05  1.37934644E-04  2.16214254E-03
 -1.99426882E-04 -6.36861125E-04  2.69025908E-04  1.53457388E-04  2.18402672E-03
  6.51120975E-04  2.24337971E-04 -2.68432133E-04 -1.90468520E-04  8.22270550E-03
  9.50088833E-06  3.26385878E-05 -1.36125112E-04  1.05658914E-05  2.26158786E-01
 -1.28422950E-03 -3.47625449E-04  2.83633981E-01 -9.97720860E-05 -9.32345630E-05
  4.68883627E-04 -9.49647428E-06 -1.34730241E-04 -2.07194469E-02  5.22566421E-03
  1.86509637E-02 -7.58917559E-02  1.95324480E-01 -6.36934478E-02 -2.62873996E-04
 -2.06488879E-01  1.47122101E-01 -4.24554805E-04  3.66940590E-03  3.20041790E-05
  1.57714511E-04  3.25382713E-02  4.76994122E-04 -1.34636735E-02 -4.70454574E-02
  1.54101614E-01 -9.50960117E-02 -7.95957435E-02 -2.88593497E-04 -1.18526004E-01
 -9.39610262E-02 -1.12749649E-03 -9.41649855E-03  6.20914860E-04 -1.14315137E-03
  8.19621016E-03 -1.43809697E-03  4.85522377E-06  1.73828147E-05 -5.12401586E-05
  6.96563413E-04  1.03842296E-01 -4.92441467E-05 -3.16777890E-04 -1.55349643E-01
  1.22774696E-05 -1.12254535E-05  3.85579246E-05 -5.99711366E-03  2.49947173E-04
  1.01057963E-01  1.34709270E-02  4.70704976E-02 -1.54188692E-01  9.49122529E-02
 -7.89450464E-02  3.39520769E-05  1.18895119E-01 -9.35826711E-02  9.55263420E-04
  9.36315052E-03 -5.44125161E-04 -1.14463777E-03 -7.88397770E-03 -1.60488221E-03
 -5.28430545E-03 -1.88552329E-02  7.65863151E-02 -1.95439368E-01 -6.30169169E-02
 -4.96744268E-04  2.06801701E-01  1.46690823E-01  2.38485404E-04 -3.65551365E-03
 -4.16039925E-05  5.14081360E-04 -3.26434144E-02  3.62840943E-04 -2.14668259E-05
 -7.77458740E-05  2.09256306E-04 -2.92996415E-04  9.14827909E-02 -4.90745562E-03
 -6.27914169E-05 -5.16499174E-02 -4.75623195E-04  8.89558283E-05  1.68739062E-05
 -9.41520377E-07  6.78337480E-05  4.69087271E-02 -3.87768454E-07 -7.08041197E-07
 -6.92043980E-06 -5.22809938E-04  3.99099128E-01  1.36200789E-04 -4.53102418E-05
  1.56396258E-01  2.75405391E-05  3.43703585E-05  2.69427141E-05  1.97654899E-02
  5.34319857E-05  3.96671405E-02 -1.71819463E-01 -9.73659576E-03  1.24594685E-02
 -5.54312927E-04  7.40427251E-03  1.71476287E-01  9.53929813E-03 -1.25010064E-02
 -4.30575486E-04 -7.38496775E-03 -1.00171091E-02 -3.56593700E-02  1.60812657E-01
 -8.23028607E-02 -4.88851619E-02 -2.65207097E-03 -1.80575332E-02 -6.00446965E-03
 -1.20930427E-03 -4.40740783E-03 -2.40634962E-04 -3.95757436E-04 -8.25120885E-03
 -8.41156104E-03  1.00739577E-02  3.58619611E-02 -1.61741800E-01  8.24383298E-02
 -4.94275534E-02 -2.60470820E-03  1.80638205E-02 -6.09066864E-03 -1.17903349E-03
  4.38278140E-03 -2.28268190E-04  3.74235538E-04  8.22600557E-03 -8.40924254E-03
 -3.34214461E-02  1.92060676E-02  6.23017592E-02 -2.80148044E-02  2.77822394E-04
  4.46977257E-02  3.57828174E-02 -1.79155063E-02  1.72807364E-02 -1.12096171E-03
 -4.45320199E-02 -3.57366544E-02  1.77700732E-02  1.73618581E-02  1.09571103E-03
  3.37893660E-02 -1.89158888E-02 -6.22650331E-02 -2.80845964E-02 -4.54065430E-04
 -1.01004490E-04  6.07877465E-05  2.20951327E-02 -1.11832262E-01  4.82054191E-04
 -8.35065592E-05  2.21210961E-01 -4.19350247E-04 -2.88574176E-05  4.73986850E-02
  5.47587890E-04  1.43562678E-05  9.57931128E-02 -5.48561642E-05  1.13207125E-02
  3.95527465E-02 -1.32586282E-01  2.81285398E-02  3.75631580E-02  1.04089386E-03
 -5.32118176E-02 -8.19103480E-02  9.42484541E-04 -4.76158231E-03  7.89850535E-04
 -3.28483309E-05  6.06474432E-02 -4.66309058E-02 -6.72167782E-03 -2.31017268E-02
  7.16801172E-02  3.99575190E-02  8.60781323E-02  3.86641369E-03 -6.42056581E-02
  1.08392665E-01  2.73398881E-03  4.94505074E-03  1.39348300E-03  3.18516024E-03
 -6.71797227E-02 -4.15498470E-02 -1.25238659E-04 -4.87004729E-04 -4.56867799E-03
 -2.65080569E-01  2.06298720E-04  1.56005276E-02  1.87141659E-01  5.78916085E-04
 -4.82947766E-04 -8.94156010E-03  7.80929218E-03 -1.98820902E-05 -1.01947975E-01
  1.96115846E-04 -6.67612418E-03 -2.29424945E-02  7.11583227E-02  4.00767184E-02
 -8.64243310E-02  3.83703805E-03 -6.54477205E-02 -1.07820729E-01  2.72850897E-03
  4.98240580E-03  1.42285403E-03 -3.21257114E-03 -6.71262791E-02  4.16051773E-02
  1.12876940E-02  3.94363324E-02 -1.32189839E-01  2.75330372E-02 -3.79169590E-02
  9.66572802E-04 -5.41713177E-02  8.15123232E-02  9.54358340E-04 -4.79604123E-03
  7.69714974E-04 -6.01585113E-06  6.05831420E-02  4.66163436E-02  1.38878933E-02
  5.00715290E-02 -1.34706336E-01  2.62926232E-01  3.38970172E-04 -2.85099764E-03
  2.91302548E-02 -7.67533938E-05 -7.72574407E-06 -6.79226461E-02  1.73180894E-04
 -1.02501732E-04 -9.82848377E-02 -6.96929616E-06  7.91055913E-04  2.36777359E-03
  1.09277421E-03  2.68132069E-01  5.46277130E-04  2.63303012E-02  9.05862339E-02
  1.22632134E-04  1.23975328E-02 -7.54272468E-03  8.30313053E-03  4.41285092E-05
 -1.10478212E-02  6.68285113E-05  7.30287907E-02  4.27560229E-04  1.36955838E-02
  1.02126325E-02 -4.12877313E-03  7.35794652E-02  5.36160705E-04  1.36484587E-02
 -1.02305599E-02 -4.17248062E-03 -2.33270835E-02 -8.31379636E-02  3.81129578E-01
 -1.78682586E-02 -2.73579849E-01 -1.49822844E-03  1.30006644E-02 -7.44521331E-02
 -6.76892854E-04  7.25340166E-03 -1.36917390E-04 -2.24216541E-04  1.61060911E-02
 -5.96847469E-03 -2.32855068E-02 -8.29897267E-02  3.80460738E-01 -1.77849727E-02
  2.73425811E-01 -1.81039401E-03  1.29710951E-02  7.43362556E-02 -7.58092667E-04
  7.27807310E-03 -1.34958639E-04  2.72219249E-04  1.61100938E-02  5.91834893E-03
 -4.03756131E-02 -2.74540456E-02  3.46103912E-02 -2.63739458E-02  3.85849178E-04
 -3.09574268E-03 -1.34177975E-02  1.83412485E-02  1.40810721E-02  1.99530565E-03
 -3.32676630E-03 -1.35204550E-02  1.84859411E-02 -1.40996541E-02  2.00591031E-03
 -4.03389065E-02 -2.74442822E-02  3.44829488E-02  2.63193241E-02  4.06810830E-04
  9.68078047E-07  2.57471145E-06  1.04942208E-05  5.27267308E-05  5.39296893E-03
 -3.32137664E-05 -2.23912369E-04  7.97212428E-01  8.91554138E-05 -2.75522267E-05
  4.70960781E-05  1.29589109E-04  1.79754420E-05 -1.06700545E-01 -6.18908165E-03
 -2.13864699E-02  6.78464693E-02 -2.94113883E-02 -4.91037651E-02  5.06565378E-05
 -5.27985496E-01  4.42437876E-01 -2.83706961E-04  2.00256355E-02 -4.12340829E-05
  2.58827717E-05  1.90817081E-02  8.89825900E-03  6.96972214E-03  2.42780645E-02
 -8.01599929E-02 -3.92938991E-02  8.00087745E-04  1.91444666E-04 -4.81881445E-01
 -3.56811687E-01  1.32087724E-03 -2.54557600E-03 -1.02586719E-04  7.80139089E-04
  8.73118744E-03  7.98648309E-03 -3.62415816E-06 -1.23330047E-05  4.03969408E-05
  1.01695473E-05  4.69114772E-02 -5.90823770E-05 -9.24496358E-05 -5.75603430E-01
  4.31319886E-05  7.77819430E-06 -1.65462078E-05  3.04759194E-03  3.23373114E-06
 -3.70327769E-02 -6.96200919E-03 -2.42509132E-02  8.00608941E-02  3.92562754E-02
  6.86609562E-04 -2.47474699E-04  4.81783850E-01 -3.56929764E-01 -1.65353187E-03
  2.51859159E-03  1.47668360E-04  7.80566506E-04 -8.73327261E-03  7.96315259E-03
  6.18535196E-03  2.13730576E-02 -6.77609843E-02  2.93461341E-02 -4.91411247E-02
 -1.40456756E-04  5.28477596E-01  4.41974084E-01  5.36565762E-04 -1.99673497E-02
  4.64445267E-05  8.71903793E-05 -1.91263258E-02  8.87361451E-03 -2.24671421E-06
 -8.59210540E-06  3.32149921E-05 -2.16769062E-04  3.50337445E-01 -6.27269844E-05
  3.75433552E-06 -2.55847058E-01  8.96505197E-05  1.48650718E-05 -1.96737744E-05
  4.55380686E-05 -3.93180415E-05  1.83828412E-02 -9.19861708E-07 -3.32284219E-06
  6.90466304E-06 -7.32661776E-05 -1.73164246E-01 -1.36268307E-04  2.17012435E-05
  1.56101791E-02 -5.92412034E-05 -1.67335286E-05 -1.89348455E-06 -7.47869535E-03
 -1.52101431E-05 -2.54025195E-02  8.09911189E-02  3.62857201E-02 -4.45907880E-03
  9.01259476E-03 -6.49016996E-03 -8.10019966E-02 -3.63781646E-02  4.47789830E-03
  9.01310784E-03  6.50854917E-03 -2.42367745E-02 -8.63295554E-02  3.89357842E-01
 -2.35131306E-01 -2.72444498E-01  1.64359470E-04 -7.77588121E-02 -9.03408216E-02
  9.28747978E-05 -3.47145838E-03  3.44420903E-05 -1.66496426E-05 -4.40352945E-03
 -3.71833523E-02  2.42458949E-02  8.63626836E-02 -3.89529426E-01  2.35572040E-01
 -2.72258756E-01  2.91462095E-04  7.79559897E-02 -9.01242541E-02  5.89727806E-05
  3.45374859E-03  6.11902230E-06 -5.20695230E-05  4.48869732E-03 -3.71487667E-02
  4.73299759E-02  1.69928201E-01  1.12418532E-01 -1.00673780E-02 -1.56471020E-04
 -2.94522906E-02 -5.00608803E-02  3.87696447E-02  8.22759098E-03  8.45817577E-04
  2.93806578E-02  4.99979237E-02 -3.87452198E-02  8.26367357E-03 -8.20440548E-04
 -4.72763533E-02 -1.69848836E-01 -1.12254508E-01 -1.00005935E-02  1.28708009E-04
 -1.52246176E-05 -5.30243056E-05  1.86018366E-04  1.70835630E-05  2.73499065E-01
  8.00564904E-07  2.04352152E-04 -2.64969922E-01 -5.42414866E-05  1.81416586E-05
 -1.00901548E-05  8.46911744E-05  1.07838209E-04  4.35910903E-02 -2.07995796E-03
 -7.30717779E-03  2.48031474E-02  1.88978422E-01 -1.78299636E-01  1.51649378E-04
  1.43702820E-01 -8.74306220E-02  3.89116698E-04 -8.22176061E-03 -7.11493918E-05
 -2.29548347E-04 -1.06118739E-02  1.10168105E-02  5.29997683E-03  1.87654282E-02
 -6.62486455E-02 -2.22307785E-01 -1.39385486E-01  7.16162860E-04  1.09683998E-01
  7.80323294E-02  7.72828135E-04  5.56251070E-03 -7.41381629E-04  8.86101327E-04
 -3.93211984E-04 -1.90628768E-03  1.65857249E-05  5.80161843E-05 -2.11579182E-04
  2.52240398E-04  2.81753300E-01 -2.39669932E-04  2.05868480E-04  1.16338792E-01
  2.96461050E-05 -3.35170535E-05 -3.50181690E-05  5.19519358E-03 -9.35931874E-05
 -7.88233251E-02 -5.32922927E-03 -1.88673553E-02  6.65990130E-02  2.22301027E-01
 -1.38948425E-01 -1.02240786E-03 -1.09638502E-01  7.76886271E-02 -8.37236104E-04
 -5.52937633E-03  7.35435949E-04  9.57679257E-04  3.86362803E-04 -1.70853973E-03
  2.09596063E-03  7.36374851E-03 -2.50273531E-02 -1.88811093E-01 -1.78527814E-01
 -3.55667668E-04 -1.43948874E-01 -8.70378455E-02 -4.19586144E-04  8.18274142E-03
  7.10555314E-05 -2.41981949E-04  1.07530291E-02  1.12638858E-02 -1.31818657E-06
 -4.45150717E-06  2.03878707E-06  1.26971192E-04 -1.07792250E-01 -1.82848770E-05
  1.05950697E-05  1.14955527E-01 -1.09955449E-05 -3.00910652E-05 -4.01910123E-06
 -2.18354286E-05 -2.06937225E-05  4.38094741E-02 -2.83595949E-06 -1.01479558E-05
  2.35025643E-05 -1.42853317E-04 -2.64063680E-01 -3.89346447E-04  4.34568451E-05
 -1.08537110E-01 -1.94093173E-04 -1.67103782E-05 -8.89532461E-06 -1.66057457E-02
 -5.90790862E-05 -6.92656747E-02  1.34353879E-01 -2.17348447E-02 -5.82155608E-03
 -1.44507571E-02 -4.65795040E-03 -1.34403389E-01  2.16423609E-02  5.79630502E-03
 -1.44126748E-02  4.63781373E-03  4.73348202E-03  1.68878020E-02 -7.57450289E-02
  5.41454932E-02  1.16179969E-01 -9.49837281E-05  3.03406568E-02  4.78850474E-02
 -3.16620003E-05 -3.27707301E-03  5.87131380E-06 -2.23519760E-05 -4.89323729E-03
  1.11452846E-02 -4.74078905E-03 -1.69142103E-02  7.58779400E-02 -5.43952351E-02
  1.16182881E-01 -1.69479917E-04 -3.04487965E-02  4.78558474E-02 -1.09986244E-04
  3.28682859E-03 -3.91535632E-05  8.75856133E-06  4.84863347E-03  1.11473599E-02
  3.54003398E-02  2.86559030E-03  9.53357821E-03 -5.03778704E-03 -3.36091629E-04
 -9.13986540E-03 -3.39683935E-03 -3.35185222E-02 -2.51576410E-02  8.02713355E-04
  9.41844020E-03  3.66440525E-03  3.33951800E-02 -2.51727532E-02 -8.46130684E-04
 -3.56992536E-02 -3.03751244E-03 -9.54822436E-03 -5.01487313E-03  3.16857762E-04
 -2.03055025E-02 -7.09523085E-02  2.47494617E-01  1.07514316E-01 -2.92444615E-04
 -5.59973496E-04  1.17040176E-01  5.92711960E-04  7.66993811E-05  2.18968888E-02
 -1.57540858E-04 -3.44355731E-05  5.51742265E-02 -1.60370271E-04  1.05857303E-02
  3.71411874E-02 -1.35803442E-01  2.01955274E-02  2.15973170E-01 -9.28746080E-04
  1.43629339E-02 -1.58847602E-01 -1.55086315E-04 -1.47761002E-02  1.27139705E-04
  3.54875323E-05  8.01191263E-03 -1.28751789E-01 -1.03721970E-02 -3.63161784E-02
  1.30679358E-01  1.14994132E-01 -2.40037749E-01 -8.74852851E-04 -6.48915252E-04
  1.75055462E-01 -3.12236976E-05  8.60045977E-03  2.97025561E-04 -3.10108879E-04
 -1.96769147E-02 -1.21938591E-01  1.51543266E-02  5.30571307E-02 -1.88259621E-01
  1.28534965E-01 -3.94284213E-04 -2.90705745E-03  1.67074566E-01 -2.12767116E-04
 -2.31022182E-03 -2.00451288E-02 -1.08522876E-03 -1.53350895E-05 -8.41406895E-02
  1.84300985E-04 -1.03641241E-02 -3.62878672E-02  1.30589740E-01  1.15160688E-01
  2.40892477E-01 -8.94958183E-04 -2.05825030E-04 -1.75395374E-01 -1.11867480E-04
  8.58510819E-03  3.80369952E-04  2.94515672E-04 -1.97521167E-02  1.21989974E-01
  1.06018355E-02  3.71977143E-02 -1.35995885E-01  1.99970701E-02 -2.15321681E-01
 -1.17387851E-03  1.51941282E-02  1.59445650E-01 -7.52986129E-05 -1.47946863E-02
  1.92182792E-04 -8.32587903E-05  8.02022674E-03  1.28734209E-01  3.44503186E-03
  1.24738398E-02 -3.38714492E-02 -1.34018432E-02  1.20259255E-04  4.54368849E-04
  3.26219339E-02 -2.01240421E-04 -8.27628584E-05 -2.44832915E-02 -1.25838945E-04
 -8.36573804E-06  2.28520504E-02  2.02892453E-07  1.30172228E-03  4.68423978E-03
 -8.81925184E-03 -2.54591530E-02  2.00778898E-04 -4.33675403E-03  5.10864587E-02
  2.16757805E-05  1.62633093E-03  6.32291618E-03  4.15471861E-04  1.69753119E-05
 -1.77558542E-02  7.69450227E-05 -7.14979832E-03 -3.38816777E-02  3.26954570E-03
 -9.56668077E-03  2.35923101E-03 -6.94111124E-03 -3.38808557E-02  3.25697242E-03
  9.55733670E-03  2.36208266E-03 -2.75096589E-03 -9.92493266E-03  4.89786314E-02
 -7.16859759E-02  9.19367216E-04  3.95079818E-04 -2.71375219E-02  5.78374391E-04
  1.58265178E-04  5.41501816E-03  2.43234605E-05  4.61939211E-05 -4.36488471E-03
 -1.94797250E-03 -2.72781072E-03 -9.84217438E-03  4.86014973E-02 -7.13206154E-02
 -1.13823191E-03  3.20415101E-04 -2.69672575E-02 -6.35371529E-04  1.21115314E-04
  5.40865310E-03  1.18127181E-05 -4.27424713E-05 -4.34634962E-03  1.91634784E-03
 -1.35851385E-01 -9.05780380E-02 -3.96289668E-02  1.61720942E-03  4.75478122E-07
  1.72140396E-01  1.22290586E-01 -3.25642610E-02  4.69539504E-03 -2.60728944E-04
  1.72534186E-01  1.22528252E-01 -3.25986140E-02 -4.64929534E-03 -2.76013972E-04
 -1.35598916E-01 -9.05969332E-02 -3.97310861E-02 -1.59066104E-03  1.64558074E-05
  2.72662361E-05  9.51431193E-05 -3.16134766E-04 -2.54602467E-04 -7.94255967E-02
  3.05145998E-05  1.60285136E-05  1.73835847E-01  6.05254235E-05 -2.06282239E-05
  1.14950038E-05  1.61279218E-04  7.32402213E-05 -7.36447444E-02 -6.14264707E-03
 -2.14949402E-02  6.95091174E-02  2.14984336E-01  2.28276203E-01 -5.00927832E-04
 -8.83497957E-02  9.46761612E-02 -2.39704032E-04  3.93382559E-03 -8.07687866E-05
  7.85531660E-05  4.63374864E-02 -1.41555012E-02 -3.81657957E-03 -1.33831000E-02
  4.38734636E-02 -2.21161351E-01  2.23388935E-01 -2.82242197E-04 -4.55602078E-03
  2.85483778E-02  2.29813614E-04  6.36595569E-03 -2.75472045E-04  5.40599451E-05
  4.66372234E-02  1.20840288E-02 -1.42630796E-05 -5.00451898E-05  1.74055599E-04
  1.25941011E-05 -6.37894925E-02 -3.24290400E-05 -2.30801578E-04  6.83681173E-02
  3.54514126E-05 -5.27533518E-06 -1.59808882E-05  6.39276550E-04  2.54159334E-04
  5.36156325E-02  3.83554796E-03  1.34499090E-02 -4.41216361E-02  2.20427432E-01
  2.22728299E-01  3.45613583E-04  4.80271204E-03  2.89707195E-02 -2.57329262E-04
 -6.35638988E-03  2.72015198E-04  9.26316645E-05 -4.65281349E-02  1.18045882E-02
  6.12853318E-03  2.14458866E-02 -6.93349954E-02 -2.14347396E-01  2.28685723E-01
  8.17719709E-04  8.82386943E-02  9.42998886E-02  3.08775629E-04 -3.86435766E-03
  7.12390678E-05  1.24992325E-04 -4.62764047E-02 -1.43451824E-02 -5.43503132E-06
 -2.00455720E-05  4.86084379E-05  2.70062903E-04 -1.43173116E-03 -8.94297533E-05
 -1.77151884E-05 -4.90495829E-02 -2.19322274E-05 -1.13943329E-06  7.00954264E-06
  3.51155676E-05 -7.98232353E-05  2.53989559E-03 -9.41458085E-06 -3.40176909E-05
  7.57019009E-05 -1.73974101E-04 -6.88372232E-02 -8.72729229E-05 -7.79082438E-05
 -6.48083823E-02 -4.73506042E-05 -4.34691298E-06 -6.32049268E-06 -4.20437885E-03
  2.78332042E-05 -4.40293530E-03  2.86064888E-02 -9.45889524E-03  2.76970488E-03
 -7.35125828E-03 -4.48432030E-04 -2.86629786E-02  9.44329223E-03 -2.80283549E-03
 -7.33645745E-03  4.38385416E-04 -1.69431389E-03 -6.03113340E-03  2.68581099E-02
 -3.92273135E-02  2.36990638E-02 -1.53728492E-04 -1.79267213E-02  1.22048824E-02
 -4.36668491E-05 -1.04865119E-04 -3.93390035E-06 -1.42680036E-05 -7.07791886E-03
  5.20918975E-04  1.67505073E-03  5.96189662E-03 -2.65284562E-02  3.92612939E-02
  2.40520894E-02  1.64594636E-05  1.79326284E-02  1.23127858E-02 -6.21672928E-06
  1.05070382E-04  2.61710658E-06  2.97712232E-07  7.08167372E-03  5.05619624E-04
 -1.37635817E-01 -3.97622951E-02  3.39070966E-02 -1.75890741E-03 -4.81108378E-05
 -1.44647929E-01 -6.25957832E-02 -2.40803101E-02 -4.47671757E-03 -1.39596086E-04
  1.44094840E-01  6.21732109E-02  2.40684018E-02 -4.43615573E-03  1.35416430E-04
  1.37698916E-01  3.99162978E-02 -3.37193747E-02 -1.71390130E-03  5.66020671E-05
  8.46248884E-03  2.93981522E-02 -9.41317191E-02 -5.28946185E-02 -4.09085106E-05
 -3.96412482E-02  1.06014207E-01 -4.72294304E-04 -3.81766040E-03 -5.85421069E-03
 -6.15744980E-03 -3.51037760E-05  1.21849212E-01  6.42051415E-05 -8.20865665E-04
 -2.88985187E-03  1.23757552E-02  3.04780542E-01  6.65371718E-02 -4.64110509E-02
 -4.98340997E-02 -2.05523066E-02 -6.56654429E-03  1.45596399E-02 -4.47347919E-03
 -3.03042263E-03  5.06007688E-02 -2.19372599E-02 -1.48686260E-03 -5.20409663E-03
  2.01771381E-02 -2.87203480E-01 -1.14866673E-02 -6.64566906E-02  9.20259495E-02
  2.41684630E-03 -2.45826864E-02  1.60979863E-02 -1.25411053E-03 -1.35972573E-02
  6.08696822E-02 -1.66755220E-03  8.97087539E-03  3.12884180E-02 -1.09975547E-01
  2.01021450E-01 -1.40276870E-04 -1.21138052E-01 -5.30074391E-02  1.91958207E-04
  9.68054077E-03 -2.17074433E-02 -8.40331257E-03 -8.38077057E-06  1.41081302E-01
 -9.34537513E-05 -1.48603816E-03 -5.20140559E-03  2.01759916E-02 -2.87869649E-01
  1.12955447E-02 -6.64515550E-02  9.15015013E-02 -2.25894441E-03 -2.46120496E-02
  1.61140264E-02 -1.23760885E-03  1.35770082E-02  6.09885454E-02  1.61032988E-03
 -8.41501024E-04 -2.96305536E-03  1.26398602E-02  3.05324639E-01 -6.68600998E-02
 -4.66519654E-02 -5.04606589E-02  2.01764561E-02 -6.56034629E-03  1.45749574E-02
 -4.46927323E-03  2.96721906E-03  5.07272763E-02  2.19051396E-02 -5.33221971E-03
 -1.91409237E-02  4.29420593E-02  1.40178076E-01  8.19784272E-05  1.60048781E-02
  4.85784792E-03  5.66031514E-05 -3.95071952E-03 -1.38833504E-03 -6.23760325E-03
 -4.17518819E-05 -4.02866207E-02  3.76509311E-06 -8.56005528E-03 -3.07911058E-02
  6.85385856E-02 -1.81281187E-01  2.74695120E-04 -1.08471664E-01 -4.16567280E-03
  1.06925597E-04 -5.44013808E-02  5.37286817E-03  9.28458406E-03  9.11171460E-06
  4.65723584E-03  3.65592505E-05 -3.67540377E-02 -4.17105798E-02 -1.16908440E-02
 -1.46485671E-02 -1.94705230E-03 -3.65829019E-02 -4.17493980E-02 -1.16652793E-02
  1.46582781E-02 -1.94872561E-03 -3.19040136E-03 -1.14552740E-02  5.35720702E-02
  5.80781365E-02 -7.71104160E-02  1.76946372E-02  2.18631746E-02 -2.08966304E-02
  7.63434858E-03 -1.89703740E-03  1.23135514E-03  1.58993906E-03  2.96632477E-03
  7.96113511E-03 -3.18390610E-03 -1.14319799E-02  5.34581855E-02  5.81952493E-02
  7.73481356E-02  1.75076695E-02  2.19195731E-02  2.10072432E-02  7.58730047E-03
 -1.88713933E-03  1.24060429E-03 -1.57967653E-03  3.00909954E-03 -7.95113137E-03
 -1.07859153E-01 -4.38147004E-02  3.67132083E-02 -1.40401446E-02 -7.21576992E-03
 -6.86010625E-02 -3.04324036E-02 -5.56443737E-02 -2.22717872E-02 -8.44884273E-03
 -6.88709870E-02 -3.05089067E-02 -5.56545283E-02  2.22904988E-02 -8.44151964E-03
 -1.08042029E-01 -4.38892872E-02  3.68340139E-02  1.40660771E-02 -7.22930586E-03
  2.43043765E-03  8.43935396E-03 -2.74284803E-02 -1.28208676E-02  8.67585030E-05
  1.49582056E-01  3.10099102E-02 -4.10546836E-04  1.33059110E-02 -3.56969225E-03
  2.06812227E-02 -6.53476331E-06  3.39102511E-02  3.10009060E-05 -5.81620326E-04
 -1.99619187E-03  7.34812498E-03  9.47876984E-02  2.10349620E-02  1.66564395E-01
 -1.48878787E-02  9.63559381E-04  2.27785090E-02  6.25601550E-03  1.29396924E-02
  1.26099210E-02  1.27836938E-02 -5.50019749E-03 -7.86641969E-05 -2.30433315E-04
 -4.35579710E-04 -9.14230884E-02 -8.76406564E-03  2.18023500E-01  5.10700853E-02
 -2.95312371E-02  7.54747870E-02  5.75560367E-04 -4.41033234E-04  3.68681017E-02
  2.52395993E-02  4.32345535E-03  1.59164240E-03  5.65399346E-03 -2.10547487E-02
  9.24198182E-02  1.26890478E-04  3.49579571E-01 -8.84302345E-02  2.67061354E-04
 -3.17838212E-02 -5.77295632E-03  3.78349049E-03  3.88119975E-06  4.74613271E-02
 -1.25262738E-04 -8.87814084E-05 -2.66083198E-04 -3.15870913E-04 -9.13130871E-02
  8.42274481E-03  2.18002432E-01  5.06134233E-02  2.97423702E-02  7.54779914E-02
  5.79952387E-04 -4.59955958E-04 -3.68816117E-02  2.52686247E-02 -4.34375708E-03
 -5.83151788E-04 -2.00170190E-03  7.36396716E-03  9.48315017E-02 -2.14776617E-02
  1.66473302E-01 -1.54766284E-02 -1.34975010E-03  2.27617952E-02  6.22719665E-03
  1.29177265E-02 -1.26302356E-02  1.28290110E-02  5.50618081E-03 -1.63270184E-03
 -5.87302117E-03  1.34161349E-02  4.05920176E-02 -7.37954020E-06 -5.24883433E-02
  7.30861175E-04  5.14521745E-05  1.42923093E-02 -1.27683016E-04  2.30798460E-02
 -1.75033682E-05 -1.18488315E-02  1.04206848E-05  5.07939332E-04  1.85577034E-03
 -4.55861908E-03 -9.43040779E-02 -3.07703469E-04  2.82396377E-01 -3.58399785E-02
 -1.48239380E-04  1.57697051E-01  1.33237597E-02 -3.72529936E-02 -9.82198462E-06
  7.10534680E-04 -5.02098674E-05 -9.83295825E-03 -5.84871259E-03 -6.58842616E-04
 -3.52134684E-03  1.28025207E-02 -1.00306586E-02 -5.80185957E-03 -6.41393026E-04
  3.47507250E-03  1.28113116E-02 -9.02669054E-04 -3.24354735E-03  1.52438081E-02
  1.85288575E-02 -2.24070853E-02 -6.34705286E-02  7.06035413E-03 -6.16724800E-03
 -2.74808820E-02 -5.63004625E-04 -4.35423922E-03 -5.36290872E-03  7.39214222E-04
  2.57274018E-03 -9.02066658E-04 -3.24125430E-03  1.52280941E-02  1.85268802E-02
  2.23786356E-02 -6.36332167E-02  7.06411643E-03  6.15364514E-03 -2.75284401E-02
 -5.72502202E-04 -4.36160112E-03  5.36838812E-03  7.38628086E-04 -2.57743723E-03
 -3.30287802E-02 -1.44050983E-02  1.08892197E-02 -3.65533001E-03  2.51383914E-02
 -2.10129980E-02 -3.14809676E-02 -1.49130597E-02 -8.45923143E-03  2.47237891E-02
 -2.10855427E-02 -3.14985767E-02 -1.48623680E-02  8.41995821E-03  2.47341507E-02
 -3.31433393E-02 -1.44241874E-02  1.09497255E-02  3.65081928E-03  2.51306098E-02
 -1.11794188E-05 -3.89852568E-05  1.31813061E-04 -1.36292541E-04 -2.82243609E-01
  3.63897310E-04 -7.39293295E-05  1.26972166E-01  5.25040732E-05 -9.94733202E-06
  2.95244984E-05  1.41839343E-04  1.48862115E-05 -5.70393252E-02  4.32044887E-04
  1.78629532E-03 -8.68634154E-03 -2.38438665E-03  2.55159531E-01 -1.51281360E-04
 -3.72594502E-02 -9.66274802E-02  3.00134237E-04  1.48913037E-02  1.38499690E-04
  3.31025292E-05  2.57567994E-02 -1.00293225E-01  3.37440854E-04  9.53665460E-04
 -8.29696546E-04 -1.78961819E-02 -2.72117299E-01  8.67882669E-04 -4.28288967E-02
  9.84241886E-02  2.42166841E-04 -1.26889740E-02 -2.15664711E-04  3.41427007E-04
 -2.74773379E-02 -1.00333596E-01  5.37386670E-06  1.87749478E-05 -6.13710672E-05
  7.40230229E-05  3.15985606E-01 -2.82921405E-04  1.97045470E-04 -1.13961637E-01
  8.80022858E-05 -1.89389160E-06 -7.10559128E-05  2.21707378E-03 -6.22447341E-05
 -6.64914800E-02 -3.41858429E-04 -9.69156797E-04  8.95047673E-04  1.78724026E-02
 -2.72067422E-01 -7.46587682E-04  4.28269076E-02  9.81128386E-02 -2.94615887E-04
  1.27061100E-02  7.85987435E-05  4.30626553E-04  2.74451912E-02 -1.00278399E-01
 -4.28629459E-04 -1.77399655E-03  8.63724779E-03  2.50384487E-03  2.55150188E-01
  1.03992867E-03  3.73734096E-02 -9.65286939E-02 -1.53895482E-04 -1.48956068E-02
 -2.38567807E-04  2.61648982E-05 -2.58586067E-02 -1.00172380E-01  2.33555699E-06
  7.76560074E-06 -1.70919740E-05  1.04467712E-04  2.55733048E-02 -1.00096062E-04
 -5.76497004E-06 -7.92370951E-02  1.40398508E-05 -1.67561064E-05  5.83510046E-05
  1.05362711E-04  1.49936738E-04 -3.79407614E-02 -3.52581146E-06 -1.27033259E-05
  2.85812128E-05  4.13763792E-05 -5.67711664E-02 -6.14689456E-04  1.25556325E-04
  1.55980811E-02 -3.13796483E-04 -3.33441889E-05  1.37587377E-05 -4.45725913E-03
 -3.98958728E-05 -4.92186118E-02  4.62402292E-02 -2.75565280E-03 -6.71745667E-03
 -7.82943254E-03 -1.41670399E-03 -4.62629566E-02  2.63173549E-03  6.70852968E-03
 -7.79202922E-03  1.38889491E-03 -1.33735303E-03 -4.78571446E-03  2.11683578E-02
 -4.47203740E-02 -2.84523878E-02 -4.89100539E-04 -3.12531762E-02 -1.19303717E-02
 -1.70131066E-04  2.10545759E-03 -5.78475919E-06 -1.85367454E-05 -9.80548924E-04
 -2.73630272E-03  1.32791553E-03  4.75112621E-03 -2.09894285E-02  4.40057151E-02
 -2.84580755E-02  2.77221858E-04  3.10024657E-02 -1.18738916E-02  1.01412590E-04
 -2.08334245E-03  7.64358697E-06 -5.72566389E-06  9.86471867E-04 -2.73317089E-03
 -1.42037650E-01 -9.35082411E-02 -2.39249430E-02  1.43693742E-02 -1.15878900E-04
  1.47582777E-01  1.10550432E-01 -2.50700051E-02 -1.41628656E-02  4.38271718E-04
 -1.47536830E-01 -1.10420682E-01  2.50080198E-02 -1.41461515E-02 -4.03482337E-04
  1.42019201E-01  9.35313852E-02  2.38962799E-02  1.43408228E-02  1.67008175E-04
  1.81464905E-04  6.25376156E-04 -2.23376767E-03  2.87847538E-03 -3.30330246E-04
 -3.47008381E-01  2.56981213E-03  8.99508208E-05 -1.44205420E-03 -1.44104156E-03
 -2.51010673E-02 -2.72141400E-05 -8.11951227E-04 -7.24194854E-05 -2.33511155E-04
 -7.77181520E-04  2.59678463E-03  6.92633048E-03  2.10280862E-03 -2.48450740E-01
 -2.56458784E-03  6.00585117E-03 -7.53343837E-02  2.34621157E-03  1.30605598E-02
 -3.73529274E-02 -1.48136463E-03  8.21224260E-04  1.96283029E-04  7.46735377E-04
 -4.99995177E-03 -8.03794080E-03 -3.54400645E-03 -6.18677254E-02  2.47745093E-02
 -3.13077130E-02  4.24915401E-02 -4.43412184E-03  3.52051427E-02  3.04924886E-02
  7.03509190E-03  4.42719494E-03 -8.64492891E-04 -2.95361607E-03  1.03263633E-02
  2.62476174E-02  4.45406047E-04  1.95400673E-01 -8.01832937E-02 -6.01362851E-05
 -7.58654176E-02 -1.01518083E-03  5.13141178E-02  6.24451567E-06  4.06215598E-03
 -1.46979458E-04  1.86931388E-04  7.14452838E-04 -4.90067575E-03 -7.89817219E-03
  2.81784943E-03 -6.17784969E-02  2.49129343E-02  3.16737768E-02  4.24919067E-02
 -4.44674916E-03  3.51676193E-02 -3.05009015E-02  7.10008821E-03 -4.73965412E-03
 -2.23199099E-04 -7.41337310E-04  2.48149713E-03  6.82821524E-03 -1.21186547E-03
 -2.48358949E-01 -2.43965826E-03 -6.12435407E-03 -7.53279364E-02  2.36429708E-03
  1.31047226E-02  3.73232169E-02 -1.53166789E-03 -1.13807316E-03 -7.91688157E-05
 -2.89464975E-04  7.87988252E-04  5.97742502E-04 -8.64301199E-06  3.63197170E-02
 -3.32541908E-04 -1.92976414E-05 -4.01712684E-02  1.80510080E-04 -5.46586029E-02
  1.54383331E-04 -2.37189240E-03  6.91658536E-05  3.53639186E-03  1.27715886E-02
 -2.90731751E-02 -3.63947969E-02 -3.25693495E-04  3.91747547E-01 -3.51657553E-02
 -1.12348789E-04  2.06175802E-01  1.40705338E-02 -1.71836219E-02 -1.58375008E-05
 -1.50276017E-03 -8.70710708E-05  8.06384613E-03  7.12562524E-03  4.05863493E-03
  1.11607068E-04  1.06480802E-02  7.88188406E-03  7.16619696E-03  4.09001733E-03
 -1.79009909E-04  1.06485742E-02 -5.13109045E-05 -1.80865221E-04  8.15274764E-04
  6.03110821E-03 -1.70137187E-03  1.30942613E-01  2.27133856E-03 -1.51717518E-04
  5.99256406E-02 -1.03726929E-04  7.82345456E-03  6.51814611E-03 -3.40966602E-05
  3.63142846E-04 -4.41577348E-05 -1.55720412E-04  7.06734660E-04  6.70837767E-03
  2.43769205E-03  1.32366875E-01  2.53893751E-03  5.24910299E-04  6.04609558E-02
 -7.01681659E-05  7.84605879E-03 -6.56716251E-03  3.12099847E-05 -3.56393832E-04
 -2.35272001E-03 -2.71882413E-03  3.31575067E-04  3.26542948E-05 -2.37377924E-02
 -1.37234917E-03 -2.44295614E-02  1.53099209E-03 -1.66347675E-03 -1.63299242E-02
 -1.73541769E-03 -2.48076656E-02  1.60790898E-03  1.63014330E-03 -1.63088318E-02
 -1.97209307E-03 -2.53404670E-03  3.00076686E-04  5.60589718E-05 -2.37011954E-02
  8.15789407E-03  2.82074556E-02 -8.44574343E-02  2.43862153E-01 -2.10524888E-04
  3.52426636E-03  1.07275384E-01  1.67112744E-04 -8.71491064E-05  3.40638526E-02
  2.70469634E-04  5.08883217E-05 -6.55313091E-02 -4.85378266E-05 -1.96871223E-05
 -2.56337342E-04  4.14412850E-03 -4.41855416E-02  7.04837543E-02  2.38368553E-03
  3.75830824E-02 -1.89327490E-02  1.02127004E-03 -2.60378665E-03 -1.17103931E-04
  3.96599205E-04 -2.37986396E-02  1.23333766E-02  9.79893489E-04  3.38630766E-03
 -1.07330422E-02  5.47153650E-02 -2.38239861E-02  2.64464473E-04  2.04369943E-02
 -1.04468073E-02 -8.68398412E-04 -2.95788089E-03 -3.18761669E-04 -4.13729670E-04
 -4.28729369E-03 -1.55463728E-02  1.75328212E-03  6.23540988E-03 -2.28932537E-02
  9.95896651E-03  2.10591138E-04 -2.58457837E-03  3.54013115E-04 -9.44794227E-05
  1.07169581E-03  5.88062804E-03 -4.08158589E-04 -1.65262840E-05 -1.02365709E-02
 -2.60383501E-05  9.81917543E-04  3.39368003E-03 -1.07586989E-02  5.48174765E-02
  2.35157176E-02  7.17288269E-05  2.05396538E-02  1.04980964E-02 -9.50804476E-04
 -2.93949640E-03 -2.75304234E-04  4.13048037E-04 -4.25174009E-03  1.53921437E-02
 -2.36456618E-05 -2.71433143E-04  4.21690309E-03 -4.43039790E-02 -7.00125394E-02
  2.07603947E-03  3.77082952E-02  1.89142288E-02  1.02757839E-03 -2.62599831E-03
 -1.45045522E-04 -3.34012232E-04 -2.38868931E-02 -1.24624485E-02  2.95227589E-03
  1.11115378E-02 -2.91337816E-02 -1.49776096E-01 -1.13102247E-04 -3.12736835E-04
  5.59967412E-02  1.69528139E-05  4.88285682E-04 -8.66975074E-04  5.42849540E-04
 -4.08792158E-04 -1.88407077E-01 -1.46705572E-04  7.10835272E-04  2.61213243E-03
 -6.37208553E-03  6.70103685E-03 -3.05806851E-05 -4.62057038E-03 -1.98359837E-03
  8.65819477E-06 -3.44549799E-03  5.94299153E-04 -1.78455761E-04 -3.35050386E-06
 -4.21627621E-03 -3.04124906E-05  5.20980783E-04  5.81523023E-03  8.68296857E-04
  2.43263499E-03  5.59308545E-05  4.61415684E-04  5.82497619E-03  8.71929420E-04
 -2.44511752E-03  5.74349472E-05 -7.28422224E-04 -2.20953211E-03  3.79942452E-03
  4.85389512E-01 -8.67318274E-02  2.91303385E-05  1.68342854E-01  1.15296684E-02
 -1.32382024E-04 -7.16837834E-03 -7.29403462E-05 -2.13658539E-05  1.21074809E-03
  5.53404702E-03 -7.27640900E-04 -2.20741981E-03  3.80645849E-03  4.85817767E-01
  8.77936194E-02 -2.58596794E-03  1.68537127E-01 -1.10614934E-02 -1.10870967E-03
 -7.14695709E-03 -8.67293483E-05  1.02772494E-04  1.24414979E-03 -5.52478532E-03
 -5.60675404E-03 -2.22259708E-02 -2.74331448E-02  5.06842197E-03  2.25404912E-04
  2.91206430E-02  8.26517192E-03  2.59619925E-03 -1.36890870E-04  2.37090338E-04
  2.89478909E-02  8.17339631E-03  2.62911249E-03  1.17031407E-04  2.32995730E-04
 -5.35772484E-03 -2.21391568E-02 -2.74072483E-02 -5.04308800E-03  1.10477921E-04
 -1.90445729E-05 -6.61647843E-05  1.97731127E-04 -5.82674239E-04 -2.47560205E-04
 -4.66426979E-04 -1.73711985E-04 -2.55534563E-03 -1.19493077E-05 -1.15017159E-04
 -4.22766698E-05  2.47765055E-02  1.20801593E-04 -1.60245151E-05 -3.10364566E-06
 -1.06102023E-05  3.65791150E-05  6.70405370E-05  1.13195377E-04  3.39645424E-02
  2.05198520E-03 -1.09499875E-03  8.64208171E-03 -6.13410391E-06  4.23754021E-03
  8.24179329E-03  8.68095272E-05 -8.67172343E-05 -3.54063820E-06 -1.20968152E-05
  2.60926792E-05 -1.13118280E-04 -2.16507568E-05  2.02511561E-02  2.20212482E-03
  1.27665154E-03  7.17564533E-03  4.00344476E-06 -3.47764139E-03 -1.41655224E-03
 -1.28783333E-05  3.82710852E-06 -8.47774289E-06 -2.99689267E-05  1.09731789E-04
 -2.81741236E-05  1.80052845E-04  2.19631782E-04 -1.71855648E-04  2.57447578E-03
 -1.28293797E-04 -9.64555135E-06  7.83074136E-05 -4.09145049E-03  1.50653443E-05
 -3.90037955E-05  2.46099775E-06  8.41606231E-06 -1.51752901E-05 -8.76388319E-05
 -1.58254797E-04 -2.05188388E-02 -2.29268796E-03  1.35690031E-03 -7.03128545E-03
  8.78604568E-06  3.56922776E-03 -1.49802766E-03  3.61577980E-05 -1.34510713E-04
 -2.64172152E-06 -7.73891956E-06 -1.55298306E-05  3.66864694E-05  5.78500776E-04
 -3.46770992E-02 -2.45265028E-03 -1.15777026E-03 -8.92255486E-03  2.64908257E-05
 -4.19895888E-03  8.33683194E-03  1.24236674E-05 -7.63761683E-05 -5.74796431E-06
 -2.19367161E-05  6.12548401E-05  3.26115990E-04 -4.61133717E-06  8.46761788E-05
 -1.41260447E-04  2.16952815E-04 -3.06229341E-05  1.35811803E-04  1.13085859E-05
 -1.30808941E-01  5.15033006E-04  1.06870359E-04  4.30162626E-06  1.55033660E-05
 -3.53449227E-05 -3.66746007E-05  5.74983109E-05  5.42508412E-04 -7.10055273E-05
 -3.44402864E-04  2.86952280E-04  1.78983477E-05 -1.94736056E-05  8.10848615E-06
  1.12116043E-05 -3.08959320E-05  6.05387535E-05 -1.52389649E-04 -7.58906842E-06
 -8.60247251E-05  7.75970599E-05 -3.24632679E-05  2.17412346E-04  8.86979645E-06
 -9.06884388E-05 -5.16493225E-05  1.44169968E-06  3.94874144E-06  4.93991000E-06
 -1.44547633E-03  5.76986184E-04  5.36639255E-01 -5.16808008E-04  1.25567072E-04
  2.09910161E-01 -5.72941857E-07  4.51333591E-03  2.08659789E-02 -1.51334438E-05
 -2.58478947E-05  2.64200958E-06  8.56348851E-06 -2.90983688E-05 -8.35053916E-04
 -4.40969031E-04 -5.36273919E-01 -2.76536734E-04 -6.54925099E-05 -2.09722491E-01
 -7.61551955E-06 -4.50924695E-03  2.08381384E-02 -1.82146735E-05 -6.27225600E-06
 -7.42348731E-05  7.95316733E-05 -9.41299322E-05  1.05489735E-04  1.45591139E-02
  4.73641932E-06 -1.05224931E-05 -1.96971717E-04 -1.01639010E-04 -1.81547254E-04
 -1.58079740E-04 -4.68802758E-05  2.19338084E-04 -1.19406732E-04  1.16150423E-04
  1.64690177E-04 -7.01168994E-05  2.66301042E-04  1.25607677E-04 -1.45820870E-02
  6.37532838E-06  2.31902158E-05 -9.07393018E-05  1.13900513E-04  4.67648396E-02
 -2.34566329E-04  1.07928921E-04  1.91375646E-01 -5.62228987E-05  2.77726238E-05
 -1.42283860E-05  1.65742787E-04  7.88007418E-05 -2.77108251E-02  4.43912739E-03
  1.56276056E-02 -5.02360796E-02  7.50671960E-02  1.13368357E-02 -4.85604669E-04
 -3.19529073E-02 -5.25620090E-02 -4.77546642E-05  1.40633955E-02 -3.98000167E-05
  2.94605546E-06  2.28022112E-02  3.71360127E-03 -2.31388284E-03 -8.15923753E-03
  2.72015654E-02 -4.65734550E-02 -1.19184781E-03 -2.14150595E-04 -5.12341013E-02
  2.93610760E-03  1.54855546E-04 -4.04946335E-03 -4.67376054E-06  6.66637387E-05
 -7.55535051E-04 -7.81762145E-03  5.42329343E-06  1.89272832E-05 -6.67411636E-05
  9.06125840E-05  2.47001536E-02  9.15504717E-05 -4.25605089E-05 -6.13433434E-02
 -9.26895213E-05 -1.24418562E-05  6.18388159E-05  3.28346131E-04  1.11276410E-05
  5.52546081E-03  2.30611902E-03  8.13187853E-03 -2.71081105E-02  4.64520453E-02
 -1.12362513E-03 -4.10828372E-05  5.12798527E-02  2.83008990E-03 -8.56064634E-05
  4.06169068E-03  5.86898259E-05  1.60089923E-05  7.65370550E-04 -7.71197198E-03
 -4.42350364E-03 -1.55723157E-02  5.00423061E-02 -7.48111976E-02  1.10795096E-02
  7.83880501E-05  3.19759079E-02 -5.23863496E-02 -1.09063677E-04 -1.40454547E-02
  1.35853820E-05  6.63221609E-05 -2.27510319E-02  3.80453664E-03 -1.14741319E-06
 -3.35867474E-06 -2.56985700E-06 -2.00363335E-05  2.74276518E-02 -2.29270653E-05
  1.07359318E-04 -1.01452849E-01 -7.59265479E-06 -1.65727414E-05  3.04389655E-05
 -6.20545752E-05  1.07581122E-05 -1.34514912E-01  1.30393752E-06  4.73995376E-06
 -1.07576595E-05 -7.16407545E-05 -1.06011338E-02  3.45805597E-04 -2.90034563E-05
  7.43928092E-03  1.84190232E-04  1.50290786E-05 -8.10879341E-06 -3.13452409E-04
 -7.33536079E-06 -5.66301549E-03  7.09203086E-03  7.92893756E-03 -2.15728045E-03
 -2.69029561E-04 -6.89240776E-04 -7.08675697E-03 -7.92381411E-03  2.15280630E-03
 -2.63573668E-04  7.11397211E-04  1.22428686E-03  4.14166776E-03 -1.52900889E-02
  4.11323730E-01 -3.66746732E-01  5.70423233E-04  1.64445182E-01 -1.94370192E-01
  2.73900958E-04  1.09895656E-02  9.66866883E-06  3.61451809E-05  2.71268641E-02
  3.75442509E-03 -1.23123599E-03 -4.16595636E-03  1.53948596E-02 -4.10279162E-01
 -3.66996788E-01 -1.08996537E-05 -1.63985256E-01 -1.94568410E-01  3.00837553E-05
 -1.09986903E-02 -1.51530744E-07 -1.67100233E-05 -2.71128333E-02  3.66535496E-03
 -2.87313304E-02 -5.24738187E-02 -2.58654737E-02 -1.69991722E-02 -3.81796335E-05
 -5.20495117E-03  4.40240076E-03 -5.84745044E-03 -1.00962823E-03 -1.39039875E-05
  5.23853920E-03 -4.38761259E-03  5.79180979E-03 -9.94098867E-04 -3.33226100E-05
  2.85548122E-02  5.23433980E-02  2.57370834E-02 -1.69716400E-02  1.39420344E-05
 -6.80420169E-07 -2.42118702E-06  1.03974467E-05  6.69351525E-05  1.10445369E-04
  1.11239571E-05  7.39240705E-05 -1.82158841E-03  7.52868825E-06  4.49343650E-05
  2.22249094E-05  9.58008361E-02  7.53496986E-05  1.00893521E-05 -5.76218460E-06
 -2.13907560E-05  1.17735089E-04 -2.29426794E-05 -6.39978047E-04 -3.50831302E-01
  1.41798977E-03 -1.79008112E-03 -5.12489812E-02 -8.12849805E-07 -4.69941619E-02
  5.19675098E-03  2.31088565E-05 -2.15796627E-04  3.44741207E-05  1.20845292E-04
 -4.07851817E-04 -2.18382576E-04 -9.37524578E-04 -3.46858720E-01  8.45044219E-04
  2.87142835E-03 -5.52239840E-02 -1.28763982E-04  4.53429480E-02  2.55760002E-03
 -2.69457066E-04  6.48373216E-05  4.18208268E-06  1.47422275E-05 -5.29141790E-05
  3.83699635E-05  2.28698010E-04  8.51000176E-06  6.78270468E-05  1.32670362E-03
 -2.74643997E-06  4.95003933E-06  1.63912343E-05  8.90894611E-02  3.65735922E-06
 -1.24271831E-03 -3.00972136E-05 -1.05419267E-04  3.55237326E-04  2.58874502E-04
 -9.56893831E-04  3.46862979E-01 -8.04196887E-04  2.75979779E-03  5.52366086E-02
  1.60233009E-04 -4.53382714E-02  2.57016224E-03  2.53623649E-04  1.65311277E-04
  1.02645120E-05  3.71841504E-05 -1.72409565E-04  2.24741000E-04 -9.69317251E-04
  3.50857888E-01 -1.42786044E-03 -1.72922363E-03  5.12622044E-02 -1.25775471E-05
  4.69913569E-02  5.19437801E-03 -1.45628869E-05 -1.67130721E-04 -1.03448652E-06
 -3.67165908E-06  6.92795650E-06  1.52500453E-05 -1.43471991E-05  3.30912903E-05
  1.26873472E-05  1.99177828E-04  2.83024451E-05  3.27494457E-06  5.95650630E-06
 -1.39518308E-02 -3.73646871E-05  8.15590081E-05 -3.99927905E-07 -1.34218843E-06
  2.03198240E-06 -1.97293139E-05 -1.90219888E-03 -1.54427013E-05  7.44401117E-06
  1.39761165E-03 -7.25021052E-06  1.23307689E-06 -4.68365814E-06 -2.61080399E-04
 -7.06333014E-06 -7.97541777E-04 -7.22379059E-04  9.67044274E-04 -8.83478315E-04
 -1.92466484E-05  2.67129239E-03  7.19175143E-04 -9.88848494E-04  8.84464484E-04
 -9.42989894E-06 -2.66137041E-03 -9.81247610E-07 -3.46237537E-06  1.81636314E-05
 -1.64613733E-04  2.15319550E-04  5.23380632E-02 -7.52506711E-05  1.38221509E-04
  2.35903270E-02 -1.38443360E-05  1.07449576E-05  1.72223627E-03 -1.33758104E-05
 -6.10246581E-07 -2.88389332E-06 -1.03167126E-05  4.70776268E-05  3.29876751E-04
  2.41762112E-04 -5.23104621E-02  1.39890689E-04  1.34221055E-04 -2.35805553E-02
  1.03985569E-05 -1.70894603E-05  1.71974918E-03  8.09736655E-06 -8.10408774E-06
 -6.61527587E-07 -2.02473761E-04 -1.36075156E-04  7.06313485E-05 -3.68805089E-02
  1.60629719E-04  1.57895952E-03 -5.32663341E-04 -8.67243498E-05 -3.86963589E-02
 -1.08499006E-04 -1.52776205E-03  5.12377139E-04 -8.17588576E-05  3.86942112E-02
 -3.15302872E-05  1.77224836E-04  1.41799512E-04  3.54404089E-05  3.68740372E-02
  2.21570092E-05  7.77507541E-05 -4.10301895E-04  1.77484349E-04 -1.22341142E-04
  3.46846621E-01  1.56809935E-03 -5.70929838E-04 -1.49781294E-02 -9.46546321E-04
 -1.06935223E-04 -1.39173338E-05 -5.08491833E-04 -2.68477870E-05 -5.28223721E-05
 -1.50279603E-04  4.00544494E-04  1.02485889E-03  2.21567660E-04  2.74659547E-02
 -4.40525602E-03  2.09794574E-03  2.01880953E-02  1.66107695E-03 -6.26098305E-02
  4.47177257E-02 -1.16721500E-03  4.27223081E-04  1.55864234E-05  1.35962723E-04
 -3.42313120E-03 -1.60427384E-03 -1.18017889E-03 -2.72203967E-01  1.70479697E-02
 -2.24948297E-02 -2.06029201E-02 -3.97176191E-03 -2.66590530E-02 -1.41219656E-02
  3.91366187E-03  2.71344844E-03 -6.64799870E-04 -2.26268671E-03  8.67922422E-03
  1.08135495E-02  2.51263372E-05 -1.92725809E-01 -6.66816908E-02  5.59088076E-04
 -1.00086583E-01 -3.06180709E-03  9.49301234E-02 -2.14921753E-05 -2.54890759E-03
 -7.71120332E-05  2.73005871E-06  9.02489244E-05 -3.25432162E-03 -1.62967605E-03
  1.16164882E-03 -2.72211190E-01  1.61921364E-02  2.31098338E-02 -2.06365961E-02
 -3.97246352E-03 -2.66416237E-02  1.41379823E-02  3.92017874E-03 -2.75443282E-03
 -4.77325695E-05 -1.32016387E-04  3.27671813E-04  1.04616901E-03 -1.83829812E-04
  2.75035371E-02 -5.29785045E-03 -2.78668473E-03  2.02660885E-02  1.67432010E-03
 -6.26270116E-02 -4.47153862E-02 -1.17146442E-03 -4.53216618E-04 -2.34330095E-05
 -9.07324840E-05  3.23257201E-04  4.53595618E-04  6.16058672E-05  1.01265854E-01
 -1.03874226E-03  5.79545577E-05  8.71985354E-02  1.39941072E-04  7.33683438E-02
  3.62197337E-05  1.78461941E-04  6.78444680E-06  3.69092940E-03  1.33381659E-02
 -3.04817567E-02 -2.75346351E-02 -1.97557379E-04  4.11690539E-01 -2.23888783E-02
 -1.54649688E-04  2.21025460E-01  1.07063211E-02  2.37103575E-02 -1.55399071E-05
  1.01565508E-03 -1.89009894E-06  1.67727704E-02  6.07150066E-03  1.60115991E-03
 -4.33160435E-03  1.72060261E-02  1.68122344E-02  6.12756026E-03  1.60877890E-03
  4.29282957E-03  1.71986560E-02 -2.60519294E-06 -8.72362179E-06  4.29593497E-05
 -8.31044158E-05 -1.74992071E-04 -1.79107389E-01  1.03327275E-04 -1.55022166E-04
 -9.35088145E-02  2.12548727E-06 -6.13179670E-03  9.67766479E-04 -2.27172820E-05
  1.64721132E-04 -4.72464685E-06 -1.62542485E-05  7.81902503E-05  1.50158774E-04
  5.86673960E-05 -1.79014351E-01  2.67038893E-04  1.25864908E-04 -9.34390106E-02
 -1.07547892E-06 -6.12709840E-03 -9.79232569E-04 -8.77533016E-06 -1.72416805E-04
 -9.88245775E-05 -3.43987084E-03 -1.30125711E-04 -2.89160278E-04 -3.14725212E-03
 -2.50330050E-05 -1.89525315E-02  1.07503355E-03 -7.37323355E-04 -3.25232002E-02
 -4.68167387E-05 -1.90070652E-02  1.13875833E-03  6.79990086E-04 -3.25209974E-02
 -7.90741661E-05 -3.35744322E-03 -2.67212607E-06  3.61661394E-04 -3.12440794E-03
 -6.66220740E-06 -2.89596330E-05  1.87345195E-04  4.67116558E-05 -3.57306015E-05
  2.58165520E-02 -1.66579696E-03 -1.57641561E-06 -1.32132467E-01  1.41785002E-06
 -7.69552108E-02 -3.51830941E-05 -3.63820945E-04 -8.92345798E-05 -2.90055055E-05
 -1.16882518E-04  5.26666112E-04  8.59855276E-05 -1.39267325E-04 -2.09664272E-01
  3.81876090E-03  1.02650074E-03  1.66474560E-02 -4.89092960E-04  2.91320286E-02
  1.21899679E-02  3.68562371E-04 -8.19316218E-05  2.17423319E-05  2.72113528E-05
  1.48159200E-03  6.71954050E-06 -1.53403026E-04  5.24511852E-02 -4.24251116E-03
  7.20475332E-03 -2.85253768E-02  1.48803495E-03  6.06750419E-02  2.61050964E-02
 -9.86460620E-04 -4.04139928E-04  1.70466393E-04  5.43512294E-04 -2.08109496E-03
 -1.30908655E-03  4.27908607E-05  2.41841819E-01  2.60118418E-02 -1.98251716E-05
  6.79663304E-02  2.50261708E-03 -4.57227301E-02  2.50015804E-05  2.31146502E-03
  1.54955476E-05  2.45690867E-05  3.65827698E-05  1.47120756E-03 -3.10638542E-05
  1.51235629E-04  5.25078179E-02 -4.27511217E-03 -7.13182036E-03 -2.85311442E-02
  1.46926347E-03  6.06565701E-02 -2.61251118E-02 -9.68507262E-04  3.07851561E-04
 -2.37314432E-05 -9.82578613E-05  4.73433910E-04  7.01505314E-05  4.78121939E-04
 -2.09739180E-01  3.75850288E-03 -1.12401637E-03  1.66671158E-02 -4.69459664E-04
  2.91060686E-02 -1.22282640E-02  3.60362910E-04  3.95440827E-05  1.67951888E-06
  7.13977781E-06 -4.83969038E-05 -1.76576875E-04  2.80265134E-04  5.15773292E-01
  3.29117208E-04  9.65103982E-05  2.74161075E-01 -3.05317238E-05  8.31002185E-02
  3.00533550E-05 -9.48456179E-05  1.90063312E-05 -1.65532114E-03 -5.98578061E-03
  1.37672345E-02  1.34554555E-02  8.71569053E-05 -1.79571691E-01  5.79073736E-03
  4.27383848E-05 -1.00125509E-01 -1.55686384E-03 -3.37273279E-02  1.00349866E-05
 -2.24621246E-03 -2.15255709E-05 -1.07585147E-02 -4.37757425E-03  1.15367423E-03
  4.92982705E-03 -1.77339629E-02 -1.08118556E-02 -4.37305075E-03  1.15790336E-03
 -4.94877690E-03 -1.77409180E-02 -3.37254118E-06 -1.30783886E-05  7.28498071E-05
  1.00627566E-04 -2.00004996E-04 -3.59964753E-01  3.08118240E-05 -1.30962563E-04
 -2.23454440E-01 -1.97866433E-05  7.74852253E-03  2.34252161E-02 -5.47837163E-06
 -8.28996448E-05 -3.04291209E-06 -1.20183684E-05  7.05427851E-05  6.04575150E-05
 -2.42377910E-04 -3.59999240E-01  3.05945877E-05 -1.23475950E-04 -2.23460307E-01
  2.37768243E-05  7.77768664E-03 -2.34263755E-02  2.48781177E-05  1.01394808E-04
 -3.59330972E-04  2.82810480E-03  3.24483474E-04  4.27865607E-04 -4.63940587E-02
 -2.90141064E-04  6.23248332E-03  2.48639273E-05  2.67559526E-04  9.80232514E-03
 -3.39505016E-04  6.21888044E-03  2.96334928E-05 -2.88966906E-04  9.82716492E-03
 -3.58989350E-04  2.85363347E-03  4.55720337E-04 -3.73583566E-04 -4.63514412E-02
 -6.18448190E-06 -2.13209372E-05  6.31618649E-05 -5.24192449E-05 -6.55193245E-04
  3.79596429E-05  6.01216943E-05  1.46398119E-02  2.31367242E-05 -6.11163293E-05
 -3.36719267E-05 -1.35749873E-01 -1.48492240E-04  6.91853927E-05 -2.86481539E-05
 -9.94048869E-05  3.38688634E-04  4.40422612E-04  6.84314593E-04  3.75112275E-01
 -1.12776752E-02  5.50515793E-03  8.60950263E-02  1.29935159E-04 -7.44999953E-02
 -1.18453440E-02  7.27449308E-05 -1.10421888E-03  7.94420611E-05  2.79230525E-04
 -9.73611622E-04 -7.89279242E-04 -2.12190197E-03 -3.71465817E-01 -1.46522846E-02
  8.17261055E-04 -9.29256085E-02 -4.76468902E-04 -7.57579939E-02  1.03033546E-02
 -7.94575640E-04  1.99689614E-04 -7.67858409E-06 -2.69911290E-05  1.01632157E-04
 -4.58349477E-05 -4.73251777E-04 -7.86975032E-05  3.73502131E-05 -1.62986772E-02
 -3.54929368E-06  5.35827774E-06  3.83018537E-05  1.30092884E-01 -6.27936962E-06
 -6.11176180E-03 -7.49670836E-05 -2.62403731E-04  8.85617229E-04  8.29014517E-04
 -2.21457389E-03  3.71536244E-01  1.47202576E-02  7.68257839E-04  9.29913856E-02
  3.79961504E-04  7.57154360E-02  1.03170014E-02  8.36019672E-04  7.57162250E-05
  1.92220266E-05  6.69676455E-05 -2.43675339E-04 -6.04473828E-04  9.88441149E-04
 -3.75108347E-01  1.13312101E-02  5.59552451E-03 -8.61440748E-02 -2.23109469E-04
  7.44650184E-02 -1.18747043E-02 -7.59958615E-05 -1.09912833E-03  4.91272766E-06
  1.79662985E-05 -4.63273350E-05 -5.73627463E-05 -2.66693065E-05 -6.05683986E-05
  5.16321195E-05 -1.45273350E-03 -7.21893400E-05 -2.82050084E-05  8.11637652E-06
  8.24500155E-03  3.29978114E-05 -3.58264832E-04  4.48421813E-06  1.62657107E-05
 -3.85855272E-05  7.17397962E-06 -9.61970268E-03  3.04988399E-05  6.57934725E-05
  2.10810361E-02  3.88354919E-05 -9.44961224E-06  1.47900379E-05  5.35471372E-03
 -2.11309706E-06  1.39375919E-03 -3.98773133E-03  1.93258180E-02 -7.67152860E-03
  7.99221874E-03 -1.14217619E-02  4.03204928E-03 -1.94379624E-02  7.74383139E-03
  8.04662070E-03  1.14600949E-02 -4.33646746E-06 -1.44701741E-05  3.08227934E-05
  1.04138026E-04 -2.05678026E-04 -3.61653530E-02  2.45877015E-05 -1.14837393E-04
 -2.09332070E-02  3.31336758E-06  9.29167041E-04 -1.21407532E-03 -1.74489669E-05
  3.38916091E-05  5.80294133E-06  1.95703809E-05 -5.09209274E-05 -1.37027326E-04
 -2.59559085E-04  3.61401516E-02 -7.32801281E-05 -1.69289160E-04  2.09175722E-02
 -1.55296447E-06 -9.29249465E-04 -1.21348178E-03  1.18543743E-05  4.22169252E-05
 -2.83035986E-04 -5.11224338E-04  8.80510001E-04  9.19468982E-07  6.64276626E-02
  2.22292543E-04  4.61793521E-03 -1.23617595E-03  3.47494601E-04 -7.19871937E-02
 -2.27800873E-04 -4.71553602E-03  1.25348962E-03  3.42269464E-04  7.20091567E-02
  1.94429349E-04  3.27076782E-04 -9.21892957E-04 -5.99272050E-06 -6.64368966E-02
 -8.65183823E-05 -2.85340467E-04  5.81050613E-04 -3.03766061E-04 -1.29024721E-04
  4.18801436E-01  2.38235233E-03  3.05661743E-04  1.71499090E-01  5.57440696E-04
  1.30168958E-03  9.10825608E-06 -9.01425297E-04  6.39913623E-05 -6.77225346E-06
 -2.17191547E-05 -1.34702774E-04 -4.64898741E-04 -4.07229044E-04 -1.60757210E-01
 -1.31601870E-03 -1.15859023E-03 -8.75523104E-02 -9.99662391E-04 -6.92996749E-02
  7.19009267E-02  4.92014038E-04 -1.21200415E-03 -1.22318739E-04 -4.64670774E-04
  3.16273975E-03  1.09143914E-03 -2.94297517E-03 -1.86107353E-01 -5.88752800E-03
  5.09385803E-03 -7.00748226E-02  2.04460168E-03  5.85735185E-02  7.62359665E-02
 -4.85763903E-04  6.11881230E-04  7.66919293E-05  2.19244716E-04 -2.22693648E-03
  5.91085635E-04 -4.91481499E-06  4.72782675E-01  1.57546636E-02 -3.21297991E-04
  1.12226027E-01  3.89011320E-03 -1.65148603E-02  1.40668288E-05  1.50949975E-03
  4.32877170E-05 -1.21788420E-04 -4.62436798E-04  3.14377149E-03  1.03730063E-03
  3.03576453E-03 -1.86039802E-01 -5.42099769E-03 -5.37402084E-03 -7.00636667E-02
  2.03364891E-03  5.85297993E-02 -7.62756966E-02 -4.79022209E-04 -6.31844634E-04
 -1.13541434E-05 -3.81936609E-05 -8.24520804E-05 -5.88630508E-04  4.69864475E-04
 -1.60803499E-01 -8.59306330E-04  1.52915432E-03 -8.75970034E-02 -1.06986496E-03
 -6.93193271E-02 -7.18911172E-02  4.73880876E-04  1.23564237E-03  8.32444407E-05
  3.02571007E-04 -7.86365563E-04 -8.82566145E-04 -2.13453185E-04 -3.32248850E-01
 -2.11587781E-04 -1.75048187E-04 -1.76398086E-01 -1.64653057E-04  2.69399773E-02
  1.29000766E-05 -6.59116559E-05 -8.41808662E-05 -2.60094908E-03 -9.43092599E-03
  2.22237173E-02  2.57499033E-02  1.18618488E-04 -1.82194169E-01  3.61356602E-03
  6.66513307E-05 -9.64479639E-02  5.77280650E-03 -7.64527929E-02  1.49837131E-05
 -6.61238393E-04 -3.60693083E-05 -1.86769028E-02 -1.36654980E-02 -5.33893935E-03
  1.78847589E-02 -5.80638843E-02 -1.87679235E-02 -1.36674560E-02 -5.38891171E-03
 -1.79398488E-02 -5.80908268E-02 -1.48746780E-05 -5.18037730E-05  2.53536888E-04
  3.68559089E-04  1.28790828E-04  1.48731357E-01  8.86636878E-05  1.32604556E-04
  1.15325817E-01  7.82214821E-05 -1.34424241E-02 -1.97333541E-02  3.29624112E-06
 -1.91254063E-05 -1.98031730E-05 -6.95649324E-05  3.47007334E-04  5.01972734E-04
 -2.79167512E-05  1.48734727E-01  2.35279826E-04 -3.63572549E-05  1.15343674E-01
  3.05791566E-05 -1.34627627E-02  1.97274891E-02 -1.85972993E-05  8.36510739E-06
 -8.69139935E-04 -3.34966802E-03 -1.62166448E-04  1.01586280E-04 -2.21424803E-02
 -2.22848616E-04  4.76916956E-03 -2.29808000E-03  2.95292084E-03 -5.21995797E-02
 -2.51346261E-04  4.73325228E-03 -2.36481068E-03 -2.91143433E-03 -5.21733174E-02
 -8.95604973E-04 -3.33101267E-03 -2.66918592E-04 -1.03134531E-04 -2.21860777E-02
  2.70948157E-03  8.57754236E-03 -1.69535829E-02  1.88261146E-03  2.65540223E-05
  3.86037458E-02 -2.10894641E-01 -2.14772207E-05  1.84828079E-02 -5.04597373E-02
 -4.22977154E-03  5.03561194E-05 -7.95286654E-03 -2.41107538E-05 -4.72729987E-03
 -1.76143560E-02  8.81394701E-02  3.29143699E-02 -1.13184857E-03 -2.54593682E-02
  6.24371940E-01  3.44405320E-01 -1.08510204E-02  5.16852933E-02 -1.77141063E-03
  9.10173369E-03 -1.85744052E-04 -5.38476131E-03  7.74303763E-03  2.48026756E-02
 -4.17361701E-02 -6.18513782E-02  7.53890223E-02  2.93413925E-03  4.17467757E-01
  4.68955782E-02 -9.83824124E-03 -8.28827519E-03  7.14406761E-03 -8.09108338E-03
 -1.04218705E-05 -4.23342313E-02 -1.81759167E-03 -1.09897014E-02  1.75481421E-01
  6.43723620E-02  1.43339843E-06 -2.03786083E-03  8.48989053E-01 -8.93432527E-04
  3.69016870E-02  8.77997785E-02 -1.67355660E-02 -1.04104993E-05  5.60210184E-02
  1.01575761E-04  7.73653660E-03  2.47826903E-02 -4.17416003E-02 -6.17520641E-02
 -7.50288940E-02  2.81601193E-03  4.17497456E-01 -4.81505078E-02 -9.85805833E-03
 -8.25636746E-03  7.15902740E-03  8.09361009E-03  8.81855283E-05  4.21155641E-02
 -4.73558050E-03 -1.76409336E-02  8.81330326E-02  3.28471605E-02  1.26652647E-03
 -2.54478177E-02  6.24323548E-01 -3.45071493E-01 -1.14117851E-02  5.15894791E-02
 -1.74240963E-03 -9.23206709E-03 -7.37153681E-05  5.50344917E-03 -2.44460186E-03
 -8.78723653E-03  1.94486468E-02  4.00470827E-02  2.85759060E-05 -2.11928328E-02
  5.32156158E-02 -1.25467260E-04 -1.42655613E-02 -2.77417026E-02  3.53833951E-03
  8.26159722E-06 -2.22871622E-02 -2.12469616E-05  2.62875748E-02  9.57315922E-02
 -2.37614233E-01 -1.80273899E-01  1.87351270E-04 -5.50641222E-02  2.78788445E-01
 -2.11406793E-04 -2.20267707E-02  3.14548646E-02 -1.24133984E-02  3.46511122E-05
 -1.31600428E-01  2.57010653E-05  4.47812759E-02 -8.44867946E-02  3.83048027E-01
 -4.07806045E-01  8.81715820E-02  4.47526852E-02 -8.40113936E-02  3.82931257E-01
  4.07181543E-01  8.85819303E-02 -1.45867126E-03 -5.45688423E-03  3.05385611E-02
 -8.64735779E-03 -3.43787213E-03  8.66259083E-03  5.09080389E-03  3.12926981E-04
  7.61074286E-03 -5.15070082E-03 -1.00263958E-03 -1.22141812E-03  3.58851152E-03
 -5.15289721E-03 -1.46000241E-03 -5.46205039E-03  3.05783154E-02 -8.63500127E-03
  3.49805454E-03  8.65347682E-03  5.07714885E-03 -3.49878539E-04  7.59954386E-03
 -5.17540948E-03 -1.00442773E-03  1.22315953E-03  3.59647971E-03  5.16619253E-03
 -5.20067026E-03  6.53056059E-01  6.06899611E-02  1.37408515E-01 -8.34581692E-03
 -2.27471852E-02 -1.55218106E-01  1.13387764E-01 -1.94456262E-01  3.08347259E-03
 -2.28008440E-02 -1.54157383E-01  1.12922147E-01  1.93932313E-01  3.16823104E-03
 -5.27969231E-03  6.53462774E-01  6.07323741E-02 -1.37785599E-01 -8.48398812E-03
  3.01647316E-06  7.20563975E-06  5.56232924E-05  1.12443010E-04 -4.43883426E-02
  2.84945819E-05 -1.71842370E-04  7.13828714E-01  1.25978411E-04 -5.83423474E-05
 -3.40466651E-05  2.48391909E-03  1.80107954E-04  3.31840397E-02 -3.90747155E-03
 -1.17512224E-02 -1.72342854E-02 -4.05201822E-02 -1.12718969E-01 -4.84725169E-03
 -1.32202949E-01  4.22692591E-01 -2.46477945E-03 -2.59717759E-02  3.26447149E-03
  4.83838453E-04  5.68530986E-02 -1.29419128E-01 -5.44682048E-03 -1.66016348E-02
 -1.17824828E-02  4.47153744E-02 -1.88245534E-01  1.16147962E-02 -1.72538055E-01
  8.32245492E-01  1.73020000E-03 -1.91506493E-02 -9.69939338E-04  8.17752780E-04
  5.87913291E-02  1.33295733E-01 -7.21273205E-07 -6.51677766E-06  1.44103120E-04
 -3.11668561E-05 -4.36514765E-02  7.46383479E-05 -1.69334796E-04  7.22743169E-01
  2.51064116E-04  1.33918635E-04 -2.51832730E-05  6.20488490E-04  7.87934603E-06
 -1.18176900E-01  5.47464618E-03  1.66907850E-02  1.16400254E-02 -4.49435558E-02
 -1.88475102E-01 -1.17262310E-02  1.73091656E-01  8.33216915E-01 -1.76123530E-03
  1.90896871E-02  1.07750825E-03  8.64028517E-04 -5.88720250E-02  1.33502680E-01
  3.92024155E-03  1.17891456E-02  1.72921335E-02  4.06724842E-02 -1.12988842E-01
  4.67246930E-03  1.33049873E-01  4.22400781E-01  2.96270755E-03  2.60933007E-02
 -3.36539329E-03  5.80280972E-04 -5.71661698E-02 -1.29481645E-01 -7.92940488E-06
 -2.93696758E-05  8.36978001E-05  1.45172710E-04 -6.14788788E-03  1.12056445E-06
  7.70652695E-05 -1.17505899E-01  1.72809172E-05 -1.02246136E-05  7.98986233E-06
  1.16271343E-04 -1.55416318E-05 -4.42776500E-02  1.07642896E-05  3.98607630E-05
 -1.09328065E-04 -2.11745602E-04 -1.97919466E-01 -1.56829686E-04 -3.79171408E-04
  2.12475652E-01  3.92629381E-05  7.89813593E-05  2.39669739E-05  1.99866159E-02
  7.79257634E-05  1.32302949E-01 -2.73108306E-02  4.17223562E-01 -2.36884027E-01
  3.40006627E-01 -5.58410725E-02  2.73550313E-02 -4.16126527E-01  2.37240091E-01
  3.40141871E-01  5.62342498E-02 -8.73147704E-04 -3.05869426E-03  1.22241206E-02
 -1.73006768E-03 -3.66998924E-02  9.43879152E-04 -1.32331547E-03 -2.15498473E-02
  5.36170764E-04 -4.17319913E-03 -6.95094668E-05  1.06975151E-04  4.78856292E-03
 -5.03860049E-04  8.69797134E-04  3.04526899E-03 -1.21387536E-02  1.68425076E-03
 -3.66859423E-02 -9.87578116E-04  1.31936120E-03 -2.14709881E-02 -5.53867757E-04
  4.15909505E-03  7.11778627E-05  1.14731687E-04 -4.81106893E-03 -5.04908233E-04
 -3.43311737E-02  4.06033899E-01  1.66431831E-01  2.55249807E-01 -2.57824516E-03
 -2.75746445E-02  8.23395768E-01 -2.95199377E-01  3.86267667E-01 -9.27518490E-04
  2.75999278E-02 -8.23886854E-01  2.95533787E-01  3.86934706E-01  1.09452341E-03
  3.44132408E-02 -4.05138609E-01 -1.66394393E-01  2.55752984E-01  2.82710552E-03
 -1.91372985E-03 -5.12878382E-03 -1.57898742E-02 -1.27461512E-01 -4.73801065E-05
  4.53893919E-04 -1.65109742E-02 -3.70078633E-04  3.29384927E-03  8.06754906E-02
 -4.74512636E-04  4.14756637E-05 -1.86404333E-01 -2.74671381E-05 -9.37924526E-03
 -3.07496603E-02  3.97807435E-02 -6.90499976E-02 -1.12401064E-01 -2.32325387E-05
  3.38955030E-01  1.27264830E-01 -5.32935333E-03  6.40234740E-03 -6.95404568E-04
  2.24240895E-04  1.12038544E-01 -9.47180343E-02 -9.84331189E-03 -3.25473902E-02
  6.10726817E-02  5.60561942E-02 -1.14124614E-01 -5.41870270E-04 -5.23128397E-02
  5.74026021E-01  1.20885241E-02  4.28413489E-02  2.27012111E-03 -1.20147473E-03
  5.76939577E-02  8.86686703E-02 -1.02452655E-03 -3.80059704E-03  2.30117307E-02
  1.02039050E-01 -1.44113477E-04 -7.65326623E-03  1.27226253E+00  8.86068370E-04
 -2.81308559E-02  1.62485231E-02 -6.80204692E-03  1.34904820E-05 -6.73859446E-02
 -1.33771326E-04 -9.84157278E-03 -3.25457266E-02  6.11962283E-02  5.60392421E-02
  1.13798998E-01 -5.90235852E-04 -5.33042790E-02 -5.71750783E-01  1.18323598E-02
  4.28940456E-02  2.21733857E-03  1.17385370E-03  5.75696944E-02 -8.84797173E-02
 -9.37984079E-03 -3.07539163E-02  3.98731529E-02 -6.90032763E-02  1.12494371E-01
  2.45484896E-04  3.37972462E-01 -1.28300429E-01 -5.36356699E-03  6.45398323E-03
 -6.56126971E-04 -3.36604523E-04  1.12045813E-01  9.45165455E-02  1.19868093E-02
  4.38024798E-02 -1.20858493E-01 -9.87263512E-02 -5.21105724E-05 -2.56833265E-04
 -3.60375483E-02 -5.70802990E-05 -1.46625002E-03 -3.68424743E-02 -2.27689939E-04
 -5.68184555E-05 -8.66360579E-03 -6.00298591E-05  9.94762934E-03  3.53143351E-02
 -7.70608493E-02  4.95219458E-02 -3.47398700E-04 -1.05474084E-02  7.20405079E-01
  1.71093285E-04  6.50384110E-02 -3.31117438E-02  1.16639928E-02  1.19285143E-04
 -8.01944832E-02  2.36905926E-04  4.15912117E-03 -6.25128037E-01  2.26033540E-01
 -1.80649013E-01  5.02687224E-02  4.24310453E-03 -6.26543364E-01  2.26924485E-01
  1.81578329E-01  5.07340299E-02 -3.17584326E-03 -1.11567527E-02  5.51121145E-02
  4.95209623E-02  1.15801500E-02  1.10929284E-04  2.61832246E-02  7.45871034E-03
  1.89250129E-04  1.06648288E-02 -4.13217999E-06  7.92749987E-05  1.03109091E-02
 -1.12466738E-02 -3.17180606E-03 -1.11417694E-02  5.50307915E-02  4.95594289E-02
 -1.16709429E-02  2.17322389E-04  2.62136365E-02 -7.54198638E-03  2.17051458E-04
  1.06727015E-02 -2.35159258E-05 -7.73953555E-05  1.02700224E-02  1.12328662E-02
 -7.17841548E-02  4.95312216E-02  6.81346424E-02  3.06708601E-01  7.10439560E-04
 -6.47129142E-02  1.45088227E-01 -1.17640900E-01  2.52110239E-01 -7.03246797E-04
 -6.46940141E-02  1.43682552E-01 -1.16876194E-01 -2.51720449E-01 -8.58562486E-04
 -7.17471393E-02  4.96262725E-02  6.80247129E-02 -3.06707938E-01  4.06722565E-04
 -1.01154683E-03  3.22083049E-03 -1.70110742E-01  4.38148028E-02 -2.39907429E-05
 -2.84343161E-04  1.14129199E-01 -3.79192068E-03  4.46858516E-03 -2.77060056E-01
  8.45506543E-04  1.81807868E-04 -1.06199754E-01  1.83525691E-04 -9.97710350E-03
 -2.94036237E-02 -4.15368715E-02 -3.72447562E-02 -1.03786227E-02  8.28490011E-04
  4.17900671E-01  5.28357879E-02 -9.94033287E-03 -2.36630329E-01  2.07550116E-04
 -5.32689752E-05  3.59483213E-02 -2.01766892E-02 -5.43570533E-03 -1.41620841E-02
 -7.10291330E-02  2.08327867E-02  8.16477747E-03  2.47856799E-03  1.43962942E-01
  2.37370358E-01  1.97207051E-02 -2.09863941E-01  2.86026831E-03  5.06283662E-03
  2.26844479E-02  2.36763384E-02 -1.65308737E-03 -1.30143717E-03 -9.32184024E-02
 -2.84219273E-02  2.77421058E-06  4.24424858E-03  9.83861861E-01  3.18319492E-03
 -5.44992533E-02 -2.49018701E-01 -1.14187075E-02 -6.33303005E-06  4.00873957E-02
 -5.61509987E-05 -5.42933075E-03 -1.41405874E-02 -7.10564637E-02  2.09093934E-02
 -8.25556321E-03  2.37732910E-03  1.38371855E-01 -2.33739776E-01  1.97001091E-02
 -2.09867818E-01  2.74069837E-03 -5.03259339E-03  2.24794942E-02 -2.35468858E-02
 -9.99156860E-03 -2.94548446E-02 -4.13090170E-02 -3.73368268E-02  1.04370411E-02
  1.00478716E-03  4.12374669E-01 -5.70654978E-02 -1.00275367E-02 -2.36534672E-01
  9.46103322E-05  3.24504667E-04  3.59995020E-02  2.03716154E-02 -4.25229333E-03
 -1.54065668E-02  3.61282692E-02  9.75401896E-02  3.68379884E-05  7.98579731E-04
  1.48774715E-01  5.05687641E-04 -6.74542989E-04 -1.31380802E-01  1.57319966E-04
 -1.35651421E-04  1.84454135E-02  1.99298407E-05 -2.53151750E-03 -1.03511622E-02
  3.83145723E-02 -3.39674923E-02 -1.08076571E-04  4.33573457E-03  5.60665208E-01
 -3.87834042E-04  1.12242437E-01 -9.01534937E-02  1.73306723E-02  1.20269177E-04
 -2.57428281E-02  7.23574517E-05  2.39140662E-02 -6.14967602E-01  1.07357201E-01
 -1.50083121E-01 -5.82069186E-03  2.39353388E-02 -6.15279953E-01  1.07835066E-01
  1.50321767E-01 -5.79280323E-03 -3.93757693E-03 -1.41452653E-02  7.72399653E-02
 -2.22356114E-04  9.74533265E-03  9.14226758E-05 -2.10332440E-02  4.96566918E-02
  1.23349364E-04 -1.38670758E-02 -1.45746102E-06  2.65887103E-04 -5.14690521E-03
  1.83293845E-02 -3.94088109E-03 -1.41555180E-02  7.72543919E-02 -1.07450905E-04
 -9.70929111E-03  1.28287574E-05 -2.08388966E-02 -4.96654960E-02  1.31947109E-04
 -1.38561713E-02  4.27258486E-05 -2.81196490E-04 -5.09159321E-03 -1.84074073E-02
  4.92139286E-02  8.29779155E-02  3.38680083E-02  2.10477815E-01  1.72384362E-03
  5.06326124E-02 -9.70483555E-02 -3.10920808E-02  4.46984452E-02 -3.66421785E-03
  5.06174022E-02 -9.74951972E-02 -3.02857570E-02 -4.48526391E-02 -3.80745010E-03
  4.92216391E-02  8.39754722E-02  3.45442121E-02 -2.10675992E-01  1.33352009E-03
 -3.15456572E-06 -8.27833340E-06 -2.42413917E-05 -1.95272963E-04  6.48583536E-02
 -4.94881415E-04 -3.03532277E-05  7.93815220E-01 -1.77466331E-04 -1.92728516E-05
  2.01828378E-05 -3.56398124E-03 -2.10207889E-04  1.36187003E-02 -8.68444162E-03
 -2.81220878E-02  3.45106547E-02 -5.85327284E-02 -1.45366551E-01  6.51775106E-03
  2.49712521E-01  1.10728777E+00  3.58653714E-03  5.73067771E-03 -5.70423405E-03
 -4.23567294E-04  7.53825395E-02 -8.52028957E-02 -3.22936670E-03 -1.05608794E-02
  4.50719294E-03  3.45783438E-02  1.58860547E-02 -2.11427422E-02  2.83321804E-01
 -2.14138546E-01 -7.23370384E-03 -3.76273921E-02  3.25409096E-03 -1.77096390E-03
  3.81412799E-02  3.81434306E-02 -5.06821487E-06 -1.71415464E-05  6.04297510E-05
  6.19206695E-05  5.01628513E-02  3.91481500E-04  1.31948910E-03  3.22324854E-01
  6.89837859E-05 -6.89513241E-05  1.49792692E-05 -2.68428413E-03  9.88663075E-05
  1.00695146E-01  3.21818142E-03  1.05272283E-02 -4.56308984E-03 -3.46826958E-02
  1.59664389E-02  2.05827656E-02 -2.82966457E-01 -2.14662950E-01  6.62315101E-03
  3.74212638E-02 -3.32718067E-03 -1.98742624E-03 -3.81027077E-02  3.81133746E-02
  8.66641344E-03  2.80663054E-02 -3.45155510E-02  5.83391205E-02 -1.45258686E-01
 -5.96163672E-03 -2.47555569E-01  1.10683289E+00 -1.87540064E-03 -5.83975564E-03
  5.52628740E-03 -2.35314967E-05 -7.52150270E-02 -8.49228547E-02  2.17181624E-05
  7.91849926E-05 -2.18223598E-04 -2.34546768E-05  1.85293773E-02  1.69013887E-04
  5.67687518E-05 -1.40916794E-01  1.92663865E-04 -1.78697084E-04 -8.61409915E-05
 -4.29786055E-04 -6.14220658E-05 -1.31700239E-02  4.67477160E-06  1.56485619E-05
 -1.99010115E-05  6.92336793E-05  2.61924187E-01  1.26123324E-04  4.93140442E-04
 -6.67513044E-01 -1.43415865E-04 -5.15286265E-05 -1.72892167E-04 -4.60747818E-02
 -1.88243812E-04 -1.80306759E-01  3.51708846E-02 -8.28174787E-01  3.73210803E-01
 -5.68302426E-01  1.09869968E-01 -3.51847444E-02  8.26734838E-01 -3.72931823E-01
 -5.67649187E-01 -1.10802896E-01 -2.65897374E-03 -9.41669104E-03  4.37333234E-02
  1.97009885E-02 -3.95872074E-02 -1.80996973E-03  3.46710647E-02 -2.23859115E-02
 -9.50905443E-04 -7.38232281E-03  2.20909830E-04 -2.82467100E-04  1.13186349E-02
 -4.78282218E-03  2.63759204E-03  9.33913064E-03 -4.33135706E-02 -1.95631109E-02
 -3.97608078E-02  1.54700545E-03 -3.45925797E-02 -2.24327403E-02  7.37908567E-04
  7.41636372E-03 -1.98907381E-04 -2.67678798E-04 -1.12889935E-02 -4.72857485E-03
 -1.13740816E-02  1.08076186E+00  2.58890383E-01  4.97400699E-01  3.65258630E-03
 -6.52584825E-03 -1.15178717E-01  9.30995850E-02  1.07139498E-01  6.14953750E-03
  6.55245908E-03  1.14866758E-01 -9.30372011E-02  1.07095468E-01 -6.35979526E-03
  1.12720848E-02 -1.08005953E+00 -2.58423227E-01  4.96823445E-01 -2.73146763E-03
 -4.88029302E-04 -1.77766408E-03  1.11319877E-02  1.68944817E-02  2.88553373E-05
  4.05212746E-01  1.84350211E-02  1.28234565E-03  2.45280362E-01  1.20675287E-02
 -4.39193251E-02  1.88845455E-05  1.76145018E-02  8.74946618E-05  1.58195179E-03
  5.54822346E-03 -2.20707958E-02  9.50599552E-03  1.17968916E-02 -3.06621563E-01
 -1.81658846E-01 -1.21422405E-01 -2.13119332E-01 -2.18665957E-02  3.47838055E-02
  9.08555974E-02 -1.10248911E-02  1.31525296E-02 -2.14172941E-03 -6.95446363E-03
  1.34412097E-02  1.59323290E-02 -1.50913789E-02  2.48664845E-01 -1.85414699E-01
  1.06477800E-01  1.93328640E-01 -1.21172321E-03  5.66227490E-02 -8.80657143E-02
  7.78400777E-03  1.34744205E-02  1.33339551E-04  1.41124757E-03 -3.17992468E-02
  3.49213424E-03  1.95970227E-04 -3.87780680E-01  4.09605107E-03 -1.26546191E-04
 -5.45867930E-02 -3.70661812E-02  2.62067274E-03 -1.38840860E-05 -2.34650803E-02
  9.50413073E-05 -2.13007191E-03 -6.91398216E-03  1.33402478E-02  1.58920194E-02
  1.50747683E-02  2.48689972E-01 -1.85383281E-01 -1.07673684E-01  1.93370888E-01
 -1.24911449E-03  5.66322863E-02  8.80630262E-02  7.76514632E-03 -1.34916222E-02
  1.59608094E-03  5.59147188E-03 -2.20506796E-02  9.51589435E-03 -1.19235159E-02
 -3.06626719E-01 -1.81752275E-01  1.24862930E-01 -2.12934841E-01 -2.20194575E-02
  3.46997474E-02 -9.08019188E-02 -1.12327271E-02 -1.32957381E-02 -9.01631848E-04
 -3.36313852E-03  1.09171162E-02 -3.77545376E-03 -1.41706382E-04 -1.65213719E-01
 -1.57657938E-02 -3.00090419E-04 -1.29554883E-01  1.98633298E-02  5.29180683E-02
  3.62721784E-05  1.21787199E-02 -7.57745699E-05 -8.29299908E-05 -3.42572328E-04
  1.13306604E-03 -8.67592914E-03  2.63630303E-04 -4.28579399E-03 -2.56099795E-02
 -6.15789676E-04 -1.47149019E-01 -4.00419870E-02  8.23026934E-02 -4.63705830E-05
  1.23985241E-02 -2.27106595E-04  1.17956631E-02  2.79151400E-02 -8.63475225E-03
  1.98592919E-02  1.81129390E-01  1.17508281E-02  2.97118527E-02 -9.45918159E-03
 -2.11635827E-02  1.80815534E-01  1.17077695E-03  4.24511994E-03 -2.28132438E-02
 -4.50847037E-03 -2.32192641E-03  7.41773616E-02 -5.70573614E-03 -6.05922563E-03
  6.61595975E-02  1.14603022E-03 -1.09242893E-02 -5.76888457E-03 -3.06743315E-03
  2.17241620E-03  1.17126793E-03  4.24622118E-03 -2.28012412E-02 -4.48067909E-03
  2.17283132E-03  7.40728769E-02 -5.66239798E-03  6.04618591E-03  6.61151265E-02
  1.13250067E-03 -1.09311936E-02  5.77159117E-03 -3.11060031E-03 -2.16857930E-03
  7.20680573E-03 -1.83421277E-01 -3.55725087E-02 -7.31105912E-02 -1.26803600E-01
 -1.13861842E-03  1.58076233E-01 -3.59096714E-02  8.46813174E-02  1.51375735E-01
 -1.11924765E-03  1.58563330E-01 -3.62642031E-02 -8.44265035E-02  1.51286097E-01
  7.14390693E-03 -1.86285468E-01 -3.62036589E-02  7.45166979E-02 -1.26717718E-01
 -9.62085852E-04 -4.94324776E-03  6.87470476E-02  1.46493846E-01 -1.94299809E-05
 -5.91565412E-02 -1.00456610E-01  1.59847529E-03 -3.79559065E-02  5.89678868E-02
  5.13349151E-03 -1.06484726E-04  1.31265069E-01 -5.22285488E-06  7.02819630E-03
  2.35030254E-02 -6.79717266E-02  1.09114216E-01  8.18680858E-02  4.31833051E-02
 -6.93439839E-01 -5.18740165E-01  4.12182272E-02 -8.39930073E-02 -6.09713628E-03
 -1.29444864E-02 -9.31317581E-02  7.83166183E-02 -1.00818673E-02 -3.39473610E-02
  9.44066589E-02  9.09700958E-02 -7.50952883E-02 -4.24270348E-02 -8.87899208E-01
  7.62398106E-01 -4.65029551E-02 -3.06909305E-03 -4.93169271E-03  1.26906461E-02
  8.28176347E-02  6.58168093E-02 -2.30608780E-03 -7.03698595E-03 -1.99615191E-02
  1.49728075E-01 -1.62098934E-04  6.49683542E-02  7.04889925E-01 -2.02184450E-03
  4.82076748E-02 -1.48466926E-01 -4.36474289E-03  4.64719606E-05 -1.53670086E-01
  3.57224850E-05 -1.01019022E-02 -3.40168697E-02  9.46045472E-02  9.10167861E-02
  7.52271269E-02 -4.24806176E-02 -8.85454910E-01 -7.65189342E-01 -4.65106786E-02
 -3.04181545E-03 -4.91388738E-03 -1.27027480E-02  8.29737056E-02 -6.58142423E-02
  7.04221869E-03  2.35514551E-02 -6.80880021E-02  1.09147214E-01 -8.21010949E-02
  4.29157181E-02 -6.90763110E-01  5.21948971E-01  4.18170188E-02 -8.39522077E-02
 -6.27123384E-03  1.31821562E-02 -9.32682672E-02 -7.82552362E-02 -9.85201295E-03
 -3.64441848E-02  1.09172573E-01  6.81287763E-03 -8.43715767E-06  2.20707464E-02
 -8.61078680E-02  1.02791970E-05  1.81082622E-02  1.35046515E-01 -8.70557235E-03
  1.33204413E-04  6.32825453E-02  9.18073973E-05  1.26310934E-02  4.65563911E-02
 -1.27245634E-01 -4.47390429E-02 -2.81101244E-05 -3.14544334E-02  2.93844982E-02
  2.37363597E-04  3.64740932E-03 -6.01015413E-02 -2.12310196E-02  7.82030478E-05
 -2.77951694E-02  5.17577657E-05  1.93232775E-02 -5.58517786E-02  3.44944984E-01
 -1.12290221E-01  1.45402580E-02  1.93583440E-02 -5.60057777E-02  3.45082618E-01
  1.12234524E-01  1.48606242E-02  7.53544935E-03  2.71917944E-02 -1.45527580E-01
 -4.16280610E-02 -3.00961562E-02 -1.06930479E-02 -3.44294571E-02 -5.21869116E-02
 -9.41015703E-03  3.70348378E-03  1.63321259E-03  4.06833836E-04 -1.99327167E-02
  1.35834543E-02  7.53677927E-03  2.71963462E-02 -1.45553083E-01 -4.17751070E-02
  3.00534903E-02 -1.08371889E-02 -3.45235211E-02  5.23217290E-02 -9.48107345E-03
  3.72285551E-03  1.63795806E-03 -3.97746678E-04 -1.98974812E-02 -1.35569650E-02
  4.48299684E-02 -6.72167061E-01 -2.11470030E-01 -3.88508616E-01  1.92622111E-02
 -3.81969894E-02  9.22683224E-01 -1.51587139E-01  4.70133067E-01 -2.22401900E-02
 -3.82454355E-02  9.23638894E-01 -1.52118277E-01 -4.70603655E-01 -2.22650163E-02
  4.48869677E-02 -6.73144243E-01 -2.11861127E-01  3.88846422E-01  1.98867362E-02
 -1.82894938E-05 -6.46634353E-05  2.32612451E-04  3.72794281E-04 -2.95780367E-02
  5.59284205E-05  4.82222056E-04 -5.08606982E-01 -3.04364126E-04 -1.54944743E-04
  1.30561261E-04 -3.34004987E-03  1.85697840E-04  4.67717389E-02  1.10043321E-02
  3.81564341E-02 -1.26849539E-01  3.05767672E-03  9.27962014E-02  2.37202884E-03
 -3.40693043E-01 -1.14513493E+00  1.09556732E-02 -6.81768839E-02 -8.91624647E-03
 -2.37828295E-03 -2.67231260E-02  8.27624263E-02 -1.63239334E-02 -5.65150229E-02
  1.77431346E-01  5.95543957E-02 -8.64756209E-02 -3.03074320E-02 -3.13045101E-01
  1.24817923E+00 -1.60670094E-02  6.72863856E-02  8.66701119E-03 -2.47526072E-03
  4.00041297E-02  6.70987467E-02 -3.89230375E-05 -1.43574896E-04  7.14516998E-04
  2.88149328E-04  1.49272126E-01 -6.59921346E-05  5.43926231E-04  6.43580137E-01
 -3.24357467E-04  2.52497497E-04 -2.28994013E-05 -4.54668244E-03 -8.72750354E-05
  1.21725245E-01  1.63472436E-02  5.65939922E-02 -1.77615581E-01 -5.92337486E-02
 -8.61022690E-02  3.04555342E-02  3.13966114E-01  1.24838122E+00  1.63495048E-02
 -6.71500445E-02 -8.77249513E-03 -2.43178536E-03 -4.02891279E-02  6.67396773E-02
 -1.09952110E-02 -3.81253984E-02  1.26792041E-01 -2.94930228E-03  9.28749157E-02
 -1.98679661E-03  3.40078849E-01 -1.14541707E+00 -1.19407675E-02  6.81977027E-02
  9.17892656E-03 -2.67537343E-03  2.63973321E-02  8.30095717E-02 -2.77191837E-05
 -1.01185102E-04  2.72485628E-04  9.82845669E-05 -1.77917011E-02  1.26183713E-04
  2.45394487E-04  1.37658625E-01 -1.47780408E-05 -3.20822781E-05  6.94828420E-05
 -1.25510678E-03  2.13210874E-05 -9.97814289E-03  2.12320843E-05  7.74986699E-05
 -1.97516826E-04  1.87527094E-04  1.55169254E-01  2.31773072E-04 -3.86575997E-04
 -5.47691757E-01  3.43213040E-05  1.63228923E-05 -1.79460935E-04 -4.77886222E-02
  7.42921753E-06 -1.57704003E-01  7.30130622E-02 -4.31397491E-01  2.87076409E-01
 -3.11430670E-01  1.09142797E-01 -7.31704140E-02  4.31287492E-01 -2.85535196E-01
 -3.11661264E-01 -1.09545658E-01  4.13871843E-03  1.47796547E-02 -7.39562741E-02
 -4.43849795E-02  5.73508081E-02 -3.33587085E-03 -6.00779844E-02  2.99415254E-02
 -1.28543377E-03  9.87859743E-03  4.95406307E-04 -7.01058874E-04 -1.60168476E-02
  2.83219210E-03 -4.13813267E-03 -1.47780717E-02  7.39651329E-02  4.43179224E-02
  5.76512005E-02  3.48984095E-03  5.99937101E-02  2.98340849E-02  1.36798151E-03
 -9.96456277E-03 -4.87790879E-04 -8.10300008E-04  1.59468315E-02  2.69919675E-03
  3.25852142E-02 -9.66967473E-01 -3.12699347E-01 -3.74800765E-01  1.24124861E-02
 -1.71632765E-02  1.10875644E+00 -2.42291455E-01  5.69220564E-01  2.33324675E-02
  1.70231053E-02 -1.10919702E+00  2.41704950E-01  5.69379837E-01 -2.33209178E-02
 -3.25380946E-02  9.67265526E-01  3.12982562E-01 -3.74535610E-01 -1.32722346E-02
 -1.57233969E-02 -5.50349240E-02  2.00356795E-01  3.11774167E-02  3.72346633E-05
 -1.00341369E-02  4.24377100E-01 -6.78648972E-04  1.14123871E-03 -1.35828629E-01
 -5.35364629E-03  9.55713455E-05 -1.25434097E-02  4.77259850E-05  4.64976091E-03
  1.68897400E-02 -6.71218062E-02 -2.95250089E-02  8.48166415E-03  1.14965359E-03
  2.88621233E-01  1.50424742E-01  1.82481788E-02 -3.24948233E-02 -4.63878762E-03
 -5.68286996E-03 -6.40584416E-02 -1.25081683E-01  4.85278024E-03  1.55619529E-02
 -1.73700287E-02 -1.63185831E-02 -8.43796310E-02 -1.81126379E-02  5.34347501E-01
 -1.61351147E-01 -2.43307069E-02  3.64970201E-02  2.00124996E-03 -8.57065968E-03
 -7.48886069E-02  4.54814212E-02 -1.74909997E-02 -6.56409155E-02  3.49244356E-01
  4.20725491E-02 -2.46421133E-04 -1.41889609E-03  1.99872507E-01 -6.45876257E-04
  7.11882548E-02  1.69453717E-01  1.27396934E-02 -4.30891471E-05  5.19239845E-02
 -2.96657656E-04  4.80089190E-03  1.53870427E-02 -1.69397858E-02 -1.61001366E-02
  8.45329258E-02 -1.81597306E-02  5.31481923E-01  1.56981600E-01 -2.44573924E-02
  3.65992466E-02  2.01607277E-03  8.53374041E-03 -7.47010298E-02 -4.56662234E-02
  4.67761107E-03  1.69899542E-02 -6.76003182E-02 -2.95648220E-02 -8.90399407E-03
  1.35683386E-03  2.85476139E-01 -1.48868715E-01  1.82348291E-02 -3.28446336E-02
 -4.49407786E-03  5.70549484E-03 -6.39656826E-02  1.24873311E-01  2.54445136E-03
  9.46568527E-03 -3.17207637E-02  5.57501086E-02  1.12780326E-05 -6.08199450E-04
  2.29504773E-01 -1.39222108E-04 -7.27163019E-04 -2.21899320E-01 -3.47725058E-03
 -2.02439047E-04 -5.37195695E-02 -9.24450088E-05  4.37831550E-03  1.58391230E-02
 -3.89846839E-02  6.63212574E-02 -2.77251822E-04 -2.14635718E-02  2.19980125E-02
  9.11017421E-04 -8.22744002E-02  5.65429543E-02 -1.91507030E-02  3.98328527E-05
  4.23777707E-02  2.39068593E-04 -6.33608871E-02 -1.52569454E-01  3.41766660E-01
  1.35547483E-01  8.72829826E-02 -6.30894093E-02 -1.53905574E-01  3.42652003E-01
 -1.34809111E-01  8.76568209E-02 -8.69719205E-03 -3.18889358E-02  1.81375251E-01
  3.12831833E-02  3.94231739E-02 -3.04987030E-03  3.53230149E-02  7.40075995E-02
 -1.49309459E-03 -2.27916725E-02  4.88775003E-04 -1.26689959E-03 -1.77713821E-03
  4.41358315E-03 -8.69098723E-03 -3.18670396E-02  1.81275399E-01  3.13129287E-02
 -3.95670267E-02 -2.96308508E-03  3.52827135E-02 -7.42728335E-02 -1.38743095E-03
 -2.27761214E-02  5.12833840E-04  1.24148280E-03 -1.82406400E-03 -4.46109593E-03
 -1.04703473E-02  2.75011595E-01  1.18584774E-01 -8.25796506E-02  7.26001285E-03
 -2.04446827E-02 -3.73364653E-01 -1.95646127E-01 -1.88997010E-01  1.14682130E-02
 -2.03352224E-02 -3.68287641E-01 -1.96685561E-01  1.86916278E-01  1.15074556E-02
 -1.02533587E-02  2.73081301E-01  1.18022737E-01  8.36964867E-02  7.02287329E-03
  8.10857150E-03  3.08169274E-02 -1.70307128E-01  1.59452542E-01 -1.32728538E-04
 -1.87265018E-02  4.04049023E-03 -1.64041141E-03  3.95277910E-02 -2.41510081E-01
 -2.36430043E-02  1.93807048E-05  1.18571318E-01  3.50051400E-04 -1.42376815E-03
 -4.64921132E-03  1.09226794E-02  1.53681470E-02  6.59944244E-02 -1.35426407E-02
  4.78113555E-01  2.18411706E-01  1.41681138E-02 -5.71003791E-03 -1.87585959E-02
 -1.98686767E-02 -9.67632562E-02  5.06115549E-02 -5.21804109E-04 -2.99724780E-03
  3.58281940E-02  8.50705888E-02 -1.86019869E-02 -4.54794042E-02  2.49027445E-01
  1.34589438E-01 -6.45081487E-03  1.63556336E-01  6.44513573E-03 -1.54612189E-02
  1.25445624E-01 -5.15850164E-02  1.97427766E-02  6.70669903E-02 -1.81337263E-01
  5.29291430E-02 -5.16273573E-05  5.77965568E-03  8.29063649E-01  1.50187400E-03
  8.63907059E-02  2.55228706E-01  3.52442686E-02 -4.51998812E-05  3.22456747E-02
  1.14086761E-04 -5.00194139E-04 -2.92162358E-03  3.55796452E-02  8.52511314E-02
  1.87402739E-02 -4.55822515E-02  2.46535245E-01 -1.32298366E-01 -6.63598166E-03
  1.63718966E-01  6.53154001E-03  1.54392571E-02  1.25650380E-01  5.16724854E-02
 -1.44863707E-03 -4.73917958E-03  1.12834141E-02  1.53438853E-02 -6.62525081E-02
 -1.38297826E-02  4.75201009E-01 -2.20244739E-01  1.40625712E-02 -5.41304987E-03
 -1.87267884E-02  2.00155255E-02 -9.68225231E-02 -5.05661968E-02 -1.87860355E-02
 -6.89819954E-02  1.92347397E-01  1.96183475E-01  3.15653619E-05 -1.16264114E-02
  1.67845264E-01  2.44377128E-04 -1.01706427E-02 -9.56178354E-02 -9.84363623E-03
 -4.45437453E-05 -4.07118145E-02 -1.00428158E-04  1.48596559E-03  5.50381714E-03
 -1.60262560E-02  9.58858077E-02  8.90057628E-05 -4.60373656E-02  7.09589122E-01
 -7.31540392E-04 -1.16821512E-01  7.94525739E-02  2.53561277E-02 -6.54832039E-05
 -1.14147669E-01 -4.79236081E-05 -2.47900209E-02 -4.67960070E-01 -2.15965957E-01
 -1.31733110E-01  1.22069250E-01 -2.48983094E-02 -4.67138441E-01 -2.16541715E-01
  1.31177841E-01  1.22591379E-01 -1.02123161E-03 -3.85920702E-03  2.41703471E-02
 -6.01024809E-02 -1.44761558E-02 -8.99223643E-03 -3.02230616E-02  4.02884675E-02
 -2.15382298E-03 -3.85942684E-02  1.28347406E-03 -5.65771341E-03 -1.47359661E-02
  3.53647147E-02 -1.03457520E-03 -3.90739709E-03  2.44241891E-02 -5.99214117E-02
  1.45002065E-02 -9.13488971E-03 -3.00034357E-02 -4.03105678E-02 -2.14899972E-03
 -3.86032009E-02  1.35345070E-03  5.62746979E-03 -1.46506925E-02 -3.53899452E-02
  7.26268566E-02  5.04652946E-01 -9.10932127E-02 -1.15789944E-02  3.54548131E-02
 -3.64426887E-02 -1.41623069E-02 -7.32409108E-02  1.67061807E-01  2.93047999E-02
 -3.65008344E-02 -1.47853727E-02 -7.29539917E-02 -1.67013053E-01  2.95412017E-02
  7.26003711E-02  5.04698192E-01 -9.08217273E-02  1.16669246E-02  3.53928109E-02
 -9.01736062E-04 -3.45086050E-03  1.92156300E-02 -4.04934788E-02 -1.05250820E-04
 -9.74275464E-02 -4.10792832E-02  1.05358562E-03  3.32523808E-01  5.54931708E-02
 -1.83867287E-01 -6.36751000E-06 -3.31611841E-02  4.11803841E-05  9.78228659E-05
  3.81070660E-04 -5.05094429E-03 -2.87231286E-03 -1.19614001E-02 -1.50827535E-01
 -1.39561462E-01 -7.61717486E-02  8.02504778E-02 -1.74827125E-02 -9.58691855E-02
 -1.22041293E-01  2.99597131E-02  1.23181662E-03 -4.49084215E-04 -1.06565542E-03
 -6.28655158E-03 -2.61809505E-02  9.10605661E-03 -2.27642336E-01 -1.45669450E-01
  4.66007675E-02 -5.75062621E-02 -4.06996777E-02  7.02776320E-02 -8.77823296E-02
 -2.65443502E-02  6.54632935E-03 -2.17818377E-03 -6.55627391E-03 -6.55192036E-03
 -3.45400551E-02  2.27820931E-05  7.71072117E-02 -5.60392779E-02 -1.92072501E-03
  5.56908436E-01 -6.78908940E-02  1.66170093E-01 -6.38049733E-05  3.34914592E-03
  1.38266740E-04 -4.30041770E-04 -9.94815049E-04 -6.66431779E-03 -2.65163880E-02
 -9.17094588E-03 -2.27389728E-01 -1.42199217E-01 -4.73455953E-02 -5.72953428E-02
 -4.09558410E-02  7.02211850E-02  8.77070397E-02 -2.65068321E-02 -6.42525197E-03
  8.08384744E-05  3.25846713E-04 -4.96222182E-03 -2.85110071E-03  1.22448466E-02
 -1.50881813E-01 -1.35285348E-01  7.56778069E-02  8.01087044E-02 -1.74427737E-02
 -9.58798414E-02  1.21989746E-01  3.02196942E-02 -1.10063109E-03  4.11430213E-03
  1.51213016E-02 -4.20716061E-02 -5.25978970E-02 -1.35505819E-04 -1.00319459E-01
 -5.79381453E-02  1.19692672E-04 -8.17628633E-02  4.20472089E-02 -6.69386456E-02
  8.58357848E-05  2.03611628E-02  1.17692699E-06 -3.07465821E-03 -1.14325545E-02
  3.10792296E-02 -1.10553708E-02  2.25334774E-04 -2.19913985E-01 -7.92981960E-02
  8.68247608E-05 -5.34606850E-01 -4.80270629E-02  2.66011016E-02 -4.39892398E-05
  2.66545612E-02 -1.63534989E-04 -6.37814421E-03  7.84123484E-02 -2.73063059E-02
  2.74663024E-02  2.32088957E-01 -6.63110646E-03  7.84716672E-02 -2.80573268E-02
 -2.77368470E-02  2.31452113E-01  1.21566592E-03  4.48289637E-03 -2.60120870E-02
  1.03961211E-02  7.03443400E-04 -5.93853108E-02  1.83888116E-03 -1.65410865E-02
 -8.77805959E-03  1.12918109E-02  8.28245736E-03 -4.27848111E-02  2.71910235E-03
 -8.97909639E-03  1.20481440E-03  4.44434630E-03 -2.58219861E-02  1.05466415E-02
 -6.00447028E-04 -5.92919228E-02  1.95752695E-03  1.65660465E-02 -8.77799255E-03
  1.12165196E-02  8.26010721E-03  4.28173064E-02  2.71113030E-03  8.98941272E-03
 -1.29132811E-02 -1.56371205E-01 -6.47785388E-04  5.55694334E-03  2.52837139E-01
  1.43308933E-02  9.96008357E-02  1.37807472E-02 -1.36184795E-02  1.94193154E-01
  1.44359485E-02  9.89368575E-02  1.42160359E-02  1.42224975E-02  1.93948162E-01
 -1.28430600E-02 -1.53982150E-01 -6.48981229E-04 -6.99653063E-03  2.52943138E-01
 -2.22953783E-05 -7.72584049E-05  2.89171426E-04 -3.31039577E-04  8.01140264E-02
 -3.32879444E-05  6.90288746E-04  5.31380917E-01  3.80993244E-04  5.28821275E-05
 -1.15426149E-04 -6.07163458E-03 -3.28162852E-04 -4.83362714E-02 -2.71784442E-03
 -9.03383936E-03  1.24278973E-02  2.14607105E-02  5.71234135E-02  1.16060638E-01
 -3.40084731E-01  3.03469105E-01 -3.12710143E-02 -5.29965712E-02  7.72010681E-02
  6.13942466E-02  7.83755144E-03  3.90423050E-02 -1.39397487E-03 -3.99254804E-03
 -1.14593131E-02 -7.43543652E-03  1.65780206E-02  2.43474656E-01 -4.63597149E-01
  1.05344122E-01  8.15422341E-02 -5.21657015E-02 -7.84392620E-02  6.23642475E-02
  3.82642900E-02 -2.41436996E-02 -6.85860094E-06 -2.22894270E-05  3.56575841E-05
 -1.19268958E-04  8.60690717E-02  4.03237126E-05  5.60470324E-04 -1.77860540E-01
  3.13458085E-04 -7.70570107E-05  1.06217740E-04  3.20668732E-03  1.36384495E-04
 -4.92045959E-03  1.37906314E-03  3.94464726E-03  1.15471124E-02  7.01766769E-03
  1.66850354E-02 -2.43749049E-01  4.63115764E-01  1.04403996E-01 -8.15968433E-02
  5.21024833E-02  7.86181002E-02  6.23513158E-02 -3.85424606E-02 -2.42794722E-02
  2.73693807E-03  9.10774462E-03 -1.29141408E-02 -2.16481135E-02  5.71965351E-02
 -1.16159654E-01  3.39609691E-01  3.03854694E-01  3.13332126E-02  5.25599668E-02
 -7.72301174E-02  6.13958833E-02 -7.37897834E-03  3.92293866E-02  3.76845988E-05
  1.38656515E-04 -3.96246495E-04 -1.84239704E-04  5.55968000E-02 -1.03933828E-04
  1.39417919E-04 -7.84420136E-03 -2.21094644E-04 -1.77661385E-04 -8.01584636E-05
  2.01803212E-02 -3.31120662E-05  4.10474544E-02 -5.57455634E-06 -2.19349648E-05
  7.57033867E-05 -8.25067817E-05  3.45849136E-03 -1.28020347E-04  3.69025671E-04
  1.06193600E-01 -2.27563197E-04 -1.10931732E-04  8.21333082E-05  2.89476891E-02
  3.86026672E-05  2.00770736E-02 -1.75267040E-02  6.84269310E-02 -1.88672561E-02
 -2.41571388E-02 -4.21770297E-01  1.76037572E-02 -6.88845484E-02  1.87089600E-02
 -2.42056774E-02  4.22082692E-01 -8.52386190E-04 -3.08285656E-03  1.53220484E-02
  1.69139282E-02  4.66921009E-02  4.27025836E-02  2.77927529E-02  2.01384456E-02
  8.59168112E-03  3.11849897E-03 -7.52121426E-03  1.36054813E-02 -7.82771694E-03
 -9.85806193E-03  8.33531533E-04  3.01387489E-03 -1.49251894E-02 -1.66770718E-02
  4.63427515E-02 -4.26408824E-02 -2.77615274E-02  1.98039915E-02 -8.45030059E-03
 -3.05462215E-03  7.55598886E-03  1.36041579E-02  7.90964173E-03 -9.74438837E-03
  3.90691060E-02  1.70703424E-01 -6.29800795E-02  4.80536401E-03 -2.46310348E-01
  3.50520402E-02  3.72999749E-01  9.03755718E-02  1.40166392E-01 -3.47078031E-01
 -3.49372057E-02 -3.72245090E-01 -9.08550172E-02  1.40172012E-01  3.47212556E-01
 -3.90971587E-02 -1.71697608E-01  6.32487133E-02  4.83571952E-03  2.46686995E-01
 -1.99032670E-02 -7.12171753E-02  3.43269177E-01 -4.29411745E-01  9.13944842E-04
 -9.08219806E-03  7.78537801E-01  6.30906043E-03 -2.31366206E-02  8.71943976E-02
  9.10113574E-03  7.24730741E-05 -2.85511876E-01 -1.89148764E-03  8.85850841E-03
  3.06510499E-02 -1.19891727E-01  8.09656250E-03  7.62611929E-02  1.21088343E-02
 -4.19250618E-01 -4.77901929E-01  1.27107145E-02 -1.32849409E-01 -3.72799788E-04
  2.98840706E-03  1.18038187E-01  1.88953485E-02 -1.10146381E-02 -4.00961231E-02
  1.92436288E-01 -1.33642317E-01  1.02876959E-02 -7.96121233E-03 -3.40309646E-01
  2.07783955E-01 -1.49088235E-02  8.71631844E-02 -4.07056063E-03  6.37918159E-03
  1.00159684E-02  1.17785768E-02  8.09735192E-03  2.82356954E-02 -1.08271512E-01
 -4.61246101E-02  5.94377826E-04  7.83312363E-03  3.01717516E-02  4.82926518E-03
  2.79432283E-02 -4.64724286E-02 -2.44832789E-03 -1.13637322E-05  4.70845429E-02
 -1.37469549E-04 -1.10186720E-02 -4.01661733E-02  1.94244472E-01 -1.33512625E-01
 -9.26422144E-03 -6.17119743E-03 -3.34296246E-01 -1.93492214E-01 -1.43536779E-02
  9.06568098E-02 -4.72119944E-03 -6.98318740E-03  8.60754310E-03 -1.20825052E-02
  8.99290855E-03  3.10920626E-02 -1.20418297E-01  7.26124486E-03 -7.34123771E-02
  1.33334209E-02 -4.15917573E-01  4.89214193E-01  1.31855610E-02 -1.29432665E-01
  1.53749149E-04 -3.39509195E-03  1.17467155E-01 -1.80863787E-02  3.56148853E-02
  1.30668020E-01 -3.64557281E-01 -1.00030866E-01  8.45206526E-04  7.87160257E-03
  3.11869947E-01 -2.90154386E-04  6.07739126E-03 -3.38489931E-01 -5.51106913E-04
 -3.92800711E-04  3.88267067E-02  7.12585560E-04 -1.06506801E-03 -3.79530726E-03
  9.00226648E-03 -7.97102500E-02 -2.32469960E-04 -1.64077453E-02 -4.03682434E-03
  4.06879844E-04 -3.71577630E-02  1.66312261E-02  8.31394835E-03 -6.09006978E-05
 -4.50175626E-02  3.96753254E-04  2.33386536E-02  9.62347317E-02 -8.63873268E-02
 -1.12623023E-01  2.62309452E-02  2.33703609E-02  9.39092254E-02 -8.31015128E-02
  1.13412002E-01  2.39462260E-02 -9.67902840E-03 -3.56313903E-02  2.07558334E-01
  8.31582467E-02  2.48127583E-01  1.96073680E-04  4.51093819E-02  1.54220196E-01
 -1.71839098E-03  1.47527793E-03  3.61969683E-05  1.76156148E-03  1.31779186E-02
 -6.66253599E-02 -9.61647725E-03 -3.54041178E-02  2.06360609E-01  8.24026752E-02
 -2.46757114E-01  6.47539450E-04  4.39110313E-02 -1.53685199E-01 -1.54887388E-03
  1.61251608E-03 -1.03827424E-04 -1.82001393E-03  1.32568683E-02  6.63124933E-02
 -3.02117132E-02 -6.64496815E-01 -2.39551916E-01 -3.58764239E-01 -9.17109474E-03
 -1.56968682E-02  2.97237996E-01 -1.53242832E-02  1.40398280E-01 -1.13783225E-02
 -1.72624830E-02  2.78749787E-01 -1.47150533E-02 -1.37658891E-01 -1.42394181E-02
 -3.19529434E-02 -6.76307010E-01 -2.39860835E-01  3.58201663E-01 -1.07973807E-02
 -1.60376083E-04 -5.73122790E-04  2.76400053E-03 -3.51291070E-03 -1.29485972E-01
  4.91617520E-05  6.80517516E-03 -5.45834599E-01  2.35246441E-04  6.69608334E-04
 -1.08024557E-04 -6.66064945E-03 -2.35287632E-03  1.54496644E-01  8.08524075E-03
  2.65742575E-02 -3.34654366E-02 -6.11070344E-02 -1.32388479E-01  6.25408068E-02
 -7.58630200E-02 -6.21196219E-01 -5.76013703E-03  1.86582488E-01  3.15902691E-02
  3.04493122E-02 -3.64496416E-02 -4.59932219E-02 -1.14981551E-03 -7.07513003E-03
  1.09879961E-01  4.00694844E-02 -6.56792660E-02  9.66522136E-02  1.99557905E-01
 -7.94124111E-01  2.77628137E-02  2.05763631E-01 -2.96645731E-02  3.05104443E-02
 -8.11714022E-02  3.63572189E-02  6.14669146E-05  2.13730993E-04 -8.09867793E-04
 -3.63182863E-04 -7.97008191E-02  9.10657752E-05 -2.67695490E-04 -6.75099806E-01
 -1.41469534E-03 -4.25848452E-04 -2.26127367E-04 -5.08753682E-03  2.61631422E-04
  3.93333100E-02  9.69258721E-04  6.41712537E-03 -1.06690462E-01 -4.21778236E-02
 -6.57176815E-02 -9.60175152E-02 -2.05087113E-01 -7.97066672E-01 -2.68592613E-02
 -2.04240554E-01  2.96424704E-02  3.05051295E-02  8.13041532E-02  3.61114637E-02
 -7.94748172E-03 -2.60997139E-02  3.16605890E-02  6.11003233E-02 -1.33571662E-01
 -6.28944025E-02  6.86468269E-02 -6.13077190E-01  4.40461884E-03 -1.88651626E-01
 -3.16220929E-02  3.06682279E-02  3.83455885E-02 -4.61646804E-02  3.01245471E-04
  1.10581959E-03 -3.09787062E-03 -5.82181023E-04 -1.16726599E-01  6.55327191E-05
  2.67380822E-03  2.93390019E-02 -1.74860775E-05 -2.90917380E-03  1.12093934E-04
  9.22217859E-03  2.76368431E-04 -8.91062548E-02 -1.59153518E-06 -4.99433625E-06
  1.15608041E-05 -6.56965825E-04  5.13996406E-02  4.79696321E-04 -1.64541469E-04
 -1.13445351E-01  1.36265783E-03  1.59454958E-04 -9.81161866E-05 -4.64438678E-03
 -3.67068233E-04 -6.53739886E-02  1.88468772E-02 -1.77717690E-01  2.60948387E-01
 -7.57966661E-02 -1.04917260E-01 -1.83077757E-02  1.79567901E-01 -2.62437691E-01
 -7.34497152E-02  1.02748412E-01  3.21630907E-03  1.16487742E-02 -6.04753864E-02
 -4.85179740E-02 -7.98618019E-02  1.93814952E-02 -7.72193484E-02 -2.61738309E-02
  3.21227884E-03  3.58178492E-03 -3.46694056E-03  6.51928603E-03  1.30213006E-02
  2.48280244E-02 -3.39784907E-03 -1.23159324E-02  6.43315916E-02  5.00824042E-02
 -8.39813663E-02 -1.94017504E-02  7.80868751E-02 -2.87625092E-02 -3.10885537E-03
 -3.55190365E-03  3.50448607E-03  6.57226399E-03 -1.27340681E-02  2.59292979E-02
 -9.41938408E-02 -7.69465633E-01  5.04683436E-02 -6.56930981E-02 -1.18048044E-01
 -9.52755172E-02 -9.68048815E-01 -4.12862174E-02 -1.15532120E-01 -1.48244901E-01
  9.48808413E-02  9.72142163E-01  4.13313229E-02 -1.17917160E-01  1.47943848E-01
  9.35886925E-02  7.58178387E-01 -5.45923861E-02 -6.00082218E-02  1.18178768E-01
  2.35285461E-05  8.23330099E-05 -3.27666156E-04  3.14022858E-04 -2.56013654E-01
  1.34131731E-04 -6.58271761E-04  3.44255208E-01  1.04168175E-04 -1.02954027E-04
 -8.01411914E-05 -5.05059588E-03  2.81149227E-04  9.83355308E-02  6.12894244E-03
  2.41671025E-02 -1.52011941E-01  1.51819861E-02 -4.17561381E-02  2.80134438E-02
  1.77534461E-01  6.18209624E-01  4.57735826E-03 -2.55375932E-01  9.54466156E-03
  1.23215547E-02  3.42171750E-02 -1.12498998E-01 -4.81473774E-03 -1.56813066E-02
  1.59808351E-02 -3.80385730E-02  3.25681119E-02  2.70324576E-02  1.27005806E-01
  4.86912090E-01  4.11646766E-04 -2.30509732E-01 -6.56178895E-03  1.25558966E-02
 -2.34255809E-02  1.07641866E-01 -2.33475719E-05 -8.14674672E-05  3.14293420E-04
  1.07508540E-04 -1.92361847E-01 -2.00136177E-04 -1.84379396E-03  3.73413024E-01
 -7.30822356E-04  7.42511914E-06 -1.32577386E-04 -5.19103746E-03 -1.05652680E-04
  1.10626498E-01  4.83754727E-03  1.57601459E-02 -1.63310607E-02  3.83529970E-02
  3.25881008E-02 -2.64444162E-02 -1.25813415E-01  4.89180873E-01  8.23373732E-05
  2.30198063E-01  6.68581358E-03  1.25613055E-02  2.34371241E-02  1.07661900E-01
 -6.15748964E-03 -2.42723844E-02  1.52569764E-01 -1.53592722E-02 -4.16160565E-02
 -2.83895376E-02 -1.76369691E-01  6.17528534E-01 -4.72362364E-03  2.55906604E-01
 -9.32779510E-03  1.20863176E-02 -3.44755038E-02 -1.12325562E-01 -3.26693903E-05
 -1.20870728E-04  3.49921281E-04  2.31814618E-04 -1.67226584E-01 -1.35302226E-06
 -2.57834383E-04 -1.76965937E-01  2.23478060E-04  1.56570067E-04  2.93882379E-05
  3.24109649E-03  2.96546457E-05 -1.56562993E-01  8.81799843E-07  3.33042959E-06
 -4.08019977E-06  9.42307212E-05  3.33013745E-02  3.97179735E-04 -1.28823384E-03
 -3.29148203E-01  6.28700358E-04 -9.34726320E-05 -1.47117978E-04 -4.33127062E-02
  2.41482251E-04 -2.72529795E-02  4.07487123E-02 -2.22145793E-01  2.55396310E-01
 -1.53042884E-01 -2.33356994E-02 -4.07680458E-02  2.23748107E-01 -2.55024675E-01
 -1.53819250E-01  2.19364053E-02  2.55044721E-03  9.34095650E-03 -5.30316914E-02
 -6.03395366E-02 -9.78612905E-02  6.92854043E-03 -7.03647247E-02 -7.29984735E-02
  6.91742207E-04 -3.35729892E-02 -1.23986754E-03  2.46558631E-03  1.07391322E-02
  1.77407240E-02 -2.54427735E-03 -9.31773857E-03  5.28811891E-02  6.02798185E-02
 -9.74018789E-02 -6.84219432E-03  7.04980775E-02 -7.25090574E-02 -7.84339230E-04
  3.35096636E-02  1.12938276E-03  2.53921693E-03 -1.08209594E-02  1.76121854E-02
  1.71294474E-02  6.13309689E-01  2.70091195E-01 -1.12463491E-01 -4.88089081E-02
  1.15330968E-02  3.57943354E-01 -2.62628298E-01 -1.64186126E-01 -4.67325137E-02
 -1.15942673E-02 -3.60152841E-01  2.62922906E-01 -1.63249929E-01  4.69103566E-02
 -1.72512820E-02 -6.12559214E-01 -2.69602426E-01 -1.12976913E-01  4.93743451E-02
 -3.17387355E-03 -1.15378162E-02  6.15380221E-02  1.23125927E-02  4.90568553E-04
  1.04838134E-01  2.92834519E-01 -1.65838851E-03  3.69461978E-01 -3.56814654E-03
 -1.48911079E-01  2.89031966E-05  4.11184693E-02 -3.01502964E-04 -6.89777791E-05
 -5.79638784E-04  1.29040734E-02  2.60230164E-02 -9.64572721E-03 -1.72125433E-01
 -4.07021074E-02 -4.60800474E-02 -2.52456704E-01  5.21973382E-02  3.44277355E-03
 -5.30384725E-02 -3.68317060E-02 -3.25144738E-02  7.13801065E-04  2.29362791E-03
 -6.94841416E-03  5.82819714E-02 -1.89628591E-03  1.52166457E-01  1.50952321E-01
 -2.21469848E-01  2.38447955E-01  2.55016065E-02  4.90890532E-02 -5.61094542E-02
  3.83116587E-02  1.73038492E-02 -2.15440069E-03 -7.61017170E-03  3.39681290E-02
  7.34071432E-02  2.21586814E-04  2.72613273E-02 -5.25048333E-01  3.24139839E-03
 -7.07580287E-01  1.08822038E-03 -1.02871372E-01  4.19558795E-05 -9.83606883E-02
 -9.89331563E-05  6.98415279E-04  2.23147168E-03 -6.53017735E-03  5.84387177E-02
  2.08080548E-03  1.52394661E-01  1.48466218E-01  2.25774261E-01  2.38396417E-01
  2.58824327E-02  4.89451402E-02  5.59980716E-02  3.81061690E-02 -1.76681433E-02
 -3.16713948E-05 -4.48762144E-04  1.24806328E-02  2.57968183E-02  1.02840588E-02
 -1.71927016E-01 -4.42294425E-02  4.45435816E-02 -2.52403841E-01  5.23209882E-02
  3.55904570E-03  5.29333657E-02 -3.68544677E-02  3.29966171E-02  1.58564502E-03
  5.72560594E-03 -1.57190041E-02  7.10787869E-02  3.26594045E-04 -1.11753979E-01
  1.23463355E-01  3.16953002E-04 -8.17790226E-02 -1.14426220E-01  8.53138613E-03
 -1.02849841E-04 -5.34927190E-02  2.50886667E-04  5.64734007E-03  2.10293156E-02
 -5.60104256E-02  2.25408806E-02 -2.62923953E-04  2.88924384E-01 -1.94230473E-01
 -1.68028191E-04  8.65395487E-01  1.63076159E-02 -1.00019778E-01  2.05567277E-05
  3.96722184E-02  1.29244659E-04  3.94580831E-02  1.91052364E-01 -7.21395950E-03
 -4.54436761E-02 -6.74181228E-01  3.96046891E-02  1.90374942E-01 -5.78169440E-03
  4.65176527E-02 -6.74847677E-01 -5.13432682E-03 -1.88457368E-02  1.08755096E-01
  1.70811163E-02  3.49396383E-02 -1.81340362E-02  1.31973163E-02  5.62133788E-02
  2.17892011E-02 -1.11387253E-02  2.95959479E-03 -3.14109008E-02  5.67151513E-03
  4.57559790E-03 -5.12574358E-03 -1.88139749E-02  1.08575675E-01  1.69723158E-02
 -3.43553824E-02 -1.79699574E-02  1.29143624E-02 -5.60684864E-02  2.19004517E-02
 -1.12491746E-02  2.95044785E-03  3.13939809E-02  5.72600849E-03 -4.74925587E-03
 -2.49037086E-03 -4.49659715E-02  7.24306356E-02 -7.56277011E-02  2.32960879E-01
 -3.72879853E-02 -2.97543906E-01  2.70114035E-02 -1.20206358E-02  9.35135023E-02
 -3.76307416E-02 -3.00771866E-01  2.66412017E-02  1.24464543E-02  9.32384171E-02
 -2.77774253E-03 -4.59246713E-02  7.36268485E-02  7.60434628E-02  2.32714822E-01
  1.29378178E-02  4.65854220E-02 -2.12133698E-01 -7.65937433E-02  4.84563201E-05
  5.81015507E-02 -6.22945842E-01  3.10671510E-03  1.02647717E-01 -8.69352217E-02
 -4.55111863E-02  5.84106795E-05 -1.12304491E-01 -8.39906248E-04 -7.65928450E-05
 -2.84543703E-04  2.88922230E-03 -7.96201066E-02  9.42617166E-02 -4.17898847E-02
  4.81742005E-01  2.51266389E-01 -1.21984937E-01 -6.12693922E-02  7.08846301E-03
 -1.35818824E-02  1.11649099E-01  1.06091710E-01 -3.04341396E-03 -1.19405506E-02
  7.76982547E-02 -1.55234432E-01 -1.51940514E-03  8.74711486E-02 -9.70384347E-02
  4.49579829E-01  7.93058163E-02  4.23251637E-02  1.16299417E-02 -2.22411888E-02
 -7.37236040E-02 -1.12873030E-01  5.48602699E-03  1.63272934E-02  9.09859935E-03
  7.40874009E-03  9.90474678E-05  2.10273879E-02  1.45398285E+00 -2.33281668E-03
 -3.58681944E-01  1.00214224E-01 -6.96301753E-02 -5.16881445E-06  2.16067233E-01
 -2.70821263E-04 -3.07656628E-03 -1.20646621E-02  7.83470775E-02 -1.55858068E-01
  1.25154126E-03  8.78851172E-02 -9.27433621E-02 -4.51602963E-01  7.97424295E-02
  4.22995868E-02  1.15937265E-02  2.23069456E-02 -7.41001865E-02  1.12950954E-01
 -2.75347671E-05 -1.09013713E-04  2.21594397E-03 -7.96513108E-02 -9.33525677E-02
 -4.24655072E-02  4.87318554E-01 -2.47827832E-01 -1.22813831E-01 -6.15764634E-02
  6.87344575E-03  1.36169945E-02  1.11986213E-01 -1.06018918E-01 -6.52078804E-03
 -2.37791371E-02  6.72549179E-02 -1.05096723E-01  3.29914288E-04 -3.61309343E-02
 -1.48796903E-01 -1.73395842E-04 -2.27518155E-02  1.57724553E-01  1.67130652E-02
  3.46467240E-04  1.08947136E-01  5.04253116E-04 -7.41414721E-03 -2.75069095E-02
  7.13060230E-02 -5.33060958E-02  5.27106496E-05  1.41712888E-01  4.62428988E-01
 -2.71921571E-04  3.81723975E-01  1.64989518E-01 -7.22862843E-02 -1.01389817E-04
 -4.96146408E-02  4.54647017E-05 -1.11482865E-01 -6.92471775E-01  3.68081870E-01
  1.57122394E-02 -1.56271058E-01 -1.11425110E-01 -6.92100590E-01  3.68083500E-01
 -1.60727568E-02 -1.56908194E-01  1.05250182E-02  3.85979304E-02 -2.22838481E-01
 -6.85420430E-02 -3.93964664E-02 -2.17503279E-03 -3.49626060E-02 -8.52717844E-02
  1.09340818E-02  1.72884565E-03  1.19285312E-03 -9.47060105E-03 -2.00395036E-02
 -9.29880888E-03  1.05679421E-02  3.87542034E-02 -2.23699240E-01 -6.92847574E-02
  3.95394882E-02 -2.58466571E-03 -3.57077587E-02  8.57356026E-02  1.06820641E-02
  1.72441528E-03  1.23114189E-03  9.55412633E-03 -2.00025807E-02  9.27158109E-03
  2.30197957E-02  4.86259367E-01 -3.25679217E-01  2.08421786E-01  9.19487626E-02
  8.45559642E-02  5.50115250E-01 -4.32795530E-03 -1.39411136E-02  2.84169640E-02
  8.45871416E-02  5.48938681E-01 -3.99312419E-03  1.50716916E-02  2.82101153E-02
  2.27992162E-02  4.85432368E-01 -3.27378596E-01 -2.09611478E-01  9.24348825E-02
  5.00646154E-05  1.78268006E-04 -6.62833871E-04  3.27253729E-04  4.78209214E-02
 -5.37463585E-05  1.28402415E-03 -2.40996645E-01 -4.73509579E-04 -7.97822226E-05
  1.37107491E-04 -8.27784563E-02  4.62884808E-04 -1.10751758E-01 -3.29653493E-03
 -1.15895212E-02  3.82816680E-02 -2.22089175E-02  4.50632762E-02  2.88343064E-01
  2.53302301E-01 -6.33536275E-02  1.54925445E-01  2.11126037E-02 -5.44649105E-03
  1.06178577E-01  1.27137930E-03  8.44465216E-03  1.94443793E-03  7.36190847E-03
 -4.09016435E-02  2.83760572E-02  1.75445558E-02 -4.13429865E-02  3.56154399E-01
  2.37299580E-01 -1.51356283E-01 -2.00689592E-05  3.56662980E-02  9.53118489E-02
  7.24777173E-03 -1.19286490E-02  9.41098596E-06  3.84991296E-05 -2.65881243E-04
  5.73226732E-04 -2.59160535E-03 -6.45747091E-07 -3.66474412E-03  4.70496938E-01
  9.85544615E-04 -2.71111793E-04  9.42645540E-05 -1.08808006E-01 -4.88762396E-04
  5.93814660E-03 -1.92472118E-03 -7.29153434E-03  4.05621179E-02 -2.74873032E-02
  1.70923013E-02  4.09884282E-02 -3.54364563E-01  2.40943968E-01  1.50496485E-01
  1.51027616E-04 -3.58969606E-02  9.51320852E-02 -6.67787007E-03 -1.13579836E-02
  3.26416771E-03  1.14726499E-02 -3.77397554E-02  2.23713658E-02  4.50647137E-02
 -2.87971182E-01 -2.53859477E-01 -6.27914323E-02 -1.54322469E-01 -1.99449606E-02
  5.40154867E-03  1.05993389E-01 -1.28233214E-03  8.11555807E-03  2.49349885E-05
  9.15543770E-05 -2.64160307E-04  1.18066193E-03  9.99786027E-02  5.39076798E-06
  5.98199519E-04  3.19874922E-02 -8.20986587E-05 -4.59445553E-04 -3.18411961E-05
  1.92737163E-02 -8.17527605E-04  8.61879506E-02 -3.64165239E-06 -1.25259499E-05
  3.28844600E-05  1.87636153E-04 -1.78580502E-03 -2.55492610E-04 -2.14085976E-03
 -4.72589651E-02 -9.84556216E-04 -2.72346460E-04 -7.44193571E-07 -4.42690164E-02
  2.39800201E-04 -1.47227935E-02  2.84795101E-02  6.52322740E-02 -1.01008105E-01
  8.62743309E-02  6.28631572E-01 -2.86010872E-02 -6.25393485E-02  1.01557579E-01
  8.44271701E-02 -6.27602378E-01 -3.98710659E-03 -1.45139773E-02  8.04015538E-02
  5.46022730E-02  2.95794062E-02  4.39849568E-02  7.00823851E-02  2.33263998E-02
 -7.20450285E-03  3.89327706E-03 -8.05254150E-03  2.20325104E-02 -4.95992375E-06
 -1.64150732E-02  3.91220369E-03  1.42407563E-02 -7.88767830E-02 -5.44108234E-02
  2.85645297E-02 -4.38325324E-02 -7.02692427E-02  2.20802175E-02  7.26413294E-03
 -3.84947192E-03  8.08608192E-03  2.19302701E-02  5.57907039E-04 -1.62903227E-02
  5.54479580E-03  1.23281838E-01  4.89279188E-02  3.83683317E-02 -4.40289008E-01
  1.18077991E-02  1.01211856E-01 -9.62677478E-02 -3.34981994E-02 -4.92584535E-02
 -1.18277538E-02 -1.04516019E-01  9.75995497E-02 -3.29208379E-02  4.95119322E-02
 -5.38848772E-03 -1.23099561E-01 -4.76244507E-02  3.78010037E-02  4.39877379E-01
 -2.84850365E-02 -1.02107711E-01  4.02122839E-01 -1.67367891E-02 -4.32860423E-05
  9.15555849E-02 -5.11970523E-01 -5.98373495E-04 -1.13051672E-01  4.96797191E-02
  2.55355324E-02 -1.26565051E-04 -1.69595502E-01 -1.58674796E-04  4.62146027E-03
  1.69824046E-02 -8.39791640E-02  6.06654459E-02 -8.68257136E-02  5.73315351E-02
  2.71313251E-01  2.87306788E-01 -7.98649361E-02 -2.49513353E-01  1.34960437E-03
 -1.68112620E-03 -4.66590779E-02 -1.45488701E-01 -5.43388250E-04 -2.34191128E-03
  2.60723783E-02 -1.16410146E-01 -8.48218275E-02  5.29661221E-02  2.82596274E-03
  4.35444189E-01 -4.77921848E-02 -8.76352218E-02 -7.66338274E-04 -8.48255116E-03
 -3.49340018E-02  1.67929260E-01 -1.00616362E-02 -3.86792408E-02  2.31050489E-01
 -1.98696910E-01 -2.33679958E-04  6.73662349E-02  1.22799615E+00  7.64306135E-04
 -2.09138959E-01  1.62197344E-01 -2.39584174E-02 -3.40148256E-04  6.48974694E-02
 -2.69669375E-04 -5.73758464E-04 -2.45387741E-03  2.66045750E-02 -1.16496862E-01
  8.45390715E-02  5.32872569E-02  1.49592084E-03 -4.34321808E-01 -4.68528321E-02
 -8.71407098E-02 -1.19808268E-03  8.93683212E-03 -3.53652106E-02 -1.67587154E-01
  4.65187186E-03  1.70902281E-02 -8.43661274E-02  6.04237604E-02  8.67271705E-02
  5.59792541E-02  2.69798398E-01 -2.88057806E-01 -8.09470504E-02 -2.49520181E-01
  1.26458613E-03  2.40335732E-03 -4.64262054E-02  1.45454051E-01 -8.44834969E-04
 -2.85520426E-03  1.73844797E-03 -3.93254246E-01 -6.15060228E-04  6.32205505E-03
 -2.61257658E-01 -4.33254739E-04  1.21114409E-02  1.71523094E-01  5.45900004E-02
  2.99906880E-04  1.99815272E-01 -4.65603829E-05  6.67113673E-03  2.45081567E-02
 -6.92657260E-02  5.50619422E-02  1.33705184E-05  3.54955254E-02  9.02530358E-01
 -9.70466935E-04  1.79165363E-01  1.34689894E-01 -3.10504056E-02 -1.83964104E-04
 -7.20929406E-02  3.46690676E-05  8.08137274E-03 -5.25525298E-01 -1.73923334E-01
 -4.19935411E-01 -2.14756750E-02  8.14617884E-03 -5.23937932E-01 -1.73485201E-01
  4.19433892E-01 -2.44045483E-02  8.40973204E-03  3.06230346E-02 -1.70753096E-01
  1.64613922E-02 -1.57894621E-01  1.60971225E-02  5.53360531E-02 -2.01015379E-01
  1.27113811E-02  1.66839231E-02  1.64525044E-03  4.97595063E-03 -5.78142682E-02
  5.01649399E-03  8.39720447E-03  3.05778893E-02 -1.70515108E-01  1.64357515E-02
  1.57571781E-01  1.57460672E-02  5.55357435E-02  2.00912544E-01  1.25737382E-02
  1.67906206E-02  1.67867767E-03 -4.89917325E-03 -5.77492761E-02 -4.95797372E-03
 -3.30769922E-02  1.94330065E-01  6.97406167E-03 -6.55844364E-02  5.50544098E-02
 -4.86594027E-02  1.83552997E-01 -1.83103702E-01  3.75729860E-02  8.42211426E-02
 -4.85911573E-02  1.83137172E-01 -1.82965921E-01 -3.76115857E-02  8.41361374E-02
 -3.29578338E-02  1.94461145E-01  7.12293276E-03  6.54308170E-02  5.69853446E-02
 -2.84415968E-05 -1.02758709E-04  3.56242111E-04  8.63514521E-04  1.31925105E-01
 -4.94817000E-04 -1.15276714E-03  1.07409718E+00  1.70294461E-03 -4.32497224E-05
 -3.34244792E-04  1.66387673E-02  4.77574295E-04 -4.32169114E-01 -1.12919450E-02
 -3.92667889E-02  1.11447160E-01 -1.28838249E-01  1.71546239E-01 -5.85065187E-02
 -8.97497051E-01  7.13890477E-01 -3.39054678E-02  8.85526174E-02  3.72510891E-03
 -1.95017728E-02 -3.03086245E-02  1.18450190E-02  3.34260727E-03  1.30095281E-02
 -8.26100650E-02  1.70967836E-01  3.30277747E-02  1.72136290E-02 -4.17134685E-01
 -2.04292299E-01  3.35125993E-02 -2.30790040E-02 -6.83113280E-03 -1.65270117E-02
  2.53370875E-02 -1.08233971E-02 -3.09391226E-05 -1.10650871E-04  4.98181253E-04
 -5.49386646E-05 -1.44420375E-02 -5.46395684E-04 -5.66483292E-04 -4.79938084E-01
 -2.80413452E-04  3.92630133E-04 -1.00845032E-04  1.85369107E-02 -2.46712470E-04
  1.18809473E-01 -3.30841288E-03 -1.28874956E-02  8.20496842E-02 -1.70562304E-01
  3.33985649E-02 -1.69008882E-02  4.19758705E-01 -2.02683811E-01 -3.19981147E-02
  2.24247855E-02  6.78846575E-03 -1.67141458E-02 -2.53187389E-02 -1.13482072E-02
  1.12974088E-02  3.92923331E-02 -1.11641937E-01  1.29527854E-01  1.71910536E-01
  5.76013814E-02  8.99827666E-01  7.10915967E-01  3.42062991E-02 -8.88473119E-02
 -3.77525963E-03 -1.95476404E-02  2.95966094E-02  1.26938983E-02 -1.39514612E-05
 -5.13103392E-05  1.38819499E-04 -1.71542177E-04  4.30413270E-01 -5.56877783E-04
 -7.16517882E-04 -1.25108881E-02 -2.41387611E-04  3.50527809E-04 -5.48239607E-04
 -3.94604765E-03 -4.90537422E-04  3.46789452E-01  2.60826795E-05  9.62198888E-05
 -2.59713812E-04  3.48823510E-04  2.14232513E-02  1.97830918E-04  6.69510107E-04
 -7.57840753E-03  2.05537468E-04 -9.91577756E-06  2.81064575E-04 -2.03920864E-02
  6.40536388E-05 -2.25556234E-02  5.88083631E-02  1.67557508E-01  2.25750982E-01
  9.51394064E-02 -1.57101808E-01 -5.85961878E-02 -1.67490246E-01 -2.26857387E-01
  9.58027980E-02  1.57103988E-01 -1.76367149E-02 -6.41207902E-02  3.52464193E-01
  2.38642600E-01  1.06024563E-01 -9.02432223E-03  3.07578634E-01  9.56848289E-02
  1.70687071E-03  1.69077853E-02  1.71061178E-03 -4.79656046E-03  5.96142765E-04
 -6.46035741E-02  1.76402012E-02  6.41342262E-02 -3.52568703E-01 -2.38789327E-01
  1.06174313E-01  8.50545350E-03 -3.07476515E-01  9.60142048E-02 -1.97957026E-03
 -1.68212055E-02 -1.69133493E-03 -4.59485006E-03 -3.81171392E-04 -6.45501243E-02
  4.84745727E-03  3.03757183E-01  4.15577678E-01 -8.49204679E-03  9.11136816E-02
  2.97640713E-02  2.31749092E-01 -2.73261310E-01  4.26209188E-04 -8.26943787E-03
 -3.01512816E-02 -2.35149849E-01  2.72769672E-01  1.06803472E-03  6.49086481E-03
 -4.83601495E-03 -3.00670621E-01 -4.13883778E-01 -8.94981598E-03 -9.16086190E-02
 -5.72502606E-03 -2.03429128E-02  7.26354849E-02 -1.89673823E-02 -3.44835774E-04
 -3.84168266E-01 -1.34694934E-01  2.37484010E-04  8.60389501E-01 -3.45678499E-02
 -2.37306483E-01 -3.36431964E-05 -5.66019266E-02  5.87784216E-04  7.61144883E-04
  2.81182179E-03 -1.09906750E-02 -9.80639576E-03 -1.10814467E-02 -3.42816935E-01
  1.17908141E-01  1.15700196E-01  6.46574585E-02 -5.01254767E-02  1.47426067E-02
 -6.54324853E-03 -6.94884949E-03 -3.01197941E-02 -7.51008767E-04 -3.04132741E-03
  1.95173388E-02 -3.51841747E-02 -2.17807870E-02 -7.48929670E-03  7.34085738E-02
 -6.96939610E-02  5.06948181E-01  3.83370496E-04 -1.33815513E-03  3.68997444E-02
 -6.89713763E-03  2.94501698E-02 -1.41578927E-03 -5.79090402E-03  4.51820805E-02
 -3.71606664E-02  1.88357015E-04 -2.68028198E-01  1.12183142E-02 -4.78252030E-04
 -8.25565559E-02  5.91642741E-02 -8.64139142E-02 -2.37280849E-05  2.10659783E-02
 -4.19277405E-04 -7.48769824E-04 -3.03157566E-03  1.94505019E-02 -3.47275111E-02
  2.14437712E-02 -7.18618722E-03  7.37191660E-02  6.65812727E-02  5.07329173E-01
 -2.04590979E-04 -1.52714548E-03 -3.66903428E-02 -6.92886600E-03 -2.93839913E-02
  7.24250731E-04  2.68252050E-03 -1.06209407E-02 -1.03864558E-02  1.10689417E-02
 -3.43539824E-01  1.16837209E-01 -1.12453777E-01  6.43353880E-02 -4.95475450E-02
  1.46214616E-02  6.73075704E-03 -6.94276105E-03  2.99078119E-02 -4.49784490E-03
 -1.65297829E-02  4.67667360E-02 -1.32137909E-01 -8.90047079E-04 -1.11273951E-01
 -5.98171635E-02 -1.32667663E-04 -9.61982931E-02  3.57423196E-02 -2.61040635E-01
  1.36434288E-04  6.73160967E-02 -5.28776270E-04  1.85982736E-03  6.97336467E-03
 -2.02838471E-02 -5.38249925E-03 -4.15693545E-05  1.09174737E-01  4.75186718E-02
 -3.01501818E-04  1.78191095E-01  3.19395763E-02  1.46515129E-01 -3.76211799E-05
 -1.47400682E-02 -4.99905664E-05  1.34439730E-02 -1.86290005E-02 -2.63161048E-02
 -5.08331610E-02 -1.24088721E-01  1.37925966E-02 -1.67809282E-02 -2.51638242E-02
  4.98984415E-02 -1.25668540E-01  3.34478461E-03  1.21975456E-02 -6.77952950E-02
 -1.43250387E-02 -6.52619596E-02 -9.60109460E-02  1.46251877E-02 -6.46021921E-02
 -4.40808711E-02 -8.62387346E-03 -7.70022732E-03 -4.82043030E-02 -3.05676968E-02
  1.41200738E-02  3.29273144E-03  1.20081828E-02 -6.67483798E-02 -1.36826450E-02
  6.47228821E-02 -9.63236508E-02  1.53498651E-02  6.40700577E-02 -4.42665042E-02
 -8.63538346E-03 -7.65358157E-03  4.82590786E-02 -3.05860635E-02 -1.39984841E-02
 -8.75666885E-03  8.20208162E-02 -4.23764969E-02  1.40317093E-04 -9.35799562E-02
 -1.16689974E-02 -9.58911460E-02 -2.30463863E-02 -8.19743837E-03 -5.01924515E-01
 -1.14104692E-02 -9.34998637E-02 -2.41145915E-02  9.00334434E-03 -5.02124604E-01
 -8.89287283E-03  7.89884247E-02 -4.23427479E-02 -6.54707784E-04 -9.27726469E-02
  2.41843969E-05  8.68841569E-05 -3.71998987E-04  4.41043282E-04 -1.39832770E-01
  1.60428903E-04  9.27806480E-04  3.81994041E-01 -3.12682821E-04 -2.90364288E-04
 -4.84270248E-06 -5.34869359E-04  3.97368741E-04 -1.74593513E-01 -1.20697640E-02
 -4.48265936E-02  2.22109267E-01  1.56769627E-01  3.18849875E-02  1.08447936E-02
 -7.05834731E-01  1.95323729E-01  4.76654460E-03 -6.76575382E-03  8.16030239E-04
  1.43872429E-03 -1.63635673E-01 -4.94838471E-02  1.70337584E-02  6.15694181E-02
 -2.53167052E-01  5.47788730E-02 -2.27734274E-01 -3.81309100E-03 -7.49456547E-01
 -4.67440689E-01 -1.36202210E-03 -9.72459691E-02 -3.49418915E-03  6.97571915E-04
  1.58810763E-01  1.39952519E-01 -6.57929921E-06 -1.82154729E-05 -2.77858680E-05
  1.24665506E-04 -2.12716008E-01  1.62735455E-04 -3.76884358E-03 -6.48617103E-01
  3.36112767E-04 -7.65465951E-05  1.07075862E-05  5.92622707E-03 -7.09055900E-04
 -3.58816419E-01 -1.70125699E-02 -6.14915768E-02  2.52770494E-01 -5.41853531E-02
 -2.27831747E-01  4.21549307E-03  7.49724089E-01 -4.64780866E-01  4.97685969E-04
  9.72801489E-02  3.67159230E-03  6.18446015E-04 -1.58446131E-01  1.40028077E-01
  1.20355291E-02  4.47012164E-02 -2.21510805E-01 -1.56763134E-01  3.20242410E-02
 -1.03477545E-02  7.04608356E-01  1.95878117E-01 -5.50234129E-03  7.49285113E-03
 -9.04503568E-04  1.21693264E-03  1.63272603E-01 -4.94719748E-02 -2.72382727E-05
 -1.01557872E-04  3.14466514E-04  4.66332723E-04  8.52760561E-03 -7.09279210E-05
  2.94455015E-04 -5.59091466E-02  6.65889688E-05 -2.64138587E-04  1.50076868E-04
  2.53886895E-03 -4.17472584E-04  4.81907718E-02  1.07941918E-05  4.02469515E-05
 -1.01469815E-04  1.38717986E-04  7.79107828E-02 -3.65171228E-04 -1.80772508E-03
 -5.70969680E-01 -1.28102826E-03 -3.59591530E-04 -3.80492852E-05 -7.57232152E-03
  1.94305470E-04  2.89666147E-02 -1.34836160E-01 -1.13592580E+00  1.54505811E-01
 -5.93178695E-01  8.03186557E-02  1.35148939E-01  1.13927923E+00 -1.55679949E-01
 -5.93953803E-01 -8.00460963E-02 -4.06278091E-03 -1.50027807E-02  8.81780959E-02
  7.01921865E-02 -2.00998917E-02  3.20785462E-03  5.06900868E-02 -1.85090451E-02
  3.10190010E-04 -5.35792451E-03 -7.55974344E-04  1.43848667E-03 -1.34435406E-02
  8.84694979E-03  4.03565223E-03  1.49032599E-02 -8.75953228E-02 -7.02587438E-02
 -2.02337467E-02 -3.19178984E-03 -5.07128682E-02 -1.88143926E-02 -2.58386107E-04
  5.20498427E-03  7.94598992E-04  1.50280437E-03  1.34185331E-02  8.67075302E-03
 -4.18369785E-02 -4.07315654E-01  1.66145724E-01 -3.67905899E-01 -2.05503263E-02
 -6.28510819E-02 -8.06217749E-02  1.82226407E-01  2.77743478E-01  9.47654247E-03
  6.26907166E-02  7.80714957E-02 -1.81656059E-01  2.77976338E-01 -9.10150088E-03
  4.16839969E-02  4.05845617E-01 -1.65817238E-01 -3.67908478E-01  2.06719049E-02
  2.14012072E-03  7.51988865E-03 -2.11613707E-02  1.82971236E-01 -2.85852855E-04
 -3.33048684E-02 -1.45866674E-01  2.12236527E-03  1.95230230E-01  2.66272520E-01
 -8.78905138E-02 -1.36565710E-04  1.48625385E-01  3.22896688E-04  7.29440925E-03
  2.78705905E-02 -1.77834519E-01  9.36587350E-02 -4.15776018E-02 -5.13921658E-02
 -7.60296603E-02  8.50891669E-03 -1.25281731E-01 -7.34233446E-02  3.69746450E-03
 -1.42939940E-04 -2.47352715E-02  3.87314254E-02  5.80987212E-03  2.29937529E-02
 -1.35344622E-01  4.40862910E-03 -3.86671583E-02  1.14393358E-01 -2.36436795E-01
  1.04682752E+00  1.02099053E-01 -4.79302627E-02 -1.14114175E-04  1.33258031E-02
 -6.11903547E-02  2.95123306E-02  2.50357475E-03  8.14862294E-03 -4.16799938E-02
 -1.29174570E-01 -9.80590010E-05  1.80872033E-02  1.98098237E+00 -3.22540641E-03
 -2.87497480E-01  1.16900788E-02 -9.28876450E-02  1.02148118E-04  2.03705642E-01
 -2.79728356E-04  5.81902439E-03  2.30274040E-02 -1.35527652E-01  4.83503674E-03
  3.84101447E-02  1.14810472E-01 -2.31064126E-01 -1.04746109E+00  1.02280729E-01
 -4.76126967E-02 -2.73092416E-04 -1.34197007E-02 -6.11461421E-02 -2.92625661E-02
  7.26806185E-03  2.77791325E-02 -1.77555491E-01  9.33135098E-02  4.12275369E-02
 -5.13892689E-02 -7.11198372E-02 -8.59486777E-03 -1.26092655E-01 -7.30533031E-02
  3.48490865E-03 -7.48825051E-05 -2.49610091E-02 -3.88792366E-02  3.10715961E-02
  1.14973239E-01 -3.42320706E-01  4.30474749E-01  3.55573161E-06 -4.60348407E-02
 -6.09667399E-02 -2.82595020E-04 -2.07473811E-02  8.04052848E-02 -2.54521558E-02
 -6.20643240E-05 -1.79144171E-01 -4.27622393E-04 -1.66112384E-03 -6.19318583E-03
  1.01905507E-02 -3.46918433E-02 -8.44813563E-06  4.06084852E-02  1.00531111E+00
 -2.95553570E-04  1.66734984E-01  1.24559626E-01  3.96482137E-03 -6.41083941E-06
 -1.70790814E-01  9.44811229E-05 -4.90758278E-02 -8.98232082E-01  1.30378278E-01
 -2.89608469E-01  9.91819003E-02 -4.88847192E-02 -8.97165722E-01  1.30635245E-01
  2.88500213E-01  1.00024231E-01 -8.89832017E-03 -3.22429402E-02  1.69305073E-01
  1.20050585E-01  2.36979145E-01 -2.46295909E-02 -4.47440961E-02  1.49991127E-01
  3.23823808E-03  1.06901516E-01  2.49525610E-03 -1.96279191E-02  1.61080402E-01
 -1.14560726E-01 -8.92160462E-03 -3.23277203E-02  1.69788055E-01  1.20695837E-01
 -2.36852445E-01 -2.42223905E-02 -4.42970668E-02 -1.50424509E-01  3.49573993E-03
  1.06905460E-01  2.36301998E-03  2.00045864E-02  1.60863184E-01  1.14871155E-01
  5.77334663E-02  2.46655275E-01  2.69824821E-01  3.88547483E-02  9.85355445E-02
  5.27505518E-02  9.69793530E-01 -1.62614059E-01  1.95772613E-01 -1.27702993E-01
  5.28542780E-02  9.68671650E-01 -1.63039745E-01 -1.95365839E-01 -1.28610136E-01
  5.78407126E-02  2.49338904E-01  2.69796126E-01 -3.99578608E-02  9.89152397E-02
 -2.89260252E-03 -1.08100164E-02  5.64779671E-02  3.83570650E-02 -1.65581330E-04
 -4.06767658E-02 -1.52218160E-01 -1.03976484E-03 -2.04432407E-01  4.40138319E-02
  2.11807513E-01 -1.22477114E-04 -3.51805308E-03 -8.63662448E-05 -1.18452531E-03
 -4.47637538E-03  2.88001206E-02  9.58962196E-02 -1.34355267E-03  2.24167402E-04
  1.85694430E-01  1.28303984E-01  4.43412324E-01 -6.03885141E-02  8.24625213E-03
 -1.44624826E-02  7.25833223E-03 -1.43979356E-02  1.35720857E-03  4.48125805E-03
 -7.14391728E-03 -2.05041925E-02 -1.22387859E-02 -4.02510776E-01  7.21678834E-02
  1.11434276E-01  7.56652154E-03 -5.72393962E-02 -5.80975485E-03 -5.38629048E-02
  2.57110592E-02  1.78265702E-03 -6.61189890E-03 -2.41700492E-02  1.20093066E-01
  9.31786826E-02 -3.94191347E-04 -2.05357736E-01  4.19080526E-01  6.05030389E-04
  4.59910284E-01  9.48161901E-02  2.09866559E-01 -6.03757529E-05 -1.16836262E-01
 -2.64203262E-04  1.32758098E-03  4.37722963E-03 -6.80343747E-03 -2.03441885E-02
  1.17779001E-02 -4.02535504E-01  7.01029601E-02 -1.12970575E-01  7.50832682E-03
 -5.71076856E-02 -5.79073364E-03  5.38576649E-02  2.55542191E-02 -1.61138893E-03
 -1.17715422E-03 -4.44618013E-03  2.85511984E-02  9.55747311E-02  1.26525625E-03
  4.02285943E-04  1.83532100E-01 -1.28641119E-01  4.43133797E-01 -6.00732479E-02
  8.40308112E-03  1.43871719E-02  7.43558045E-03  1.41395938E-02  1.13986844E-02
  4.22619568E-02 -1.26475669E-01  8.92745633E-02  1.88919145E-04  1.03993746E-01
 -5.87746382E-02  2.18126913E-07  2.33168514E-02  5.76981568E-02 -4.24294152E-02
 -1.01297953E-04 -9.58960006E-03  2.40714564E-05  4.79127065E-03  1.76613748E-02
 -5.01462481E-02  1.25824540E-01 -9.63917213E-05  9.49525036E-02  3.24085361E-01
 -1.91249033E-03  1.64797240E-01  4.58377187E-02  1.75448053E-02 -1.61664387E-04
  1.09513073E-01  1.90727919E-06 -3.84422371E-02 -2.61450074E-01  5.45303306E-03
 -6.62706414E-02 -4.16156624E-01 -3.81337550E-02 -2.57201498E-01  4.19866516E-03
  6.52842874E-02 -4.15846509E-01 -7.90954431E-04 -2.85255213E-03  1.16096364E-02
  4.03891634E-02  7.38293286E-02  4.78885221E-02 -1.24287183E-02  1.91484497E-02
 -3.61809942E-02  4.21714989E-02 -1.97055767E-02  5.32121830E-02  4.49339326E-02
 -4.65679430E-02 -7.83534557E-04 -2.82549134E-03  1.14561118E-02  4.02936420E-02
 -7.37809070E-02  4.79817405E-02 -1.24549112E-02 -1.91020925E-02 -3.60976220E-02
  4.21755255E-02 -1.97598377E-02 -5.31184967E-02  4.49153221E-02  4.67040615E-02
  1.18413419E-02  2.26912015E-01 -8.69454737E-03  2.87868845E-02 -4.45754934E-01
 -9.66986692E-03 -3.16520683E-02  7.03028350E-02 -6.44114277E-02  2.60197768E-01
 -9.55737150E-03 -2.94734885E-02  6.99986786E-02  6.40835095E-02  2.60167665E-01
  1.19248544E-02  2.26279811E-01 -8.30685976E-03 -2.84638090E-02 -4.45785297E-01
  7.55455429E-03  2.91447775E-02 -1.73331882E-01  4.13845493E-02 -7.71192306E-05
 -6.56999155E-04  8.69228822E-02 -2.91750541E-03 -9.39606556E-02  6.15025673E-02
  7.87775994E-02 -2.51249766E-04  8.93335194E-02 -1.47413529E-04  1.29325992E-02
  4.92964923E-02 -3.09697365E-01 -2.31128359E-01 -2.25085111E-02  4.04911819E-03
 -2.96428965E-01 -2.06326634E-01  1.37215105E-01  4.16557557E-02  5.02529329E-04
 -6.29630968E-03 -2.02378745E-02  4.27696160E-02  3.13461526E-03  1.51122829E-02
 -1.59900136E-01 -3.67731248E-02 -9.03572990E-02 -1.43432062E-01 -5.46041621E-01
  9.19657872E-01 -1.18283329E-02  1.81841002E-01  2.35651181E-03 -1.08921397E-02
 -2.17984217E-01  3.79030654E-02  1.23315530E-02  4.49927676E-02 -2.43150338E-01
 -3.18641988E-01 -1.17839131E-04 -2.71486166E-02  1.38868531E+00  2.19670365E-03
  8.13563114E-02 -1.09557425E-01  2.56256023E-02 -2.18929783E-04  5.25196284E-01
 -4.75149743E-04  3.12412165E-03  1.50753038E-02 -1.59760834E-01 -3.69139042E-02
  9.00285713E-02 -1.43686147E-01 -5.50822082E-01 -9.17464343E-01 -1.25829556E-02
  1.82160743E-01  2.32361903E-03  1.11384924E-02 -2.17972244E-01 -3.75059644E-02
  1.29523206E-02  4.93688582E-02 -3.10054303E-01 -2.31204713E-01  2.26103818E-02
  4.14555292E-03 -3.01314978E-01  2.03969718E-01  1.38087208E-01  4.19926896E-02
  8.34128176E-04  6.49027950E-03 -2.01633618E-02 -4.30522204E-02 -1.19187932E-02
 -4.41489289E-02  1.29472944E-01  8.90805677E-03  6.16345552E-04  3.90326409E-02
  6.10554633E-02  4.23385147E-04  7.30655941E-03 -6.75634395E-02 -3.86006274E-03
 -2.02625764E-04 -5.29054895E-02  3.60195981E-04 -1.29978472E-02 -4.88716652E-02
  1.44137151E-01 -3.45668063E-01  9.69612501E-05  3.23991322E-02  3.97560739E-01
 -1.27657341E-03  1.83129586E-01  2.20703769E-03  9.78018358E-03  1.79790846E-05
 -2.62783110E-01  1.01236555E-04  4.76528983E-02 -3.57253571E-01  1.29668035E-01
 -4.31616816E-01 -1.53046965E-01  4.76505265E-02 -3.55502004E-01  1.29229387E-01
  4.31232772E-01 -1.54412258E-01 -8.74279345E-04 -2.93188854E-03  1.58034730E-02
 -4.28964944E-02 -6.02347117E-02  1.91644453E-02  2.81731958E-03  1.28520925E-02
 -1.04245295E-02 -4.21431489E-02 -5.67353922E-03  1.91968803E-02 -1.90403941E-02
  4.44601968E-02 -8.41966834E-04 -2.81432920E-03  1.51460635E-02 -4.33282370E-02
  6.05483190E-02  1.92927800E-02  2.20296611E-03 -1.25985782E-02 -1.03439027E-02
 -4.22336586E-02 -5.64650551E-03 -1.93832735E-02 -1.89734327E-02 -4.47715989E-02
  2.64266939E-02 -1.70380628E-01  1.01275227E-01  6.40091985E-03 -1.27022559E-01
  8.36761152E-02  1.15139618E+00 -4.04937352E-01  3.52225808E-01  1.17727350E-01
  8.38140002E-02  1.15220211E+00 -4.04221581E-01 -3.52856161E-01  1.18538103E-01
  2.65421835E-02 -1.70219947E-01  1.01856370E-01 -5.96353135E-03 -1.27492820E-01
  7.82411417E-06  2.85238291E-05 -1.56197204E-04  4.42439018E-04 -1.62221431E-01
  2.78713009E-04 -3.23158342E-04  2.33165930E+00 -5.64247779E-04  1.92073580E-04
  3.34198559E-04 -4.18289250E-04  5.99146396E-04 -1.06136959E-01  6.17919164E-03
  2.34654449E-02 -1.08608724E-01 -7.17013192E-02  1.09530266E-01 -2.17634105E-02
 -4.93744455E-01  3.24835201E+00 -2.89366573E-02 -1.34715191E-01 -4.18884898E-03
  1.33914115E-03  4.66513228E-02 -3.45684276E-02 -7.33448089E-03 -2.60776492E-02
  6.66262645E-02  1.80121434E-02  1.54499367E-02  2.25402570E-02 -4.12440487E-01
 -2.86191718E+00  3.09829978E-02  2.26780143E-01  2.00451603E-03  2.90025227E-03
 -3.31204103E-02 -9.06142940E-02 -1.89248304E-05 -6.45410474E-05  1.74956216E-04
  1.05762125E-04  3.09284610E-01  2.57129865E-04  2.59867040E-04 -1.93389324E+00
  1.77641824E-04  1.42755235E-04  1.22757133E-04 -8.57761419E-03 -1.50565936E-04
  3.76535989E-02  7.37162443E-03  2.62208320E-02 -6.75701477E-02 -1.77133676E-02
  1.57393781E-02 -2.26386821E-02  4.11490453E-01 -2.86330549E+00 -3.30926442E-02
 -2.27170220E-01 -1.94705061E-03  2.83758625E-03  3.30030896E-02 -9.07497936E-02
 -6.17351209E-03 -2.34415494E-02  1.08438732E-01  7.20111275E-02  1.09737144E-01
  2.26954868E-02  4.95863015E-01  3.24759290E+00  3.06031552E-02  1.35000741E-01
  4.12041907E-03  1.05013757E-03 -4.71462722E-02 -3.41756941E-02 -7.11599175E-06
 -2.75997753E-05  1.00033642E-04  4.02966162E-04 -5.28816148E-02  4.28109669E-06
 -2.11718091E-04 -3.74552132E-01  4.79525451E-04 -7.24995573E-05 -5.63662921E-06
 -7.21108673E-03 -2.41658857E-04 -4.37971795E-02  1.30175309E-05  4.74002473E-05
 -1.25182974E-04  1.59577506E-04  3.53585364E-02 -9.87211831E-05  1.03387995E-03
  9.59759361E-01  4.43345245E-04 -7.82571861E-05  1.99159598E-05  7.74690728E-02
  1.57066801E-05 -3.42129034E-02  1.84674062E-02  8.67528251E-01 -3.40299370E-01
  3.08131458E-01 -5.80167679E-03 -1.83126149E-02 -8.68203286E-01  3.40003881E-01
  3.08744905E-01  6.06678706E-03 -4.79026751E-03 -1.71538678E-02  8.82393258E-02
  2.78334094E-02 -6.13026022E-02 -7.48931906E-03  6.96045755E-02 -4.88146300E-02
 -4.05060480E-04 -7.34483343E-02  2.06496606E-03 -4.02959827E-03  9.31424877E-03
  2.59377466E-03  4.77961548E-03  1.71158779E-02 -8.80446917E-02 -2.79056778E-02
 -6.15091722E-02  7.60779431E-03 -6.94088754E-02 -4.86520301E-02  1.29914231E-04
  7.33814912E-02 -2.29820037E-03 -4.00898760E-03 -9.24565415E-03  2.64370440E-03
  9.59354554E-02  2.38090361E+00  4.46639608E-01 -3.47954511E-02  4.58883381E-02
 -6.30159375E-02 -1.90408487E+00  1.38330256E-01  5.12660688E-02 -5.49419935E-02
  6.30393788E-02  1.90452810E+00 -1.38315346E-01  5.10865357E-02  5.60222231E-02
 -9.58972159E-02 -2.37983361E+00 -4.45534396E-01 -3.47600898E-02 -4.46344345E-02
  5.68339297E-05  1.91904871E-04 -4.84019018E-04  8.75752751E-04 -9.55973224E-03
  8.36668700E-05  1.47744731E-04  2.11123966E-01 -3.82729482E-04 -1.77246431E-03
  2.90658477E-05  8.38855352E-02 -1.10759704E-04 -5.03650835E-03  1.15429429E-03
  4.31429799E-03 -2.08899175E-02 -1.76046846E-02  1.15908551E-02  2.25552393E-01
 -5.04222281E-02  2.79111130E-01  2.62030770E-01 -1.24191170E-02  1.09012343E-01
 -7.88055298E-02  1.35282747E-02 -2.45050841E-03 -1.56131805E-03 -5.69395356E-03
  2.38956306E-02 -2.10959771E-03  1.48283146E-03 -2.71955014E-01 -3.86272775E-02
 -2.52418732E-01 -2.84273970E-01  2.64781015E-02 -1.24106947E-01 -1.03513577E-01
 -1.38672493E-02 -1.08326513E-02 -2.20598185E-05 -7.92771502E-05  3.72879158E-04
 -1.34130395E-04  2.84560977E-02  5.86766702E-05 -8.60263653E-03 -1.66170231E-01
  5.74818930E-04  4.75487702E-04  2.57477391E-04  2.02961662E-01 -6.85761377E-05
  2.03678641E-02  1.51704815E-03  5.52063523E-03 -2.30216219E-02  1.55952124E-03
  2.06356535E-03  2.71734085E-01  4.12477524E-02 -2.43635810E-01  2.83875312E-01
 -2.56617996E-02  1.23995757E-01 -1.03409761E-01  1.33324172E-02 -1.13873739E-02
 -1.19563139E-03 -4.48575312E-03  2.24480355E-02  1.57193444E-02  1.03829912E-02
 -2.25023339E-01  4.75960053E-02  2.79466834E-01 -2.61494474E-01  1.22082941E-02
 -1.09302994E-01 -7.87065821E-02 -1.30111183E-02 -2.72631633E-03  3.37058333E-06
  1.46230623E-05 -5.32002249E-05  9.34421109E-04  1.23192768E-02  6.02423940E-05
 -6.26894169E-04 -2.35022750E-02 -1.88202146E-04  9.12896334E-04  3.82107318E-05
  1.35433053E-01 -4.01581373E-04  4.19334188E-03  2.14374159E-05  8.06652113E-05
 -2.01541482E-04 -2.84188198E-04 -2.56718830E-02 -1.66058820E-04 -3.97360838E-03
 -6.71451334E-02 -4.27120084E-04 -2.01457057E-04 -2.18572537E-05  6.27276344E-02
  2.82627247E-04 -1.43940613E-02 -1.15551232E-02 -1.08479660E-01  5.41702294E-02
 -3.82342291E-02 -2.16572987E-01  1.25753017E-02  1.17681523E-01 -5.64019402E-02
 -3.86509058E-02  2.15554955E-01 -6.05589400E-04 -2.17390285E-03  1.12300752E-02
  4.09556459E-03  2.29344994E-03  1.20163292E-01  1.10524353E-02  1.98200038E-03
  1.98538374E-02 -4.06028855E-03 -3.69040948E-02  5.81523664E-02  1.57630476E-03
 -3.60469855E-03  6.30673540E-04  2.26417426E-03 -1.18022104E-02 -3.96916417E-03
  1.97893914E-03 -1.19848951E-01 -1.18165670E-02  1.35139456E-03 -1.97125611E-02
  4.58099163E-03  3.69159184E-02  5.80328397E-02 -9.97738110E-04 -3.46024742E-03
  8.21618384E-03  2.07332426E-01  2.81752407E-02  8.91834641E-03 -5.44590494E-01
 -4.60572900E-03 -1.68925414E-01  3.46964839E-04 -2.79157184E-03  6.96315642E-01
  4.03798820E-03  1.61478571E-01 -2.15957415E-03 -1.77451381E-03 -6.95985118E-01
 -8.75068456E-03 -2.10547386E-01 -2.85933102E-02  8.41812608E-03  5.44231921E-01
 -1.53584566E-02 -5.11760726E-02  1.16232486E-01 -2.14033709E-01 -2.36624915E-05
 -1.26138899E-02  1.95029608E-01 -9.43119886E-04  4.28930188E-02  4.80325586E-01
 -4.42852598E-03 -1.82692182E-04  2.90298144E-02 -2.50730293E-04  7.46735938E-03
  3.04176643E-02 -2.58343099E-01  2.01745584E-01 -1.99331535E-01 -6.69799105E-03
  4.16548392E-01 -8.13659633E-02  8.43680891E-03  4.79101743E-02  1.71090552E-03
 -3.79443319E-03 -1.44726265E-01 -7.46607302E-02  8.33447816E-03  3.24647106E-02
 -1.75765783E-01  8.43197093E-02  4.78118433E-02 -6.20064852E-03 -3.98283901E-01
  1.14815410E+00  3.49849327E-02 -1.04314901E-01 -1.13163878E-03 -4.74906723E-03
  2.87131034E-02 -3.00042344E-02  2.94391860E-03  1.07036932E-02 -5.10449088E-02
 -3.89766238E-02 -1.70232021E-04 -1.41354281E-02  2.19977371E+00  3.29455733E-04
 -8.69881642E-02 -1.24967093E-01 -9.69019783E-03  7.75184179E-04  9.25460129E-02
 -1.60656153E-04  8.33724067E-03  3.24769454E-02 -1.75852606E-01  8.45509491E-02
 -4.82702140E-02 -4.28920274E-03 -4.02618435E-01 -1.15123321E+00  3.66386875E-02
 -1.04490346E-01 -2.11007557E-04  4.24621720E-03  2.89166128E-02  3.01384512E-02
  7.46784380E-03  3.04181477E-02 -2.58352096E-01  2.02160417E-01  1.99284973E-01
 -8.43882846E-03  4.12470882E-01  8.35019046E-02  6.98335074E-03  4.82507374E-02
  1.35486513E-03  3.57110269E-03 -1.44957646E-01  7.45316342E-02 -5.42722924E-03
 -2.07699491E-02  6.33184855E-02 -2.46970831E-01  2.96293574E-04 -4.87579418E-03
  3.22059620E-01  3.51264481E-05  2.03973424E-05 -3.58976268E-01 -1.48708024E-02
 -8.55899629E-05  3.08292205E-02  2.13537482E-04 -6.12880997E-03 -2.31797058E-02
  6.14356222E-02  2.47261516E-02 -2.07865773E-04  3.06191894E-02  1.00065402E+00
 -2.15600810E-03  1.21161905E-01  2.20076287E-02 -3.44482458E-03  1.90072682E-04
 -9.48666418E-02 -9.25212799E-06 -1.00399169E-01 -1.14513648E+00  2.55976514E-01
 -1.09577451E-01  5.77277402E-02 -1.00047590E-01 -1.14041394E+00  2.54316677E-01
  1.07856663E-01  6.05145095E-02 -7.34453337E-03 -2.70002656E-02  1.73933847E-01
 -2.03258441E-02 -5.06729189E-02 -2.49514192E-03  9.44988046E-02 -2.59674522E-02
 -3.84834857E-03 -9.94858576E-02 -3.16972175E-03  2.97303758E-04 -1.00277196E-01
  6.31596763E-02 -7.32403462E-03 -2.69261367E-02  1.73539295E-01 -2.05602763E-02
  5.09877820E-02 -3.16322117E-03  9.40246808E-02  2.61443891E-02 -3.69433919E-03
 -9.95573713E-02 -2.93227265E-03 -1.73444411E-04 -1.00135221E-01 -6.36394504E-02
  6.69498456E-02  3.24567155E-01 -1.36895320E-02  1.92049364E-02 -3.15308721E-02
  8.33371285E-02  9.80629445E-01  1.87663233E-01  1.36658926E-01 -1.20900199E-03
  8.34561402E-02  9.84965887E-01  1.88354426E-01 -1.37661124E-01 -7.19455930E-03
  6.70582392E-02  3.21537231E-01 -1.33123367E-02 -1.85648979E-02 -2.70244405E-02
  1.07867581E-05  4.91470312E-05 -4.90062019E-04  5.74243712E-04  1.49713480E-01
 -2.16178871E-04  4.60058107E-04  4.77900718E-01 -6.59646541E-04  4.45542096E-04
  3.93804725E-05  2.46174238E-04  6.28701701E-04 -1.33822749E-01 -7.58965558E-03
 -2.63582629E-02  7.43875738E-02  3.71425187E-02  4.41589930E-02  9.61636431E-03
 -6.40063801E-01 -5.57414101E-01  1.69268757E-02  2.11407763E-01  7.78006137E-04
 -2.55402941E-03 -1.29150333E-01  1.25964646E-01  6.04970247E-03  2.45047152E-02
 -1.83746553E-01  1.94312946E-01  2.13398607E-01 -1.80311142E-02 -5.75406698E-01
  1.32067795E+00 -1.33622221E-02 -1.29378661E-02  2.25714218E-03 -4.51257080E-03
  1.27762731E-01 -4.70402717E-02 -5.41704607E-05 -1.85508984E-04  6.00024386E-04
  5.43820547E-05  2.07899676E-01 -3.41058380E-04  2.73127038E-03  4.57262864E-01
  4.99122074E-04  7.17378626E-04  3.16446913E-04 -3.53342776E-03  2.00794411E-05
  1.21000854E-01 -5.93344601E-03 -2.40575040E-02  1.81039455E-01 -1.94279966E-01
  2.14204413E-01  1.76126564E-02  5.71268395E-01  1.31551191E+00  1.41602710E-02
  1.25140189E-02 -2.31094846E-03 -4.37041383E-03 -1.28382713E-01 -4.75432085E-02
  7.60987185E-03  2.64469740E-02 -7.53667288E-02 -3.67530608E-02  4.51084351E-02
 -9.17318332E-03  6.39554755E-01 -5.55165131E-01 -1.66075503E-02 -2.11151606E-01
 -8.89403215E-04 -2.50324298E-03  1.28093073E-01  1.26429666E-01 -3.01457408E-05
 -1.13939893E-04  3.72732189E-04  7.31160395E-04 -5.08874117E-01  2.99699244E-04
  6.39730390E-04 -2.82460068E-01  1.63458124E-04 -5.23173548E-04  2.29495959E-04
  4.19631116E-03 -1.79524758E-04 -2.23282735E-01  1.48035267E-05  5.21003593E-05
 -1.27376380E-04  3.08146897E-04  1.10078394E-01  7.00134222E-05  1.47994960E-03
  1.00350545E+00  8.35627763E-04 -5.39282399E-04  1.59507993E-04  9.51355023E-03
  3.01802439E-04  4.40964752E-02  8.85765729E-02  1.44885877E+00 -4.48446205E-01
  4.18377458E-01 -1.50747711E-01 -8.83522578E-02 -1.45037755E+00  4.48161821E-01
  4.19297877E-01  1.50604229E-01  6.20231641E-03  2.24985856E-02 -1.21272269E-01
 -5.40014926E-02 -2.17698680E-01  4.11839294E-03 -1.58673668E-01 -1.48879832E-01
 -1.08947764E-04 -7.06698804E-02 -1.17161855E-03  2.26016087E-03 -4.84748275E-03
  1.20733581E-01 -6.23365051E-03 -2.26121407E-02  1.21948919E-01  5.38686773E-02
 -2.17906037E-01 -4.00424076E-03  1.58934872E-01 -1.48796665E-01  3.07709188E-04
  7.03432670E-02  1.13138204E-03  2.48870403E-03  4.44152726E-03  1.20582923E-01
  2.66701048E-02 -4.89234379E-01  4.34488672E-01 -1.98095942E-01 -2.26210750E-02
  7.76145165E-02  1.54856315E+00 -1.98426599E-02  3.10640582E-01  2.28632314E-02
 -7.70961809E-02 -1.54268140E+00  1.97699197E-02  3.09992568E-01 -2.28158671E-02
 -2.66169193E-02  4.87530942E-01 -4.35889630E-01 -1.99003374E-01  2.16957899E-02
  7.25076143E-03  2.46530332E-02 -5.41277643E-02  2.14580478E-02 -6.69772052E-05
 -3.35089608E-01  2.50703152E-01 -3.42706544E-04  9.12023012E-01 -7.15736590E-02
 -2.56084214E-01  2.60646598E-04 -1.22225288E-02  3.70825371E-04 -7.69512481E-03
 -2.99690621E-02  1.86739466E-01 -2.74239345E-02  3.37778276E-02  2.30867155E-01
 -5.17084821E-01 -5.65093755E-01  2.09025728E-01  5.67800307E-02 -4.15743640E-02
 -9.96539013E-02 -1.76124739E-02  3.45868387E-02  2.45021419E-03  8.17706755E-03
 -3.50673089E-03 -5.92653626E-03 -6.75070750E-03  7.00498154E-02 -5.37447866E-01
  5.61577561E-01 -3.73304157E-01 -4.50183272E-02  4.53675474E-02  5.47669394E-02
  3.21303233E-02  5.73518748E-02 -6.80033903E-03 -2.55710302E-02  1.41839230E-01
 -4.15343521E-02 -1.52749662E-05  1.95889006E-01  5.05963195E-01 -8.79220160E-05
 -3.44704387E-01  8.59415553E-04  5.94034279E-02 -8.17678599E-05 -2.17373351E-02
  1.13863039E-04  2.45993126E-03  8.21308020E-03 -3.73514204E-03 -5.79883831E-03
  6.86089885E-03  6.98406377E-02 -5.36839480E-01 -5.61232232E-01 -3.73136207E-01
 -4.49498689E-02  4.55234299E-02 -5.49154464E-02  3.20877101E-02 -5.71578557E-02
 -7.71533923E-03 -3.00455448E-02  1.87215465E-01 -2.75619975E-02 -3.41306288E-02
  2.30911478E-01 -5.16122669E-01  5.65333823E-01  2.09848897E-01  5.70008501E-02
 -4.18856454E-02  9.95289950E-02 -1.77974028E-02 -3.44428152E-02 -4.53449278E-03
 -1.72255496E-02  6.14909188E-02  5.34630427E-02  2.20990019E-04 -2.60993327E-01
  9.79196309E-02  6.13286691E-04  2.94412483E-01 -1.30361860E-02 -4.73890041E-01
 -4.40987950E-05 -4.42841355E-02 -1.64671183E-04  2.15604068E-03  8.27138066E-03
 -3.07616336E-02  4.37771508E-02  5.55499173E-05 -8.42409739E-03  2.40790292E-01
  5.17644525E-04 -2.17860852E-02  4.73426103E-02 -1.31732505E-01  3.00016984E-05
  2.01925830E-02  8.07989175E-05 -1.54739085E-02 -1.27254231E-01 -3.14192354E-02
 -1.22601848E-01  8.21719678E-02 -1.55881345E-02 -1.29060412E-01 -3.09818971E-02
  1.23339210E-01  8.18494533E-02 -3.53358655E-04 -1.58619670E-03  1.54220090E-02
 -2.24770154E-02  2.07069624E-02 -1.88416017E-01 -3.17302855E-02  3.70531925E-02
 -1.05311208E-01 -9.76831454E-03 -1.17310500E-01 -4.55427460E-02 -1.32438520E-02
  2.60601382E-02 -3.54420247E-04 -1.59119023E-03  1.54804982E-02 -2.24723465E-02
 -2.08934678E-02 -1.88768227E-01 -3.18749434E-02 -3.69750695E-02 -1.05421326E-01
 -1.02862938E-02 -1.17322490E-01  4.55023547E-02 -1.34522299E-02 -2.63450652E-02
 -5.57234801E-02 -7.86125032E-01 -4.86587343E-02 -1.23502240E-01 -5.75674501E-01
  1.18571483E-02  6.73726620E-01 -4.46941676E-02  8.02614424E-02  4.01635797E-01
  1.18233779E-02  6.72974263E-01 -4.50331081E-02 -8.02537053E-02  4.02235870E-01
 -5.57356815E-02 -7.85908719E-01 -4.88280721E-02  1.23659976E-01 -5.76210861E-01
  1.16152866E-02  4.24160216E-02 -1.74936053E-01  1.26879249E-01 -2.85095875E-04
  6.78907572E-02  5.06532881E-01 -3.65654646E-03 -1.95812023E-01 -3.40601909E-02
  2.69219710E-02  2.83787926E-04  2.16177276E-02  6.00010470E-04 -8.66410282E-03
 -3.23227724E-02  1.62882407E-01 -8.45507412E-04 -2.20545963E-02 -2.56281182E-02
 -9.76595935E-01 -1.15497233E+00 -9.43857528E-02  3.47378771E-02 -2.10783447E-03
  2.96193325E-02 -1.20336059E-01  3.06089032E-02  2.06408148E-02  7.83958664E-02
 -4.39911954E-01 -1.47025018E-01 -2.30940011E-01  2.82390504E-02 -1.51333408E+00
  1.35373774E+00  1.14409065E-01 -1.59879919E-01  2.50569352E-03 -6.94731494E-03
 -4.11838049E-02  2.47457613E-01 -3.68722834E-02 -1.28806814E-01  4.71768801E-01
  3.87453952E-02 -1.95649530E-04 -8.24501171E-02  8.12747643E-01  9.45245968E-04
  1.48269793E-01  4.13839066E-01  3.83716853E-02 -4.65594003E-05 -1.41373383E-01
  6.74904065E-05  2.06823865E-02  7.85557624E-02 -4.40969127E-01 -1.46285742E-01
  2.30559094E-01  2.77576935E-02 -1.51643344E+00 -1.35141352E+00  1.14365072E-01
 -1.59880491E-01  2.71696094E-03  6.89524643E-03 -4.09394622E-02 -2.47186892E-01
 -8.69496960E-03 -3.24275125E-02  1.63191288E-01 -7.33443203E-04  2.15163264E-02
 -2.56861298E-02 -9.78987913E-01  1.15077501E+00 -9.16826473E-02  3.55896625E-02
 -2.79095330E-03 -2.97161832E-02 -1.20908234E-01 -3.06864507E-02 -9.57674769E-03
 -3.65727898E-02  1.33788292E-01  1.54457189E-01  1.18675944E-03  4.65909788E-02
  2.33411991E-01  1.45157306E-03 -6.54776743E-02 -9.52684578E-02  1.08377886E-01
  1.60075052E-04 -7.42555849E-02  4.43863749E-04  1.40929510E-02  5.13925276E-02
 -1.41165255E-01  2.42888641E-01 -1.85635989E-04 -4.30801419E-02  5.03498937E-01
 -1.30241317E-03  3.86509811E-02 -2.47539091E-01  1.06233098E-01  1.66266920E-04
  2.21645105E-01 -2.43317139E-04  7.40915234E-02 -1.37175010E-01 -2.66278343E-01
 -3.35944947E-01 -2.90345990E-02  7.41304171E-02 -1.34600620E-01 -2.66614176E-01
  3.35484313E-01 -3.08496238E-02  6.71484555E-05  4.06119919E-05  7.10490401E-03
 -6.13188399E-02  9.16267777E-02  3.42423430E-02 -7.93983604E-02  7.35437477E-02
  2.87603518E-02 -3.67563335E-02  2.98039568E-02  2.37728356E-03 -3.58951851E-02
  5.00623060E-02  8.20071370E-05  9.55451916E-05  6.78033051E-03 -6.15159410E-02
 -9.07219844E-02  3.40397938E-02 -7.96511400E-02 -7.25870903E-02  2.86159536E-02
 -3.72412429E-02  2.99247612E-02 -2.45335278E-03 -3.58067422E-02 -5.04770243E-02
 -6.02196385E-02 -1.58583288E+00 -4.01181902E-01 -1.05234383E-01  1.61644389E-01
  9.06769586E-02  1.75619535E+00  6.09833954E-02  2.10205373E-01 -1.62447371E-01
  9.09012316E-02  1.75706438E+00  6.14291700E-02 -2.11298803E-01 -1.61867903E-01
 -6.00832802E-02 -1.58248423E+00 -3.98836413E-01  1.05657526E-01  1.60525864E-01
 -1.35654152E-02 -4.32212905E-02  8.51951300E-03  3.08675326E-02  3.43345596E-05
 -8.12096734E-02 -4.75595578E-01 -3.61589034E-03  2.13227626E-01  2.06565671E-01
 -1.03738079E-01  4.61378646E-04  8.53207321E-02 -5.62694933E-05  2.11276903E-02
  8.33364865E-02 -5.52394149E-01  6.83909338E-02 -1.09915687E-01  1.19080659E-01
  1.06932938E+00  1.08919497E+00 -1.04856503E-02 -1.54304019E-01 -3.69423213E-02
 -1.95384630E-02 -1.59045402E-04 -1.04476965E-01  5.53285698E-03  2.56184502E-02
 -3.12959915E-01 -8.32505340E-02 -1.54772475E-01  5.69131146E-02  7.10546827E-01
 -9.37210558E-01 -1.15630582E-01  6.22929847E-02  3.35196639E-02  2.00292038E-02
 -1.69985944E-01 -3.26185407E-02 -5.79826804E-03 -1.31863752E-02 -1.31452086E-01
  2.48504413E-01 -3.21886862E-04  2.30262900E-02 -1.20790046E+00  3.79569892E-03
  1.44496521E-01  2.51422574E-01  8.53836579E-02  3.11790632E-04 -9.04121668E-02
 -2.73630235E-05  5.53681741E-03  2.56382585E-02 -3.13212455E-01 -8.28454649E-02
  1.54318662E-01  5.67437671E-02  7.04060494E-01  9.39217909E-01 -1.15922622E-01
  6.24790722E-02  3.44386426E-02 -2.01895182E-02 -1.70125480E-01  3.28848993E-02
  2.11211648E-02  8.33134061E-02 -5.52353164E-01  6.83891264E-02  1.09687797E-01
  1.19001321E-01  1.06278508E+00 -1.09264587E+00 -1.04154436E-02 -1.54288314E-01
 -3.78682779E-02  1.94945558E-02 -4.73533792E-04  1.04615312E-01  7.30645283E-03
  2.78208811E-02 -1.00484468E-01 -5.30528571E-02 -3.93313440E-05 -8.77668768E-02
 -1.70924248E-01  1.78193973E-04  9.99183968E-02 -2.33426300E-02 -1.24141786E-01
  3.72149349E-04  9.36086939E-02  2.51049232E-05  1.87313109E-03  4.20911508E-03
  3.51527380E-02  5.89804318E-02 -1.47830993E-04 -9.58608000E-02 -4.07246750E-01
 -2.25604432E-03 -1.02656657E-01 -4.27257045E-01  5.20486566E-02  4.75725383E-04
  1.95274970E-01 -1.88875622E-04  1.25746968E-01  4.44177969E-01 -1.82871548E-01
  1.06883403E-01 -1.30539597E-02  1.25917226E-01  4.49246762E-01 -1.84442813E-01
 -1.07885785E-01 -1.61010556E-02  1.87961557E-03  7.82997533E-03 -6.37270113E-02
  2.23082044E-02 -4.48563921E-03 -6.42789426E-02  4.65300925E-02 -6.85899015E-02
 -2.12231271E-02  3.02187587E-03 -3.07577342E-02 -2.20849021E-02  2.24025381E-02
 -5.56022410E-02  1.86679645E-03  7.78312991E-03 -6.34583420E-02  2.25076490E-02
  4.64209122E-03 -6.48147382E-02  4.66010003E-02  6.86545298E-02 -2.14413950E-02
  2.91954577E-03 -3.05903031E-02  2.23460990E-02  2.23071211E-02  5.55154443E-02
  1.50449202E-01  1.57552832E+00 -1.62914279E-01  3.81745889E-01 -1.12767542E-01
  1.66749106E-02 -1.10158043E+00  1.27832050E-01 -1.83022725E-01  6.32412606E-02
  1.67344725E-02 -1.10032475E+00  1.28138915E-01  1.82278693E-01  6.43402056E-02
  1.50531727E-01  1.57538646E+00 -1.62391958E-01 -3.81494549E-01 -1.15033414E-01
 -1.55108655E-05 -6.21936507E-05  5.00474670E-04 -3.09029995E-04  2.78227904E-02
 -3.60829327E-05  8.23041280E-04 -2.71276270E-01 -1.01361001E-03  4.36941614E-04
  9.75055539E-05  4.26367872E-01  8.70837789E-06 -1.95507737E-02 -1.39839795E-03
 -5.09376095E-03  2.50307903E-02  1.42174259E-02  1.34062462E-02  5.08691280E-02
  3.01275731E-01 -5.31063587E-02 -2.48314137E-01  1.69197614E-02  3.75432377E-01
 -1.54350707E-01 -1.42754786E-02  1.11534771E-02  1.67241374E-03  6.07801021E-03
 -2.52454396E-02  2.77974572E-03 -5.89515747E-03  4.50058378E-02  3.11917317E-01
  7.68263117E-02  1.82614488E-02 -4.24892310E-03 -2.04804023E-01 -1.31608676E-01
  1.81774298E-02 -9.14397625E-03  5.41909770E-05  1.77330938E-04 -3.48222682E-04
 -5.76007703E-04 -1.76556849E-02 -2.31251661E-04  3.68369391E-03  3.76000800E-01
  1.52489789E-04 -9.42644528E-04  1.14771746E-04  1.31251090E-01  3.51578424E-04
  5.77938090E-04 -1.72053048E-03 -6.27800507E-03  2.70241883E-02 -1.88547424E-03
 -6.91960508E-03 -4.53575674E-02 -3.11445162E-01  7.47173641E-02 -1.70826973E-02
  4.30455699E-03  2.04709262E-01 -1.31449316E-01 -1.76751407E-02 -8.71396908E-03
  1.38203751E-03  5.02319741E-03 -2.45392692E-02 -1.40149823E-02  1.35955474E-02
 -5.08015992E-02 -3.00619395E-01 -5.19023774E-02  2.49079596E-01 -1.62888219E-02
 -3.75627880E-01 -1.54147436E-01  1.37725785E-02  1.15967986E-02  1.59372212E-05
  5.89975706E-05 -1.94223270E-04  1.00820971E-06 -4.27585487E-02  4.34543702E-04
  6.88899733E-04  4.61743706E-03 -6.76589154E-04 -5.01836117E-04  6.44574174E-04
  3.19715170E-01 -3.59670712E-04 -1.07391807E-02 -2.89261707E-05 -1.02486558E-04
  2.04925046E-04 -3.53666220E-04 -1.17451968E-02  1.96313293E-04  1.06357547E-03
 -3.51775431E-01 -1.43406508E-04  1.10748347E-03 -1.23507786E-04  8.34623343E-02
 -6.25156758E-04 -1.66836857E-03  5.93921644E-03 -2.80082043E-01  1.14798635E-01
  5.63518977E-04  5.75930115E-01 -6.88924948E-03  2.76502396E-01 -1.13031543E-01
  1.01380711E-03 -5.75863980E-01  8.52752695E-04  3.08926071E-03 -1.67164529E-02
 -7.05657565E-03 -7.11917573E-03  1.49299619E-01 -1.44067893E-02 -1.71391465E-02
  1.01854943E-01 -7.25967533E-03 -7.64541042E-02  3.51723032E-02 -3.85933139E-03
  8.23959268E-03 -9.07498003E-04 -3.29730798E-03  1.81101984E-02  7.44679202E-03
 -7.30504043E-03 -1.48604640E-01  1.44852794E-02 -1.76973821E-02 -1.01471940E-01
  7.20603738E-03  7.69618069E-02  3.52090590E-02  3.72335200E-03  8.09621868E-03
  3.86513139E-03  9.38678093E-02 -4.17238506E-02  3.78651428E-02  4.81579691E-01
  9.62774432E-03 -7.80428987E-03 -2.62493443E-02 -2.33296299E-02 -3.89430471E-01
 -9.87384277E-03  8.69453849E-03  2.61895468E-02 -2.37460369E-02  3.88597997E-01
 -4.15151829E-03 -9.43357622E-02  4.25341095E-02  3.88619788E-02 -4.82052811E-01
 -3.65980315E-05 -1.29367985E-04  4.92697567E-04 -2.44134701E-04 -2.18325903E-01
 -3.48203759E-04  3.56292472E-05  1.50612827E-01  2.42907013E-04  3.80683878E-04
  4.10012258E-04  6.14182046E-02 -1.70750754E-05  2.06788867E-01  8.29011082E-03
  2.95938487E-02 -1.33010692E-01 -1.85371857E-02 -1.66548117E-01  1.52370735E-02
 -1.37578555E+00 -1.04860762E+00 -2.55427245E-03 -1.41925768E-01  4.53787019E-02
 -2.42187259E-02  9.01878482E-02 -3.96772256E-02 -8.89189782E-03 -3.14343027E-02
  1.05179663E-01 -4.60234948E-02  1.41950139E-01 -3.54832691E-02 -1.09153167E+00
  9.39938185E-01  4.16276622E-02 -7.25247869E-02 -8.14788412E-03 -2.52639467E-02
 -7.75835422E-02  9.94419481E-02  7.94320835E-06  2.78743236E-05 -7.74286776E-05
  1.21196226E-04  1.36766824E-01  8.97438271E-04 -1.95300671E-03 -1.00279495E+00
 -2.35487091E-03 -6.74951341E-05 -7.96850925E-04 -5.27204444E-03 -1.67741897E-04
 -7.24950218E-03  8.86951359E-03  3.13503304E-02 -1.04739668E-01  4.60984070E-02
  1.41872775E-01  3.48288302E-02  1.09458381E+00  9.42978282E-01 -4.26156962E-02
  7.26677837E-02  7.77641485E-03 -2.58995646E-02  7.73623642E-02  9.96149554E-02
 -8.25200861E-03 -2.94486575E-02  1.32179220E-01  1.88185822E-02 -1.66278107E-01
 -1.62206988E-02  1.37788649E+00 -1.05106065E+00  3.17066419E-03  1.41432556E-01
 -4.50428596E-02 -2.39418093E-02 -9.01994989E-02 -3.90424644E-02  1.43048166E-05
  5.33076636E-05 -1.72219908E-04 -5.40439190E-04  3.72592009E-01  2.98511265E-04
 -2.00972048E-04  1.39059851E-01 -8.33517171E-04 -9.98661984E-05  5.55764699E-04
  5.22246256E-02  1.08131994E-04  1.00890522E-01 -2.82672162E-06 -1.11747189E-05
  4.85587083E-05  6.12883049E-05  3.42959572E-01  3.76789888E-04  1.18673568E-04
  3.37049308E+00  2.13201320E-03  5.79834624E-05 -8.02038881E-05  9.28503930E-02
  7.64313068E-05  9.66178327E-02  1.31672528E-01  3.78228037E+00 -1.46279707E+00
  6.84985684E-01 -3.02344111E-01 -1.31557591E-01 -3.78117229E+00  1.46317959E+00
  6.83154453E-01  3.04050844E-01 -6.09671067E-03 -2.21592281E-02  1.22846371E-01
  4.73022088E-02  4.52508052E-02  2.66791296E-02  1.00023646E-01  1.62516714E-01
  1.29622792E-02  1.03625641E-01 -1.26715830E-02  8.40457902E-03  4.85605590E-02
 -7.60164499E-02  6.09130376E-03  2.21390518E-02 -1.22717267E-01 -4.72121845E-02
  4.53184074E-02 -2.61062497E-02 -9.98778535E-02  1.62794463E-01 -1.29183857E-02
 -1.03675659E-01  1.33656715E-02  8.05671201E-03 -4.84772350E-02 -7.59845927E-02
 -5.27601266E-02 -1.43162368E+00  3.75447838E-01 -3.57869640E-01  3.81180532E-02
 -4.48269316E-02  8.30730388E-01  8.51508546E-02  2.41778192E-01 -7.72842592E-02
  4.46857553E-02 -8.34980894E-01 -8.49089739E-02  2.42452860E-01  8.01450359E-02
  5.29267476E-02  1.43454568E+00 -3.76481481E-01 -3.58621802E-01 -3.99138208E-02
  9.38198736E-04  2.65914457E-03  1.25852374E-02 -3.45585061E-02 -3.72009788E-04
  5.26875030E-02 -1.87611961E-02 -1.21816321E-04 -9.05475912E-02 -2.29913862E-02
 -2.39301398E-01 -6.29217496E-05 -2.48091181E-02  4.53404451E-04 -1.40244842E-03
 -5.71637431E-03  3.91513046E-02 -2.68267429E-02  2.22975055E-02  2.65470041E-01
 -5.91883407E-02 -3.73110843E-02 -2.67815036E-01  7.11947750E-03 -1.48178700E-01
  5.01142145E-04  2.76783385E-02  2.12168394E-02 -2.52926813E-03 -9.88915535E-03
  7.21619546E-02  1.60667189E-02  4.24552686E-02  1.50662425E-01 -7.89495736E-02
  1.96985762E-01  4.57655103E-01  3.05322231E-02  1.27363308E-01 -2.20972304E-01
  2.92942957E-03 -2.43362792E-02  4.99657520E-03  1.68891035E-02 -4.75896792E-02
 -4.01130401E-02  3.80901414E-04 -5.90127536E-01  5.07536526E-01 -1.67323064E-03
  1.28134743E+00 -7.33813296E-02  5.10630580E-01 -3.59582799E-04  5.27327272E-02
  7.56892447E-05 -2.49450269E-03 -9.76571822E-03  7.16994280E-02  1.63979583E-02
 -4.20036553E-02  1.50443407E-01 -7.61673589E-02 -1.94691943E-01  4.58830824E-01
  3.08114450E-02  1.27214113E-01  2.21233860E-01  3.11596532E-03  2.46490680E-02
 -1.43470604E-03 -5.83402773E-03  3.97625272E-02 -2.68218520E-02 -2.30848418E-02
  2.65194695E-01 -5.44460519E-02  3.45582393E-02 -2.67263426E-01  7.83950198E-03
 -1.48150155E-01 -8.76804694E-05  2.70813298E-02 -2.10848476E-02  1.91120734E-04
  7.32325367E-04 -3.34058677E-03 -1.47876628E-02  7.33012618E-04 -1.09356973E-01
 -1.86427712E-02  3.25311881E-04  7.90076006E-02  1.54227108E-02  4.35060535E-04
 -6.65204583E-06  1.84225717E-03  2.17579748E-04 -2.91357053E-03 -1.04909740E-02
  2.24857865E-02 -3.95143592E-02  5.39256127E-04 -7.30915984E-02  2.08523557E-01
  4.79831940E-03 -1.92680714E-01  7.45280483E-02  8.43918931E-02 -1.58464870E-04
  1.70156580E-03  2.05316753E-04 -5.50325964E-02 -1.80764804E-01  4.59219138E-02
 -8.77419655E-02 -3.15538076E-01 -5.55310268E-02 -1.92102886E-01  5.01059782E-02
  9.03659983E-02 -3.14124526E-01 -3.17236141E-04 -1.24777306E-03  8.39141750E-03
  1.02186876E-02 -1.86888493E-02 -6.37916231E-02  5.71000630E-03  1.74009218E-03
  3.18945872E-02  5.82536281E-03  6.40742456E-04 -5.15190872E-02  5.30569111E-03
  2.30112323E-03 -2.94409901E-04 -1.16534170E-03  7.94919137E-03  1.01645357E-02
  1.88722209E-02 -6.37213499E-02  5.14933559E-03 -1.17368586E-03  3.18999975E-02
  5.34501738E-03  5.37774029E-04  5.14965746E-02  4.96985555E-03 -2.76749426E-03
 -1.18396099E-02 -5.72283326E-02  1.10664229E-01 -7.64186081E-02 -1.25286181E-02
 -3.77580940E-03  1.70326843E-01 -3.85212332E-02  4.82348089E-02 -7.03904891E-01
 -3.65622252E-03  1.67886065E-01 -3.91251474E-02 -4.72166718E-02 -7.04722021E-01
 -1.16308413E-02 -5.26360603E-02  1.08809589E-01  7.48810750E-02 -1.29914332E-02
 -3.40858145E-04 -1.35929631E-03  1.02513175E-02 -4.65248225E-03 -1.56388427E-04
  5.08413632E-01  4.72488850E-03  3.60777618E-03 -2.33134912E-01 -1.28814205E-02
  1.88024530E-01  6.81713604E-04 -8.13270494E-03 -3.08886797E-04 -6.12247403E-04
 -2.34925572E-03  1.60228033E-02  1.16959683E-03 -4.44946978E-03 -9.97959818E-02
 -4.78973001E-02 -1.52286621E-02 -5.21421552E-01 -1.41472265E-03  1.58790601E-01
  1.12379711E-01 -8.04105652E-03  8.40218627E-03  9.20884963E-04  3.46014312E-03
 -2.04561692E-02 -6.56137094E-03 -5.85477556E-04 -6.80410882E-02 -1.51287512E-02
 -3.81738832E-02  1.88823649E-01 -5.13747997E-03 -4.27781679E-02 -6.01501259E-02
  7.10265828E-03  1.02798466E-02 -3.63819881E-05 -2.84899805E-06 -6.91675412E-03
 -1.37747447E-02 -1.65985809E-04 -3.16069156E-02 -1.18154432E-01 -5.48946753E-03
  1.01823730E-01  2.58861389E-02 -9.48964509E-02  5.11831195E-04  9.63740970E-03
 -2.60330192E-04  9.12803247E-04  3.42913812E-03 -2.01634084E-02 -6.80809234E-03
  6.41477743E-04 -6.66076382E-02 -5.71783206E-03  3.75046268E-02  1.84380254E-01
 -4.55268137E-03 -4.27187953E-02  5.93474074E-02  7.01802360E-03 -1.00465824E-02
 -5.91461987E-04 -2.27056180E-03  1.55986666E-02  1.32750487E-03  4.09836483E-03
 -9.87715034E-02 -3.95183797E-02  1.27616649E-02 -5.25220062E-01 -1.76001425E-03
  1.58125868E-01 -1.13389994E-01 -7.81077498E-03 -8.80528930E-03  9.17404576E-05
  2.98557638E-04  5.01183013E-05 -1.57242474E-03  4.30222342E-05 -8.18441545E-02
 -9.85326322E-03  1.48670007E-04  6.33798554E-01  2.54797542E-03 -5.00991287E-01
  5.36265301E-05  6.18299155E-03 -2.91981434E-04  5.48622397E-04  2.34080182E-03
 -1.12615905E-02 -4.93295869E-03  7.18313553E-04 -4.80488257E-04 -8.39743321E-02
  6.86940849E-03  5.39973176E-02  5.57411137E-04  5.47439746E-02  1.87144155E-04
 -2.37633196E-02  2.94659074E-04  3.15929197E-03  4.74513632E-02  1.15429021E-02
  4.38641578E-02 -1.43077072E-02  2.61629831E-03  3.23401994E-02  1.62957263E-02
 -4.07328812E-02 -1.41705110E-02  1.04141571E-04  3.59640605E-04 -2.00110019E-03
  5.02120612E-03 -1.45980066E-03 -2.55909305E-01 -8.24810138E-04 -2.24442472E-03
 -5.55544177E-02  1.37703129E-03 -2.79669928E-01  1.96318852E-02  3.95687335E-04
  5.05884976E-04  1.11604884E-04  3.88888462E-04 -2.20609270E-03  4.77549209E-03
  1.52960798E-03 -2.56232935E-01 -6.71969958E-04  2.19695192E-03 -5.57097320E-02
  1.61536858E-03 -2.79408201E-01 -1.98231546E-02  7.29189377E-04 -7.17568151E-04
 -2.84475109E-03 -6.02871801E-02  7.27687778E-03 -1.75770518E-02  6.63344953E-01
  3.89650778E-03  2.27799481E-02  2.94322389E-02  2.39740831E-02 -1.78921628E-01
  4.02917372E-03  2.10947916E-02  2.91849820E-02 -2.38626877E-02 -1.75154187E-01
 -2.46562775E-03 -5.35120449E-02  8.37934905E-03  1.67104721E-02  6.65690467E-01
 -2.78392586E-05 -1.02862057E-04  4.21804663E-04  2.39623459E-03  1.21692198E-02
 -8.11782880E-04  2.89696804E-03  1.90662014E-01  5.53146064E-04  1.65785290E-03
 -5.81343575E-04  1.94469774E-01  1.35160940E-03 -1.30606512E-02 -1.84942688E-03
 -7.04362933E-03  4.44582559E-02  5.25720201E-03  5.23181706E-04 -3.36522867E-01
 -6.46519823E-02  2.03045273E-01  1.15429109E+00  2.66871658E-03 -8.18318398E-02
 -1.04843724E-01 -2.31579873E-02 -1.04060769E-02  8.75006145E-04  2.83725342E-03
 -5.05741721E-03  1.06624010E-02 -2.99659540E-02 -3.74333450E-01 -1.13859463E-01
 -3.12522053E-01  1.18469042E+00 -2.01813938E-02  1.24918246E-01 -1.03639784E-01
  1.61999738E-02 -2.61157053E-03 -5.76656253E-05 -2.41912678E-04  2.30951836E-03
 -1.27145682E-03 -3.13169620E-02 -3.42780223E-04 -3.04206042E-03 -3.35275422E-01
  1.04837896E-03 -1.38514449E-03  6.27879109E-04  1.14849861E-01 -4.21472696E-04
 -2.47689582E-02 -9.89332909E-04 -3.32018725E-03  9.44347377E-03 -1.01807709E-02
 -2.86858214E-02  3.74847412E-01  1.22119409E-01 -3.01380288E-01 -1.18455864E+00
  1.92412880E-02 -1.24543413E-01 -1.03226081E-01 -1.82640093E-02 -2.06908274E-03
  1.94527897E-03  7.36717211E-03 -4.50635159E-02 -4.28722673E-03  1.30433286E-03
  3.37193229E-01  7.38033764E-02  2.04814777E-01 -1.15248765E+00 -2.69735681E-03
  8.09732445E-02 -1.04284045E-01  2.20255285E-02 -7.31472374E-03 -2.81842091E-05
 -1.02861174E-04  2.93672778E-04  8.76513640E-04 -2.57989522E-02  5.40586266E-07
  3.68902767E-03 -7.14911095E-03 -1.19510590E-03 -5.97700570E-04  8.94205764E-04
  8.83928582E-03 -1.77510588E-03 -1.54467160E-03 -3.21082654E-05 -1.22392177E-04
  4.32786600E-04 -1.75860024E-04  2.55507513E-02 -3.19265579E-05 -1.43202222E-03
  2.44954593E-01 -5.49747049E-04  9.44199414E-04 -1.43053918E-04 -5.07093505E-02
  3.02947437E-04  2.71698186E-02  7.77001278E-03  2.78501715E-01  1.85411050E-03
  1.18807440E-01 -2.90012153E-02 -7.98567953E-03 -2.76243860E-01 -2.17514832E-03
  1.18540850E-01  2.89604098E-02  6.02549331E-04  2.16693293E-03 -1.17842569E-02
 -2.17117736E-03  9.20396665E-03  5.20781347E-02 -9.08376181E-03 -1.88432503E-02
 -3.50211535E-02 -8.89009992E-03 -8.25336320E-03  4.89954560E-02 -1.08744577E-02
  6.95715051E-03 -6.69191842E-04 -2.41540620E-03  1.34893577E-02 -2.18217984E-05
  6.82773889E-03 -5.10123157E-02  8.26804104E-03 -2.00297603E-02  3.51995037E-02
  8.63508459E-03  9.21305044E-03  4.90448079E-02  9.75850821E-03  6.28873433E-03
 -1.63502914E-03  6.78538394E-02 -7.67677469E-02  2.93479304E-02 -7.46120691E-01
 -3.28892600E-03 -2.22612177E-01  2.44745594E-02 -5.06459883E-02 -8.73611017E-01
  2.28568536E-03  2.04435173E-01 -2.34752416E-02 -4.73487970E-02  8.72444379E-01
  1.86478696E-03 -6.09402197E-02  6.84677112E-02  2.24504874E-02  7.43366762E-01
  5.45661208E-03  2.04929766E-02 -8.97793714E-02 -4.73938595E-01  2.27915887E-04
 -1.54500760E-02 -5.24953848E-01  5.59976243E-03  1.97184062E-02 -3.07365430E-01
  7.71448268E-03  1.22773907E-03 -2.73351568E-01 -1.53627350E-04 -9.39812585E-03
 -3.16816803E-02  5.67050474E-02 -9.25895782E-02  9.53021201E-02 -9.37260124E-03
 -8.29325955E-01  9.54485499E-02  1.94025285E-02 -1.64037626E-02  3.19574091E-03
 -1.47552300E-03  1.02451312E-01  3.00235204E-01  1.28227836E-02  5.38755695E-02
 -4.79801901E-01 -5.26781222E-02  1.21177814E-01 -2.73859094E-03 -9.46078016E-01
  1.23589971E+00 -3.07605312E-02  8.20558750E-02 -4.02735864E-03  2.18687366E-02
  1.63483197E-01  7.02026381E-02  7.75243701E-03  3.45544175E-02 -3.83264257E-01
  2.45928075E-01 -3.18931618E-04  3.66828974E-02  1.01460728E+00 -7.93288079E-03
 -7.32607660E-02  2.54070598E-01 -1.94805082E-02  7.55138872E-04  7.99599523E-02
 -3.48710490E-04  1.27862217E-02  5.37435847E-02 -4.79110758E-01 -5.33683170E-02
 -1.21478246E-01  1.38135368E-03 -9.38113623E-01 -1.24710673E+00 -4.38525575E-02
  8.27047373E-02 -5.12393906E-03 -2.31153327E-02  1.62949519E-01 -7.04306821E-02
 -9.33035907E-03 -3.14295631E-02  5.54219105E-02 -9.27504586E-02 -9.50454227E-02
 -6.20428508E-03 -8.21834168E-01 -8.69219867E-02  8.72500927E-03 -1.61156167E-02
  3.50617441E-03  2.62403441E-04  1.03155715E-01 -3.00866738E-01  3.71144461E-03
  1.33136508E-02 -3.56845304E-02 -1.82746855E-01 -4.87398630E-04  5.49734779E-03
 -6.70701972E-01 -7.44356855E-04 -1.50063225E-02  8.09224253E-02  6.34900118E-03
  5.62685016E-04  3.34918529E-01  5.13125104E-04  5.94493076E-03  2.22714322E-02
 -7.55722102E-02  6.74109069E-02  6.25315897E-04 -1.71822612E-02  5.06470736E-01
  5.57417417E-03  8.91478359E-02 -2.17032234E-01  4.46278315E-02  1.11741381E-04
 -2.56363440E-02  3.53290942E-04  1.52396745E-02 -3.89436697E-01  2.72150149E-02
 -1.12972081E-01  1.55706204E-02  1.48230526E-02 -4.02383271E-01  2.92238007E-02
  1.17186113E-01  1.65842079E-02  5.97792176E-03  2.22940359E-02 -1.52974973E-01
  2.12854914E-01 -2.42141694E-01  6.87619926E-03  6.98792740E-02 -9.88613783E-02
 -7.87745528E-04  2.28792316E-02  4.85252091E-03  2.03157106E-03  9.90586713E-02
 -4.69718219E-02  5.98020219E-03  2.23036093E-02 -1.53066001E-01  2.12675070E-01
  2.42403046E-01  6.20107173E-03  6.94745505E-02  9.79530378E-02 -8.45772329E-04
  2.33302609E-02  5.06127590E-03 -1.51043537E-03  9.91438358E-02  4.71466759E-02
 -1.85187114E-02 -6.30296813E-01  7.92271920E-01 -6.16070872E-01 -7.64286800E-03
  1.07782027E-01  1.90911238E+00 -7.99423730E-02  3.68476206E-01  4.67737755E-02
  1.07871720E-01  1.91493222E+00 -7.99279512E-02 -3.69485258E-01  5.52320553E-02
 -1.83086169E-02 -6.31307002E-01  7.93208989E-01  6.16437636E-01  8.03005841E-05
 -1.56019103E-05 -6.01489127E-05  4.55617117E-04 -5.20303234E-04 -4.49380747E-02
  5.28072972E-04 -9.25016559E-04 -1.46770925E+00 -1.68610452E-03 -3.44479621E-04
  3.25815809E-04  5.10188991E-03  4.68209037E-05  8.79657307E-02  1.98992761E-02
  7.75106237E-02 -5.37203035E-01  5.43329091E-02  1.15489556E-01 -8.63177052E-02
  8.51324346E-01 -1.12727837E+00  2.11331269E-01  8.67819595E-02 -1.95973213E-02
 -7.81954792E-03  2.22796375E-01  1.16268428E-01 -1.62499591E-03 -2.81154172E-03
 -5.01593394E-02 -1.45494748E-01  2.10370104E-01  2.36389576E-02  1.42475753E+00
  2.24498821E+00  5.94382507E-02  2.47923546E-01 -2.90096629E-02  2.69733742E-03
 -1.29617655E-01 -2.32860377E-02  1.16101020E-05  4.88405467E-05 -4.68568741E-04
 -1.13385016E-05  2.14055639E-01  2.07580312E-04  4.94547914E-05  3.29063741E+00
  1.90974220E-04  4.93237472E-04 -1.35298822E-04  9.22879497E-02  1.21973123E-04
  1.84903782E-01  1.66384751E-03  2.96591172E-03  4.89707741E-02  1.45545816E-01
  2.10092821E-01 -2.40874717E-02 -1.42568000E+00  2.24535049E+00 -5.86880086E-02
 -2.47973612E-01  2.87066861E-02  2.75960087E-03  1.29680860E-01 -2.35528509E-02
 -1.99135531E-02 -7.75614895E-02  5.37422589E-01 -5.41706991E-02  1.15496532E-01
  8.63214458E-02 -8.53369389E-01 -1.12658374E+00 -2.11575253E-01 -8.69281428E-02
  1.99573162E-02 -7.67387444E-03 -2.23044637E-01  1.16164035E-01 -2.02055090E-06
 -1.01500974E-05  7.38612007E-05 -2.69759946E-04  1.79799797E-01  9.23937759E-05
 -1.19655258E-03 -8.91853808E-02  6.85404212E-04  6.40864438E-05 -1.37999918E-04
 -4.17023390E-02  6.42138388E-04 -5.20934664E-02  1.33636149E-05  5.46484293E-05
 -2.34209680E-04 -2.36510970E-04 -3.99106264E-01 -1.69412522E-04 -2.06645229E-03
 -3.97124829E+00 -1.93711874E-03 -9.07891500E-06 -1.56405533E-04 -1.97596933E-02
 -3.49087390E-04 -2.23382524E-01 -1.62341319E-01 -4.48528058E+00  8.35462392E-01
 -1.40753532E+00  4.68649226E-01  1.62388928E-01  4.48659725E+00 -8.35957107E-01
 -1.40764122E+00 -4.70307751E-01 -5.01425333E-03 -1.77125218E-02  9.02645636E-02
 -3.83914269E-02 -1.27100826E-01 -1.14461450E-02  8.69747943E-02  2.04916878E-01
 -1.31358882E-02  6.97783922E-02  9.78406638E-03  2.00099086E-03  1.22528990E-01
 -7.01970201E-02  5.03063246E-03  1.77733930E-02 -9.06901550E-02  3.87772845E-02
 -1.26448752E-01  1.09103797E-02 -8.63426542E-02  2.05836662E-01  1.31208346E-02
 -6.98290898E-02 -1.00611996E-02  1.90346832E-03 -1.22300366E-01 -6.99666746E-02
  5.20882628E-02  3.00671851E-01  7.48148804E-01 -1.04875630E-01 -1.35779043E-01
  5.46182666E-02  1.68679316E+00 -2.11753760E-01  4.21331311E-01 -5.30816762E-02
 -5.44234180E-02 -1.68452912E+00  2.11844757E-01  4.20409329E-01  5.36523181E-02
 -5.21823328E-02 -3.02669917E-01 -7.47022270E-01 -1.03904872E-01  1.36911730E-01
  2.73008573E-02  1.07291116E-01 -8.25726775E-01 -1.89410766E-01 -6.10201144E-04
 -1.86797533E-03  3.49659327E-01 -5.82823771E-03  1.76118461E-03  3.14611502E-01
  2.12359888E-02  6.70597572E-05  1.09114757E-01 -1.78540066E-04  4.48539085E-03
  2.28891997E-02 -3.42983172E-01  4.81023708E-02  2.66422491E-01 -1.32442246E-02
  3.99408937E-02  3.57431542E-01 -5.21505960E-02  2.43455852E-02  1.55495389E-02
  3.46407669E-02  3.67311264E-01 -4.35578124E-02 -8.78958131E-03 -3.02246548E-02
  1.04679022E-01  8.09936481E-02  9.75756961E-02  1.08625943E-02  6.12990682E-01
  1.59227727E+00  1.46546451E-02 -1.10096516E-01  8.33939145E-03  2.72602795E-02
  2.50734343E-01 -2.12980253E-01  8.50267124E-03  3.24652640E-02 -2.40085675E-01
  4.29036653E-01 -4.59385217E-05 -3.78410040E-02  2.25699363E+00  5.22006066E-03
 -1.24009020E-01 -9.06484763E-02 -1.48327860E-02 -5.61307971E-06 -2.01068977E-01
  4.71787377E-04 -8.73814300E-03 -3.00282433E-02  1.03462472E-01  8.08744160E-02
 -9.75117995E-02  1.13748900E-02  6.08061866E-01 -1.58451349E+00  1.33652024E-02
 -1.10070658E-01  8.36695628E-03 -2.72300907E-02  2.51515119E-01  2.13266405E-01
  4.47764367E-03  2.28775931E-02 -3.43464602E-01  4.87997852E-02 -2.67409701E-01
 -1.37380628E-02  3.13481531E-02 -3.69903398E-01 -5.22085851E-02  2.46367612E-02
  1.51235907E-02 -3.48839790E-02  3.67131142E-01  4.32559913E-02  1.77656734E-04
  2.26299881E-03 -4.74595559E-02 -9.80012781E-02 -3.44596076E-05  1.11353918E-02
  2.51421661E-01  5.41041983E-04 -1.64177283E-03 -4.55207278E-02 -1.10130876E-02
  6.17773062E-05 -2.78017819E-01 -2.20228145E-04  1.47311513E-02  5.36530398E-02
 -1.46696531E-01  1.58055010E-01 -6.64816430E-04  7.77509732E-03  1.66535038E+00
 -4.68909087E-03  1.29887179E-01 -1.16541695E-02  9.48258493E-03 -2.69627764E-04
 -6.53454739E-02 -2.95062848E-04  6.62475958E-02 -9.91869691E-01 -1.20663349E-01
 -6.54303887E-01  5.84474392E-02  6.62742902E-02 -9.82740444E-01 -1.21964170E-01
  6.51867750E-01  5.82306435E-02 -7.01030825E-03 -2.49589986E-02  1.50616965E-01
 -2.27197728E-01 -1.87898650E-02 -7.23478293E-03  1.39396393E-01  1.08524945E-01
  5.21641807E-03 -3.42102439E-02 -2.46713073E-03 -4.00407105E-04 -2.98577880E-02
 -3.34929107E-04 -7.00086842E-03 -2.49215527E-02  1.50322333E-01 -2.27349506E-01
  1.85789296E-02 -7.17451030E-03  1.39580833E-01 -1.08514590E-01  4.99739217E-03
 -3.41655370E-02 -2.18535917E-03  1.72532253E-04 -2.96965239E-02  2.24601138E-04
  4.54120318E-02  1.10773884E+00  4.69218862E-01  1.55219995E-01  8.02708600E-02
 -1.12174182E-02  5.16668377E-01 -1.27546993E+00 -6.00374589E-01 -3.77266877E-03
 -1.11608935E-02  5.15288602E-01 -1.27795254E+00  6.01457550E-01 -3.22559914E-03
  4.54449707E-02  1.11528463E+00  4.70035123E-01 -1.57105454E-01  7.95273305E-02
 -1.18101966E-03 -6.00136214E-03  5.11926053E-02 -6.47320131E-02  1.23011342E-03
  6.64515830E-02  1.24599442E+00  8.71411476E-03 -4.97168544E-02  7.73825508E-02
 -6.57696613E-02 -1.11465195E-03 -2.14624717E-02  4.33767017E-04 -3.39065791E-03
 -1.59452600E-02  2.06828401E-01 -1.39754524E-01 -4.34376736E-02 -2.58429292E-02
 -9.27076718E-01 -2.80413745E-01  3.00265822E-01 -2.24643056E-01 -1.29069277E-02
 -1.42465251E-01  2.52736761E-01  3.77757825E-02  3.93763371E-03  1.90293401E-02
 -2.45789701E-01 -2.12449886E-01  6.54542871E-02 -7.46067194E-03  8.03449211E-02
 -3.88289124E-01  1.38652828E-01  7.03827772E-02  1.05215320E-02 -1.23419977E-01
 -6.53945867E-02 -2.13580696E-04  7.38585414E-03  3.23133902E-02 -3.59301479E-01
  2.09551090E-02 -5.18885814E-04  1.14697997E-01 -1.15699551E+00 -1.21635179E-02
  1.50987708E-02  1.90583578E-01  6.48344057E-02  3.77873587E-03  8.45186398E-02
 -1.25435324E-03  3.72402967E-03  1.82383286E-02 -2.41381255E-01 -2.13067511E-01
 -6.56159840E-02 -1.36223387E-02  7.40030950E-02  3.61239359E-01  1.53694351E-01
  7.31486692E-02  1.67139965E-02  1.21905846E-01 -6.94006895E-02 -1.35300420E-03
 -3.35380193E-03 -1.58641062E-02  2.07973059E-01 -1.45146844E-01  4.64712628E-02
 -1.98285046E-02 -9.16499733E-01  3.07449246E-01  2.85202151E-01 -2.26370374E-01
 -1.30426563E-02  1.40628794E-01  2.54874560E-01 -3.77928786E-02  1.09067620E-02
  4.20492421E-02 -1.62708831E-01 -6.45417492E-02  5.46471533E-05 -2.60775070E-02
  6.08542521E-01 -1.89431946E-03 -4.10550061E-03  1.33397731E-01  8.27148049E-03
 -2.97372736E-03 -4.56069482E-01 -1.18022632E-03  1.73744954E-03  8.12632322E-03
 -4.73673807E-02 -5.61547192E-02  3.41519404E-03 -5.52823971E-02 -6.27053067E-01
  2.07281836E-02 -4.46376497E-02 -1.34795206E-01  3.88501475E-02  5.04114796E-03
 -4.21131007E-02  1.71405999E-03  5.20415141E-04  4.17096747E-01  6.05163283E-02
  3.98063975E-01 -2.16312888E-02 -9.17739524E-04  3.62381835E-01  6.76526965E-02
 -3.78423342E-01 -3.29064916E-02 -1.51591847E-02 -5.66747871E-02  3.81220105E-01
 -2.29305014E-01  1.87901425E-01  3.16654564E-02  7.57022944E-02  1.13610923E-01
 -3.42649674E-02  1.53657301E-01 -1.38696248E-02  2.19304741E-02 -1.42812492E-01
  1.65761252E-01 -1.51895158E-02 -5.68007701E-02  3.82325754E-01 -2.27180804E-01
 -1.89240056E-01  3.37292960E-02  7.47212443E-02 -1.12783807E-01 -3.26968419E-02
  1.53003549E-01 -1.51555222E-02 -2.18408049E-02 -1.43538426E-01 -1.67220572E-01
  1.46835629E-02 -6.80468410E-01  5.37205208E-01 -4.69941553E-01 -2.90632166E-01
  3.18976882E-02  9.85768504E-02  4.05977529E-01  4.23874149E-01 -2.11961931E-01
  3.17752742E-02  1.15887115E-01  4.13426536E-01 -4.27942849E-01 -2.20711421E-01
  1.43889121E-02 -7.00209327E-01  5.34249524E-01  4.75327220E-01 -2.78479222E-01
 -2.36974528E-06 -1.06789897E-05 -2.40231130E-04 -5.97919047E-04  4.81216462E-02
  3.63329814E-03  8.51532448E-03  9.40842958E-01 -3.19889085E-03  2.28266079E-04
 -2.99633995E-03  1.15493971E-01  5.65017613E-04 -5.27915541E-03  7.13893887E-03
  2.95451032E-02 -2.58541976E-01  5.64715886E-02  1.46777273E-01  3.24231000E-01
 -3.75622878E-01  7.51402459E-01 -8.43493815E-01  1.07551805E-01  8.09018594E-03
  9.14515421E-02  4.80742897E-02 -5.66816125E-03  4.00071335E-03  1.57277587E-02
 -1.11845775E-01 -4.53463565E-02 -1.81075213E-02 -3.24942381E-01 -3.04117646E-01
 -2.56567502E-01  7.86915916E-01  6.06216060E-02  3.22468033E-01  6.21643536E-02
 -2.85504887E-02  1.31791175E-02  5.31288293E-05  2.37692910E-04 -2.91714612E-03
 -2.32892728E-04 -7.47817748E-02  4.49554274E-03 -2.17177555E-02 -3.11869802E-01
 -1.19818638E-03  2.22125817E-03  3.02489619E-03 -4.02347994E-01  5.21603033E-04
 -7.93408947E-02 -3.83738538E-03 -1.50517011E-02  1.05618658E-01  4.28153081E-02
 -1.92720463E-02  3.24048069E-01  3.11543822E-01 -2.42257202E-01 -7.70396513E-01
 -6.09130854E-02 -3.21039703E-01  7.42183125E-02  3.02021562E-02  1.32253888E-02
 -7.17684150E-03 -2.97008750E-02  2.60117523E-01 -5.69560788E-02  1.47753640E-01
 -3.26724899E-01  3.60824236E-01  7.54387996E-01  8.71110395E-01 -1.09198079E-01
 -8.56115829E-03  1.04303463E-01 -4.66037387E-02 -6.06612758E-03  6.77760352E-05
  2.59707299E-04 -9.48207960E-04 -2.70558364E-04 -4.47725987E-03 -9.65832896E-04
  2.95111575E-03 -1.90591467E-01 -8.28745084E-05  5.90463906E-04  1.65829385E-04
  2.82470020E-01 -2.52162162E-03 -5.52314256E-02  8.24185310E-05  3.41568383E-04
 -1.49846609E-03 -7.75735125E-04 -4.95891190E-02 -1.95376408E-03 -1.14037993E-02
 -2.60243573E-01 -2.00239759E-03 -1.11018617E-03  3.59907219E-04 -4.39738387E-01
 -1.82508279E-03  1.08279238E-02 -5.02483227E-02 -5.46166671E-01  8.92081836E-02
 -3.20065538E-01 -7.37524513E-01  5.10939014E-02  5.63769040E-01 -8.90904799E-02
 -3.31194520E-01  7.37658098E-01 -6.80483006E-04 -2.10758818E-03  3.50297602E-03
 -4.98745825E-02 -4.33051581E-02  7.27825086E-02  4.23790957E-02  4.50936326E-02
  9.19139011E-02 -1.12149660E-02 -7.74428849E-02 -1.45033022E-02  3.04929702E-02
 -2.52613436E-02  5.19757331E-04  1.50491448E-03  5.89211423E-04  4.71681072E-02
 -4.56819709E-02 -7.01201665E-02 -4.11745080E-02  4.39750151E-02 -9.47072559E-02
  1.27276885E-02  7.57908748E-02 -1.63730512E-02 -3.22362964E-02 -2.67187471E-02
  2.99880070E-02  8.01446404E-01  1.73304089E-01  1.47424665E-01  6.22654351E-01
  3.32337478E-03  1.22388398E-01 -1.52053313E-01  2.09008067E-02 -4.36244067E-01
 -2.80251093E-03 -1.25278783E-01  1.54360075E-01  1.64176239E-02  4.12678012E-01
 -3.00175583E-02 -8.11566242E-01 -1.68098574E-01  1.51833912E-01 -6.47635448E-01
  1.70453502E-03  7.36022574E-03 -8.18019997E-02 -3.93782746E-05  4.07203204E-03
  2.84097645E-01 -2.16891736E-01  3.05162163E-02 -2.38339885E-01 -3.56304429E-02
 -2.34576647E-01 -2.34023498E-03  4.27054666E-02  2.18153031E-03  1.29129905E-03
  6.74951798E-03 -9.59794659E-02  8.31982546E-02  3.36489754E-02 -1.35895248E-01
  6.97810804E-02  1.91878901E-01  1.16874540E+00  9.31775458E-02 -1.21487502E-02
 -5.10388464E-01 -8.91646285E-02  2.03808238E-03  3.47152445E-03  1.26011987E-02
 -7.16776342E-02  2.90348581E-02 -3.42046918E-03 -3.16185182E-03  3.20578745E-01
 -3.86181339E-01  6.79942692E-01 -7.33351120E-02  9.66623481E-02 -4.89169630E-01
  9.37222364E-02 -2.13816782E-03 -1.38980310E-03 -5.38267787E-03  2.89428489E-02
 -3.09338547E-02 -2.94207178E-03  3.39426683E-01 -8.00653837E-01 -3.67325395E-02
 -2.14395020E-01  4.51442035E-02  2.68201259E-01  5.10302083E-03 -7.20079395E-03
 -4.78346502E-03  2.77866135E-03  1.00426544E-02 -5.78661937E-02  2.83396422E-02
  9.21919190E-04 -1.31604684E-02  3.01616587E-01  3.04352154E-01  7.05496486E-01
 -6.60818745E-02  1.06064775E-01  4.86652108E-01  8.26921019E-02 -1.71137623E-03
  1.20487612E-03  6.19629195E-03 -8.59971398E-02  6.52839060E-02 -2.14515189E-02
 -1.27009932E-01  1.00919260E-01 -9.91475465E-02  1.14591565E+00  8.47591874E-02
 -1.13431111E-02  5.07408572E-01 -8.35751288E-02 -1.64995702E-03 -2.86409797E-03
 -1.09359590E-02  4.15222928E-02  4.78642569E-03  1.24115657E-04 -7.68437841E-02
 -1.70137630E-01 -7.78912508E-03 -3.66812065E-02 -3.53457056E-02  7.92272222E-03
 -4.56172346E-03  1.11206628E-01 -2.29660738E-03  5.45119414E-03  2.20116479E-02
 -9.02446662E-02 -9.45033175E-03  9.29287766E-03 -1.36003385E-01 -4.03790484E-01
  5.82916606E-02 -1.31868375E-01  3.67974206E-02 -5.91119632E-03  8.19235183E-03
 -1.05445264E-01  5.35767022E-03  2.23274652E-02  4.33085272E-01 -2.84936678E-02
  1.71698558E-01  7.02212417E-02  1.90510538E-02  2.83147182E-01 -9.83256490E-03
 -1.20223852E-01  5.79587998E-02  4.21606137E-03  1.58441799E-02 -1.07435444E-01
  3.67242169E-02 -5.43443748E-02  1.21552642E-01 -8.26636779E-04 -2.52442875E-02
 -1.29408349E-01 -4.55712800E-02 -6.58010068E-02  9.37252898E-02  3.47786090E-02
 -5.64076246E-02  4.08984905E-03  1.53265633E-02 -1.03055061E-01  4.32159317E-02
  5.04333853E-02  1.23309584E-01 -4.07956706E-03  2.90155293E-02 -1.25911589E-01
 -4.82990972E-02 -6.84136482E-02 -9.30666291E-02  3.11194370E-02  5.31548783E-02
 -4.53909694E-03  2.53680879E-01 -1.24731166E-01  1.90099716E-01 -1.02756281E+00
 -3.34510322E-03 -2.78946485E-01 -1.96353327E-01 -1.17392694E-01 -1.00802007E+00
 -3.59592385E-03 -2.27702201E-01 -1.72215409E-01  1.05096800E-01 -1.02227360E+00
 -6.40630709E-03  1.75120834E-01 -1.36919005E-01 -1.70554773E-01 -1.00931880E+00
 -9.77335287E-06 -2.63426945E-05 -6.94470638E-04 -4.70348636E-04 -1.91208989E-01
  7.02117864E-03  4.33207299E-03 -1.66188268E+00 -6.18964139E-03 -1.04364310E-03
 -6.09121894E-03  4.12104095E-02  6.45620368E-04 -9.14576948E-02 -4.63173395E-03
 -2.33604753E-02  3.14504565E-01 -4.20222584E-01 -3.13480737E-01  4.67418945E-02
  8.63912354E-01 -2.24021297E+00 -9.18367271E-02 -2.34729885E-01  6.06614595E-03
  7.04526345E-03  8.94575767E-02 -2.44287639E-03 -1.66130605E-02 -6.17278554E-02
  3.43802156E-01  3.05254856E-03  6.15162054E-02 -6.12576980E-02 -2.98778781E-01
  1.82472440E+00  1.94831491E-01  1.20123781E-01  6.58539263E-02  1.09091922E-02
 -2.40075303E-01  9.29773341E-02  4.31739327E-05  1.97521727E-04 -2.72295660E-03
 -1.43226609E-03  1.41770225E-01  8.77549443E-03 -3.78490978E-02  1.76686999E+00
 -4.02641744E-03  3.40386180E-03  6.79776059E-03 -5.30752999E-02  9.98451622E-04
  2.30101433E-01  1.69220555E-02  6.29433222E-02 -3.53422022E-01 -5.18629192E-03
  6.01791315E-02  6.04128288E-02  3.16510849E-01  1.85592848E+00 -1.59607051E-01
 -1.21996761E-01 -6.12582938E-02  3.56431012E-02  2.43714564E-01  9.24486199E-02
  4.60453226E-03  2.32860254E-02 -3.14534098E-01  4.21868840E-01 -3.13123407E-01
 -5.30534175E-02 -8.78627197E-01 -2.24131086E+00  1.47664797E-01  2.35234126E-01
 -7.00143426E-03  3.25560721E-02 -9.11005724E-02 -3.40510973E-03  3.35046318E-05
  1.30704514E-04 -4.81439838E-04 -6.08477658E-04 -1.08638122E-02 -2.25140850E-03
  1.83717056E-04  4.00284170E-01 -4.75347132E-04  2.79526688E-04  2.40908817E-04
  6.18238914E-02 -7.07798206E-04  1.24587531E-01  1.55748073E-04  6.50745564E-04
 -2.93923159E-03 -1.44739089E-03 -3.78628689E-01 -3.69511328E-03 -2.13397573E-02
 -2.37100074E+00 -5.10713601E-03 -6.22816832E-05 -1.12736130E-04 -1.65262492E-01
 -3.44652910E-03 -2.37047898E-01 -4.51525136E-02 -2.97843958E+00  3.20309663E-01
 -1.00343243E+00  6.55246593E-02  4.61518798E-02  3.01054724E+00 -3.20306025E-01
 -1.02153455E+00 -6.50421417E-02 -2.37092920E-03 -1.00110178E-02  9.08288167E-02
  1.66607517E-01  9.95953269E-02  1.89797017E-02 -9.43576704E-02 -9.82630779E-02
  1.77508751E-02 -4.96557767E-02 -1.87998936E-02 -8.68034902E-04 -8.94377888E-02
  8.87659912E-02  2.35684595E-03  9.95980741E-03 -9.05037440E-02 -1.67770998E-01
  9.88764824E-02 -1.29465429E-02  9.52352726E-02 -9.82939811E-02 -2.42484607E-02
  4.99711951E-02  1.54802867E-02 -5.15041238E-03  8.87256230E-02  8.89985768E-02
 -4.98122056E-02 -1.93857541E+00 -3.45984964E-01 -4.51803331E-01  9.59673679E-02
 -6.57506321E-03  1.04898169E+00  5.78278360E-01  2.75232648E-01 -1.45336310E-01
  7.03546869E-03 -1.06087481E+00 -5.78043673E-01  2.71743245E-01  9.57777775E-02
  4.93480254E-02  1.93328991E+00  3.46805654E-01 -4.53142352E-01 -1.48556988E-01
  9.73397631E-05  3.52904650E-04 -7.46465424E-05  1.76428439E-03  2.45096161E-01
  5.37940865E-04 -1.33306257E-02  3.66646502E+00  1.26177912E-03  4.17710867E-03
 -2.43712231E-04  2.84563426E-03 -4.72806340E-03 -2.41335417E-01  9.33652831E-03
  3.83860831E-02 -3.38197100E-01 -2.88630808E-01  2.59156337E-01 -6.12845777E-02
 -2.83922333E+00  1.05092539E+00  1.89773864E-01  5.12144529E-02  1.50413704E-02
 -2.27231559E-02  1.50096906E-01  6.58559767E-02  5.54886635E-03  2.60528736E-02
 -3.25608266E-01 -2.70492834E-01  9.47662706E-02  5.99799130E-02 -3.06196758E+00
 -1.47782340E-01 -1.52370872E-01  9.76306010E-02 -5.41496128E-02 -9.80389187E-03
 -2.52334986E-01  1.81452616E-01 -8.00731852E-05 -3.52737138E-04  4.67346394E-03
  6.15315053E-03 -2.37004506E-01  7.51196284E-04  1.23407895E-01 -2.31068625E+00
 -4.94544615E-03 -9.85109923E-03  1.07666134E-03  7.67546219E-02 -4.04649018E-03
 -2.58187209E-01 -6.60534802E-03 -3.01400204E-02  3.55913711E-01  2.76054458E-01
  1.02306228E-01 -5.84156902E-02  2.98600543E+00 -2.59064239E-01  1.54183152E-01
 -8.90374618E-02  5.62719451E-02 -8.29300453E-03  2.37479110E-01  1.80407703E-01
 -9.31188172E-03 -3.84295943E-02  3.41389576E-01  2.77508625E-01  2.60529726E-01
  5.92454221E-02  2.87720299E+00  1.05334656E+00 -1.80844888E-01 -5.81483547E-02
 -1.40048720E-02 -2.05192912E-02 -1.38631962E-01  6.83937674E-02 -4.60989753E-05
 -1.80588426E-04  5.42306953E-04  1.33747825E-03 -1.67263737E-01  2.58571028E-04
  1.68872741E-03 -2.82413337E-01 -1.33789434E-03 -3.22114463E-04 -3.77334056E-04
 -3.62348136E-02 -5.80169041E-04 -4.75565394E-02 -5.89924105E-04 -2.45843495E-03
  1.10583362E-02  5.74499214E-03  1.41651328E-01 -8.03592643E-05  5.95282698E-02
  8.66798798E-01  5.35782689E-03 -4.61280478E-03  8.63606611E-04  1.08807977E-01
  7.15782289E-03  1.09277477E-02 -4.14774657E-02  4.65231932E-01 -9.69114724E-01
 -8.25139945E-01  3.45366353E-02  3.83668609E-02 -5.65506103E-01  9.70516315E-01
 -7.72831484E-01 -2.65973112E-02  1.59058894E-03  5.75080933E-03 -3.31087417E-02
 -7.60949049E-03  2.79166247E-02 -2.43520047E-03 -2.76053401E-02 -1.21446048E-01
 -1.81268943E-02 -1.21186896E-01  1.11303036E-02  7.43107379E-03 -3.70169030E-02
  4.13047530E-02 -1.64622277E-03 -5.95136996E-03  3.42748618E-02  1.02268722E-02
  2.77710135E-02  3.68860777E-03  2.36587928E-02 -1.22040366E-01  1.71507931E-02
  1.21233934E-01 -1.17071590E-02  6.47246524E-03  3.87730975E-02  3.84260381E-02
 -2.61347364E-03  3.30935198E-02  1.46570134E-01  1.71590814E-01 -1.03881089E-01
  6.75708586E-03  1.51056379E+00 -5.85884954E-01  3.54497987E-01  3.88645290E-02
 -8.59421044E-03 -1.46059813E+00  5.95216278E-01  3.64732853E-01 -4.53604189E-02
  3.80557467E-03 -2.88889344E-02 -1.44333130E-01  1.87017313E-01  9.97026770E-02
  3.35938971E-03  1.18999474E-02  2.72643550E-02  8.45143289E-02 -5.45216447E-03
  4.95793811E-02 -6.67203995E-01 -7.99614164E-02 -2.80242844E-02  2.02221020E-01
 -6.59445652E-03 -1.55914716E-04 -2.35171813E-01  5.01110095E-03  4.27640720E-04
 -1.92842037E-03  9.34377294E-02 -2.64559274E-01 -5.51362429E-02 -7.01909312E-02
  9.46409324E-01 -7.26557750E-02  2.97889715E-01 -1.72398972E-01  3.68311004E-02
 -6.78283570E-02  2.60968565E-01 -4.97336077E-02 -2.51197880E-02 -9.72170567E-02
  7.21534822E-01  1.22264306E-01 -1.68479523E-01  4.23502698E-02 -1.68480427E+00
  2.53944654E+00  7.40424715E-02  2.10858919E-01  6.89053985E-02 -5.16460511E-02
 -3.45069721E-01  1.78928764E-02 -3.51551627E-03 -1.57521835E-02  2.18496863E-01
  2.97593889E-01  5.28301774E-03  5.48479672E-02  5.76375054E+00  5.30788250E-02
 -2.96904048E-01 -4.72421792E-01  5.46461798E-02 -1.74404409E-03 -1.73588108E-01
  5.98402802E-03 -2.48272062E-02 -9.59094545E-02  7.06905287E-01  1.10175455E-01
  1.64801547E-01  4.54859085E-02 -1.81515254E+00 -2.52049017E+00  6.53525276E-02
  2.14229367E-01  6.63439197E-02  5.21542690E-02 -3.54724388E-01 -2.50845750E-02
  7.97824579E-04 -3.99635868E-04  7.98632181E-02 -2.75524731E-01  4.40886549E-02
 -7.32171364E-02  8.19091522E-01  2.07240503E-02  3.08485074E-01 -1.69786294E-01
  3.70511802E-02  6.89242049E-02  2.66898773E-01  4.64400349E-02 -1.67576044E-03
 -6.71735734E-03  2.16215994E-02  6.11209600E-02  3.66174762E-03  1.65617997E-02
  6.57287894E-02  5.96935872E-03 -5.88912775E-02 -1.20854889E-02 -3.20902855E-02
  7.48915053E-04 -2.51229965E-02  1.00507556E-03 -2.81636675E-02 -1.17223048E-01
  5.25995792E-01  2.68405021E-01 -3.90339911E-03 -8.94662097E-03  2.77336170E+00
 -2.51042702E-02  2.42120936E-01 -2.29757961E-01  3.12220111E-02 -2.74725784E-03
  3.37472677E-01 -1.00777764E-03 -7.46638753E-02 -2.37703041E+00  6.71525219E-02
 -1.20881226E+00  2.07957368E-01 -7.60966537E-02 -2.34019829E+00  2.63614373E-02
  1.23593945E+00  2.10401388E-01 -1.39702095E-03 -5.09739922E-03  3.01589051E-02
  7.77675840E-02  1.29214283E-02  3.23558771E-02 -1.05414300E-01  3.76839985E-04
 -3.44821846E-02  5.68874608E-03 -2.15169581E-02  3.82993299E-02  4.49642468E-02
  7.40890111E-02 -1.30108658E-03 -4.74678155E-03  2.80740488E-02  7.71281830E-02
 -1.38532503E-02  3.24533921E-02 -1.06860506E-01  4.42808658E-03 -3.54413062E-02
  1.15200280E-03 -2.08334257E-02 -3.86603681E-02  4.36392691E-02 -7.56950158E-02
  2.83903869E-02  9.26641272E-02  5.21927467E-02 -3.81727341E-01 -1.21320418E-01
 -3.88671264E-02  1.12178711E+00  2.67755045E-01 -2.29969685E-01 -2.13489719E-01
 -3.85433083E-02  1.17905121E+00  2.43136366E-01  2.15473158E-01 -2.11269787E-01
  2.83662353E-02  9.57418768E-02  5.86477099E-02  3.73998940E-01 -1.27232193E-01
  6.49669700E-03  2.38312748E-02 -1.31580083E-01  1.42374545E-01 -1.82585670E-04
 -2.24609765E-02  1.02155490E+00 -6.39414945E-03  1.20394753E-01  7.05282584E-02
  6.14600336E-02  1.30166372E-04  2.38763535E-01  1.24298907E-05  1.61457786E-02
  6.37235360E-02 -4.89100056E-01  5.36317571E-02  3.23519906E-01 -5.22131621E-02
 -3.78541673E-01 -6.21512250E-02  1.82047786E-01  1.70591579E-01  5.87707544E-02
  1.90735301E-02  3.07338279E-01 -1.54991984E-01  1.69020630E-03  6.34514997E-03
 -4.35206742E-02 -2.11950458E-01 -1.28869019E-01  7.29261330E-02  2.51653981E-01
 -9.30772205E-01 -2.94043359E-01 -2.84203376E-02  7.35117752E-02  2.55586240E-03
 -4.23508816E-01  1.28756077E-02 -2.32827173E-02 -8.83230799E-02  6.09039332E-01
 -1.09664694E-01  4.68374893E-04 -2.57957789E-02 -5.92651581E-01  6.88599692E-03
  6.29019259E-02 -1.38623182E-01  6.48999589E-02  9.65512431E-05  8.56703808E-02
  1.08807810E-04  1.72327841E-03  6.47209367E-03 -4.43075570E-02 -2.12486309E-01
  1.28805181E-01  7.36712474E-02  2.41444345E-01  9.42177700E-01 -2.97177477E-01
 -2.84687427E-02  7.38666830E-02 -2.68655198E-03 -4.23567264E-01 -1.32600599E-02
  1.61333470E-02  6.36789712E-02 -4.88984779E-01  5.34671433E-02 -3.23510062E-01
 -5.30584306E-02 -3.90236479E-01  5.11803249E-02  1.84439226E-01  1.70544925E-01
  5.88459733E-02 -1.92612753E-02  3.07427276E-01  1.54334824E-01 -6.50563651E-03
 -2.13398267E-02 -7.64132283E-03 -5.57753426E-02 -1.84264645E-04  4.22477726E-02
  3.54004184E-01  4.62451903E-04 -1.10125974E-01 -9.36024929E-02 -6.08948045E-02
  5.06019779E-04 -1.69631421E-01 -1.50984092E-04 -5.55410116E-03 -2.15354658E-02
  8.12095793E-02  1.03680755E-01 -3.03710793E-04 -9.51616551E-03 -8.74174610E-02
 -2.23984836E-03 -9.09496460E-02  3.65857605E-02 -7.66040458E-02 -3.73103190E-04
  3.03900793E-01 -3.32500877E-04 -9.65554310E-02  1.28009267E-01 -1.06922554E-01
  3.54743730E-02  4.78668430E-02 -9.64245474E-02  1.33468225E-01 -1.07371064E-01
 -3.74402547E-02  4.82372866E-02 -8.62313328E-03 -3.14858030E-02  2.04999949E-01
 -2.33133953E-01 -3.08726977E-01  2.92116753E-02  2.83164998E-01  4.47022593E-01
 -3.15415280E-02 -4.09777456E-02 -1.16643540E-02  4.36853942E-02  4.31702408E-02
 -1.23116813E-01 -8.63084053E-03 -3.15122637E-02  2.05114029E-01 -2.33141954E-01
  3.08670193E-01  3.09259849E-02  2.83440936E-01 -4.47428964E-01 -3.45685545E-02
 -4.08574474E-02 -1.03229155E-02 -4.54808652E-02  4.32394965E-02  1.22965792E-01
  6.52120127E-03  7.89135395E-01  4.88895618E-01  7.07605679E-02  4.25255135E-02
 -2.59888683E-02 -8.73989052E-01  7.13338934E-01  4.56772870E-01  3.19914770E-02
 -2.58642530E-02 -8.75987972E-01  7.13845564E-01 -4.57933316E-01  3.30592955E-02
  6.45236983E-03  7.91511145E-01  4.89660104E-01 -7.03526217E-02  4.16113797E-02
 -2.16356696E-02 -8.47753650E-02  7.20580104E-01 -3.50393939E-01  5.42182790E-03
 -2.06541475E-02  6.65843529E-01 -1.41233355E-02  1.30160478E-01 -3.25239497E-01
  6.36502146E-02  6.95050125E-05  2.41772160E-01 -2.58470145E-03 -2.13993745E-03
 -5.46810943E-03 -1.18549265E-01  8.47284764E-02 -4.86464586E-02 -5.75036091E-02
  2.38042430E-01 -1.18338550E+00  2.35892354E-01 -4.24100020E-02  5.93441542E-02
  1.43725997E-02 -2.30355694E-01 -2.10614535E-01  8.54673290E-03  3.35140119E-02
 -2.30845741E-01  3.01720169E-01  4.81651949E-02  8.55646932E-02 -9.23614763E-01
  1.52195786E+00 -3.01451312E-01  1.68850439E-01  1.08151115E-01 -3.36456659E-03
 -1.59277060E-02 -1.40059376E-01  4.05743925E-03  1.29604486E-02 -1.25326277E-02
  4.70583481E-02  3.36926056E-03 -4.11059725E-02  2.20395725E+00 -7.06592948E-03
  2.59897111E-02 -1.10409960E-01  7.24895655E-02 -3.34961976E-04 -1.11719969E-01
  2.88183492E-04  8.93879106E-03  3.50686739E-02 -2.42569863E-01  2.99922752E-01
 -5.19660849E-02  8.56557347E-02 -9.45162883E-01 -1.52512917E+00 -3.02303271E-01
  1.74534231E-01  1.07723786E-01  3.55133325E-03 -1.61866140E-02  1.35413247E-01
 -1.86654205E-03 -4.41094863E-03 -1.25685394E-01  8.78772619E-02  4.95311501E-02
 -5.77273031E-02  2.41293322E-01  1.16905158E+00  2.36556185E-01 -3.79140814E-02
  6.00426764E-02 -1.41436991E-02 -2.34634485E-01  2.16464391E-01  1.42058215E-02
  5.48053393E-02 -2.15838903E-01  3.07566844E-02 -8.98075761E-04  4.96472062E-02
 -3.98567144E-02  1.14978026E-03 -1.37980087E-01  4.15344151E-02 -7.53951742E-02
  3.34904561E-04  1.91616169E-01  1.38170566E-04 -1.12730402E-02 -4.63323702E-02
  2.00260524E-01  5.92675200E-02 -6.13453992E-04 -1.86603011E-02  7.56002414E-01
 -2.74140996E-04  5.10160734E-02 -3.88058486E-02 -6.04370002E-02  4.06680595E-04
  5.55238029E-02 -9.24315962E-04 -2.67427772E-02 -6.58553008E-01  5.35388630E-02
 -4.43573663E-01  5.86880585E-02 -2.58163686E-02 -6.50485347E-01  5.44984739E-02
  4.38805808E-01  5.84332316E-02 -5.37258822E-03 -1.99984145E-02  1.29053721E-01
 -1.82828978E-01  2.47104640E-02  3.82568061E-02  4.61388817E-01  2.18663568E-02
 -4.27275469E-02  2.52576306E-01 -1.42350744E-02  5.64376683E-02 -2.08760823E-01
 -1.26206290E-01 -5.48138012E-03 -2.04020592E-02  1.31551845E-01 -1.83622122E-01
 -2.59447601E-02  3.77902465E-02  4.64563290E-01 -2.15516057E-02 -4.24111796E-02
  2.51170652E-01 -1.43910202E-02 -5.60388564E-02 -2.10486652E-01  1.27010702E-01
 -1.83272346E-02 -5.55775935E-01 -3.88620157E-01  3.08485905E-01  3.58870454E-02
  9.98128098E-03  9.98913273E-01 -1.34868789E-01 -9.47970016E-02  4.41648393E-04
  1.11999233E-02  1.02940829E+00 -1.26938337E-01  8.52214768E-02  6.12513486E-04
 -1.79873920E-02 -5.33767689E-01 -3.93794174E-01 -3.13198789E-01  3.55613616E-02
 -1.60969852E-04 -6.29250315E-04  5.14675677E-03 -2.71715132E-03 -6.53908390E-01
 -1.07942348E-03  3.07132923E-03  1.48512741E+00  4.70453329E-03 -2.59795634E-03
  2.12972396E-03 -6.81994240E-03  1.50929703E-03  2.39467271E-01  1.78512739E-02
  6.94136400E-02 -4.83892566E-01  1.79759864E-01 -4.73224482E-02 -2.55179428E-02
  5.11666585E-01  7.49028553E-01  1.30129272E-01  3.12851328E-01  1.88111022E-02
 -2.93492836E-02 -2.06068611E-01 -3.66146598E-01  2.12263933E-02  8.36324090E-02
 -6.16742594E-01 -9.66886992E-02  1.44998338E-01  3.70275748E-02 -1.04997115E+00
  4.27580624E-01 -2.06641597E-01  3.27769746E-01 -1.76535609E-02 -2.17301854E-02
 -5.47156228E-02  3.10060730E-01  3.21432616E-05  1.12086173E-04 -3.45981721E-04
 -7.57335194E-05 -4.52437900E-01 -1.44444430E-03  8.64602121E-03  1.01166435E+00
  3.11617995E-03 -2.71531635E-04  2.00319037E-03 -8.19156157E-03 -3.61842924E-04
 -6.37518221E-02 -2.10316364E-02 -8.28629712E-02  6.10841560E-01  1.00474924E-01
  1.43955648E-01 -3.19357070E-02  1.04087959E+00  4.14427630E-01  1.87536963E-01
 -3.25906902E-01  2.33187788E-02 -2.15228719E-02  5.53551144E-02  3.11596738E-01
 -1.79033250E-02 -6.95758419E-02  4.83040106E-01 -1.78749792E-01 -4.57594247E-02
  2.26944825E-02 -5.06165155E-01  7.61661895E-01 -1.18662487E-01 -3.13127725E-01
 -1.64950044E-02 -3.06219393E-02  2.01472913E-01 -3.64064632E-01  1.13092706E-04
  4.31580005E-04 -1.57074878E-03  2.03335220E-04  1.28465593E-01  1.21042241E-03
 -1.02077868E-03 -1.58419937E-01 -4.04280802E-03  4.43285224E-04 -2.29856838E-03
 -3.20275665E-02  1.61191811E-03 -1.01965409E-02 -4.81610855E-05 -1.92953350E-04
  7.51475275E-04 -1.92260248E-05  7.51374947E-02 -6.53529236E-04  2.72843985E-03
  2.00055810E-01 -7.02893721E-04 -3.26308842E-04 -2.15683920E-03 -7.54494233E-02
  5.59173821E-04  1.19348784E-01  7.31251785E-02  6.91873778E-01  2.04058075E-03
  3.49042028E-01 -7.83838730E-02 -7.36851109E-02 -6.95215190E-01 -2.04178721E-03
  3.52306040E-01  7.97984751E-02 -7.77687114E-03 -2.88966889E-02  1.80576705E-01
 -2.33573423E-02  4.75990142E-02  2.95534465E-02  1.68206873E-01  5.84447532E-02
 -5.85528604E-02 -9.40665137E-02  2.48557044E-02  2.88136330E-02 -7.81906764E-02
 -6.41636346E-02  7.72809932E-03  2.87135084E-02 -1.79407131E-01  2.13221108E-02
  4.64210258E-02 -2.69979574E-02 -1.62306883E-01  5.93125856E-02  5.54098753E-02
  9.76597748E-02 -2.52880891E-02  2.54903750E-02  7.51407291E-02 -6.23992466E-02
  2.25577753E-02  1.49208863E+00 -3.38178936E-01  3.01504175E-01 -6.29318685E-02
  6.02490076E-02  1.72786850E+00  5.49347493E-01  4.79817548E-01  6.13192741E-02
 -6.00522689E-02 -1.71687923E+00 -5.51709421E-01  4.80531697E-01 -5.90591694E-02
 -2.30076014E-02 -1.49886399E+00  3.32184916E-01  2.96979893E-01  6.68459902E-02
 -6.28715189E-04 -2.73376707E-03  5.99189175E-02 -4.96232532E-02 -3.31540378E-03
  1.24213397E-01  3.58589145E-01  9.84935077E-03 -6.50556570E-01 -2.24314286E-02
 -2.81837142E-01  1.25022471E-04  6.83885313E-02  1.14114144E-03  2.89822975E-04
  1.70141201E-03 -4.97584053E-02  1.21446971E-02  4.65777440E-02  1.93736402E-01
  1.50953935E-01 -2.70123000E-01 -8.08507051E-01  8.10473514E-03 -2.25697935E-01
 -7.97147638E-02  8.38287527E-02 -1.25550234E-01 -2.48783680E-03 -1.07712949E-02
  1.28788673E-01  8.38382191E-02 -1.00913388E-01 -3.34729863E-01 -3.42864194E-01
  6.61449508E-01  1.46642425E+00  2.70479727E-02 -3.89320535E-01  1.10985656E-02
 -9.81252308E-02 -3.27567278E-02 -2.24771069E-03 -9.33289144E-03  7.18740743E-02
 -2.80641890E-02 -2.33160382E-03  1.87597458E-01  1.34001370E+00  3.43167866E-04
 -5.82935597E-01 -7.99935227E-02 -2.70261344E-01 -1.46731173E-03 -5.16571319E-02
 -1.87782379E-04 -2.57821572E-03 -1.10963450E-02  1.30171038E-01  8.33239442E-02
  9.99209431E-02 -3.36901813E-01 -3.30020414E-01 -6.60746816E-01  1.47940328E+00
  2.47942287E-02 -3.91074043E-01 -1.12997736E-02 -9.73419267E-02  3.55401501E-02
  1.13520398E-04  1.01630819E-03 -4.50446537E-02  9.86473131E-03 -4.68797031E-02
  1.94870380E-01  1.46560210E-01  2.82137609E-01 -8.16856546E-01  4.79433272E-03
 -2.25703323E-01  7.81851219E-02  8.52919856E-02  1.21314865E-01  1.17477338E-03
  5.61143598E-03 -5.13778032E-02  1.30032448E-02  5.10919130E-04 -1.89350963E-01
  8.66784353E-02 -8.78991576E-04  5.52251860E-01 -2.72252136E-02  3.09824184E-01
 -8.68357487E-04  1.87898546E-03 -3.34161441E-05 -8.84906145E-03 -3.64801260E-02
  1.62548489E-01  7.64882124E-02 -8.24334272E-05  1.22080540E-01  4.11798727E-01
  3.08975419E-03  2.10180140E-01 -3.53341497E-02  2.85906200E-01 -1.16786354E-03
 -2.44358474E-02  2.85465739E-04 -8.99317835E-04 -5.75757732E-01  1.30813027E-01
 -2.09237256E-01  4.16724163E-03 -1.99832415E-03 -5.84249470E-01  1.31012367E-01
  2.13547037E-01  7.40255757E-03 -4.24436825E-03 -1.55211962E-02  9.91027018E-02
 -1.06359415E-01 -8.96956798E-02 -1.51253626E-01  1.99761252E-01  1.47284390E-01
  1.74731585E-01  4.77101203E-02  5.01373421E-02 -2.24760114E-01 -3.25003817E-02
 -6.47652821E-02 -4.15814242E-03 -1.52019016E-02  9.71359936E-02 -1.05832416E-01
  8.96080051E-02 -1.58757867E-01  1.97704899E-01 -1.45937906E-01  1.86060449E-01
  4.81689740E-02  4.56334437E-02  2.30377742E-01 -3.21194802E-02  6.39104255E-02
 -2.91368940E-03  1.11734053E-01  2.19024356E-02  1.15634840E-03 -1.96459128E-01
 -9.49220257E-03  1.49404120E-01  1.51481938E-01 -8.69752950E-02 -2.04589205E-01
 -9.65498559E-03  1.40573541E-01  1.43285556E-01  8.81128891E-02 -2.07749698E-01
 -3.57009454E-03  9.29486899E-02  2.51769502E-02  1.95029695E-03 -1.95097039E-01
 -7.71589932E-05 -3.05452755E-04  2.82130171E-03 -8.81041802E-04 -5.94115679E-02
  9.69015942E-04  2.27673290E-03  3.31564379E-01 -4.31520278E-03 -8.11057982E-04
 -2.59687211E-03 -8.13669144E-03  1.20670430E-03  2.38062650E-02 -2.05687683E-03
 -9.59781765E-03  1.28360639E-01 -7.96499029E-03 -7.19463986E-02  2.59081345E-02
 -6.30767836E-01  1.35113825E-01 -2.74003701E-01 -4.36439220E-02 -4.72529597E-02
  1.01179485E-01 -5.46499487E-02  4.46001259E-02  8.82944441E-03  3.60241687E-02
 -3.03147114E-01 -1.44226623E-01  1.50566063E-01 -8.11405141E-02 -3.46211374E-01
 -2.59290081E-01  5.84483086E-01  8.28157062E-02 -1.07969468E-01  1.26774661E-02
  4.11287655E-02  3.58081295E-02  3.61562304E-05  1.26277009E-04 -8.00251096E-04
 -1.38261033E-04 -2.25010274E-02  1.82016531E-03  1.44442425E-02 -2.39482645E-01
 -6.08275641E-03 -5.55112190E-04 -1.94060913E-03  1.88032659E-01 -9.61089185E-04
 -2.09256178E-02 -8.88279168E-03 -3.62621644E-02  3.06311680E-01  1.47484767E-01
  1.51990182E-01  7.54558277E-02  3.36665785E-01 -2.79400222E-01 -5.56265935E-01
 -8.15703106E-02  1.01820956E-01  1.30722522E-02 -4.13619528E-02  3.71708692E-02
  2.01816755E-03  9.45063750E-03 -1.27877980E-01  8.95983219E-03 -7.15078350E-02
 -2.24384916E-02  6.32387057E-01  1.46154165E-01  2.59454186E-01  4.27996375E-02
  4.30318910E-02  1.02992729E-01  5.41955454E-02  4.65564232E-02  3.32164869E-05
  1.27529704E-04 -4.80083925E-04  2.11236308E-04  1.96071103E-02 -1.84237630E-03
 -4.72602969E-04  1.95087260E-02  4.57797507E-03 -2.62178363E-04  2.36077497E-03
  1.46149591E-01  7.90790823E-04  1.82645587E-02 -8.35579666E-05 -3.45784032E-04
  1.55750096E-03  4.84291115E-04  7.89702812E-02  9.74760145E-04  3.71574728E-03
 -2.89796664E-02  2.03335872E-03 -1.54476969E-04  2.60533956E-03  1.41052922E-01
 -8.20479620E-04  5.79808337E-02 -2.00858321E-02  2.61212540E-01  1.23904565E-01
  2.21719879E-01  1.55300972E-01  2.04900409E-02 -2.72148246E-01 -1.20732513E-01
  2.26392801E-01 -1.55151522E-01  1.10324334E-03  3.94981098E-03 -2.34025689E-02
  3.79432820E-02  4.37797342E-02 -4.10670840E-01 -4.32048544E-02 -6.29988604E-02
  6.46812561E-01  1.13121999E-02 -2.61729365E-01 -3.01408925E-01 -1.43985562E-02
  1.55143066E-02 -1.11136150E-03 -3.97655437E-03  2.34922549E-02 -3.88360355E-02
  4.39529312E-02  4.08635414E-01  4.59849310E-02 -6.32978134E-02 -6.44676556E-01
 -9.44229043E-03  2.62777640E-01 -2.97817760E-01  1.33770337E-02  1.68000020E-02
 -1.33966669E-02 -3.28923295E-01  3.07456429E-02 -9.73916747E-02 -3.45092989E-02
  4.34671767E-02  4.95095597E-01 -5.67673383E-02  2.67520307E-01 -7.93632951E-02
 -4.35609433E-02 -4.86550586E-01  5.60656271E-02  2.71827127E-01  7.40973739E-02
  1.35388139E-02  3.23839870E-01 -3.35530143E-02 -9.93496830E-02  2.98730037E-02
 -2.49677847E-05 -1.05335982E-04  1.07429931E-03 -3.75763382E-05 -1.00841945E-02
 -1.18333970E-04 -2.06951903E-03 -5.92039074E-01 -4.94063289E-04 -2.50831372E-04
 -3.64945929E-04  1.67418933E-02  1.45604156E-04 -1.33301579E-03  1.04073491E-02
  4.54116510E-02 -5.06618815E-01  7.89899822E-02  2.03749881E-01 -4.12299705E-02
  1.99613281E+00 -4.19199295E-01  1.64701886E-01  2.02252064E-01  1.71717875E-02
  5.22919148E-03  6.16632651E-02 -2.47405370E-01 -2.05710827E-02 -8.46260776E-02
  7.34615029E-01  4.22911130E-01 -3.71882548E-01  2.56354800E-02  7.46418726E-01
  9.99482799E-01 -7.54477901E-02 -1.89176827E-01 -7.74915683E-02 -7.37970076E-03
 -1.21262926E-01 -3.80422835E-02  1.28730533E-05  4.73077635E-05 -3.32619937E-04
 -8.95645581E-05 -3.58152201E-02 -1.16613481E-05  7.20411778E-04  1.03055514E+00
  4.92367234E-04  1.15670001E-04 -4.50159330E-04  1.02802673E-01  7.97886867E-05
  7.83527136E-02  2.05911095E-02  8.47031827E-02 -7.35147218E-01 -4.22863069E-01
 -3.72120635E-01 -2.66915166E-02 -7.45751603E-01  9.97841914E-01  7.94722286E-02
  1.89291600E-01  7.57157207E-02 -7.64229558E-03  1.22125139E-01 -3.80265551E-02
 -1.04160854E-02 -4.54497033E-02  5.07119218E-01 -7.84572038E-02  2.03749224E-01
  4.23532094E-02 -1.99570207E+00 -4.17315497E-01 -1.68931675E-01 -2.02070416E-01
 -1.83863528E-02  5.43104174E-03 -6.28995733E-02 -2.47990768E-01  1.29351139E-06
 -1.27984093E-06  1.69466280E-04  9.88880052E-05 -3.59037433E-02 -4.40548909E-04
 -7.29040163E-04 -7.33206593E-02  8.93110635E-04  1.03520344E-05  3.97764810E-04
  3.71005855E-02  3.39515346E-04 -4.69106667E-02  5.28611298E-06  2.17162621E-05
 -9.76589241E-05 -9.74670777E-05 -1.58121148E-01  2.79746103E-04 -1.08818943E-04
  2.52775740E-01  6.87737859E-05  1.25747503E-06  3.96036510E-04 -3.10637186E-02
 -5.06247266E-04 -1.70248083E-01  9.31857531E-02 -3.16792529E-01 -5.24353947E-01
 -5.07569313E-01  3.09011398E-02 -9.30324894E-02  3.16294354E-01  5.24602863E-01
 -5.08129935E-01 -3.16577234E-02 -5.09566939E-03 -1.85652261E-02  1.14379782E-01
 -1.29160877E-01 -1.02843238E-01 -1.46612397E-01  1.86848933E-01  1.84457352E-01
  2.25791737E-01 -6.25541430E-02 -9.33938393E-02 -1.00342636E-01  8.80663127E-04
 -6.52733694E-02  5.13996295E-03  1.87292474E-02 -1.15482518E-01  1.30012871E-01
 -1.03591121E-01  1.46633801E-01 -1.87992172E-01  1.85919373E-01 -2.26024060E-01
  6.26967623E-02  9.38403400E-02 -9.96770283E-02 -7.96069752E-04 -6.53682922E-02
  3.87836656E-02  1.23000723E+00 -2.45715250E-01  4.41223806E-01 -1.22389038E-01
 -1.12447733E-01 -9.36517181E-01  2.35684590E-01 -6.60435200E-01  4.36974321E-02
  1.12536176E-01  9.38492667E-01 -2.36915949E-01 -6.60195118E-01 -4.34301453E-02
 -3.85965532E-02 -1.23099691E+00  2.45588451E-01  4.40327594E-01  1.23068800E-01
 -2.12667014E-02 -8.46469559E-02  7.41459150E-01  1.14665299E-01  1.08012135E-03
  3.29940389E-02 -3.16824510E-01  2.09389444E-02 -2.27115624E-01  1.92776324E-03
 -5.06761307E-02 -1.14594968E-05  2.13211959E-01 -8.63668682E-04  2.18056804E-02
  8.63663288E-02 -7.23038267E-01  1.16174144E-01  2.14909167E-01  3.82048780E-03
 -7.04652503E-01 -1.36685478E+00 -2.79518123E-02 -9.70032144E-02 -1.53561257E-02
  5.33761566E-03 -2.52157723E-01  4.09306699E-02  5.49605287E-03  2.70504558E-02
 -3.56400865E-01 -1.53311034E-01  4.69363342E-01 -4.60717315E-02 -1.30990244E+00
  1.51008437E+00  3.52890650E-01  3.65926961E-01 -4.00925187E-02  1.50820394E-02
 -1.72024503E-01 -2.23523485E-02 -4.35743733E-03 -2.05693998E-02  2.85426971E-01
  3.62341040E-01 -1.99198637E-03  3.43135166E-02  2.16226136E+00 -2.32999579E-02
 -3.92057504E-01 -2.34487101E-01 -3.37804159E-04 -5.03402215E-04 -3.63671421E-02
 -2.88130158E-03  5.43574286E-03  2.67974063E-02 -3.53642630E-01 -1.49625399E-01
 -4.72128747E-01 -4.66791035E-02 -1.26465037E+00 -1.51992711E+00  3.56851163E-01
  3.63502185E-01 -4.02696581E-02 -1.54821597E-02 -1.70275897E-01  2.73579895E-02
  2.18378928E-02  8.65118432E-02 -7.24514395E-01  1.19858420E-01 -2.17470028E-01
  3.91757287E-03 -6.65983300E-01  1.40664901E+00 -3.06170433E-02 -9.83877632E-02
 -1.51768474E-02 -5.39418367E-03 -2.56827750E-01 -3.95424069E-02  2.05040375E-03
  6.61426364E-03  1.69667560E-02 -1.37641925E-01 -3.05162589E-04 -6.95361907E-03
  6.52839143E-02 -5.93810151E-04  8.01952379E-02  3.27231191E-02  6.62619635E-02
  2.72864202E-04  1.62920973E-02 -9.77575876E-05 -3.72976535E-03 -1.73177120E-02
  1.00523381E-01  2.21205780E-01  9.28785743E-04  6.12597204E-02  1.17904067E+00
  1.04287833E-02 -8.81612132E-03  4.03555351E-02 -3.13787098E-02 -4.24537867E-04
  3.01351277E-01  9.97592563E-04 -6.90011173E-02 -6.35461935E-01 -1.38845622E-01
 -6.30433532E-01  1.47113650E-01 -6.91729039E-02 -6.58595243E-01 -1.37343185E-01
  6.38311557E-01  1.49997428E-01  6.76721788E-03  2.46264273E-02 -1.53598506E-01
  1.07016621E-01  1.50951460E-01 -4.24463256E-02 -2.82500156E-01 -2.39753251E-01
  6.56544717E-02 -5.72048854E-03  3.32190673E-03 -5.40822691E-02  2.30451430E-03
  9.16726107E-02  6.89689382E-03  2.51087289E-02 -1.56784004E-01  1.07966963E-01
 -1.53669802E-01 -4.27345912E-02 -2.84891089E-01  2.44188497E-01  6.57162574E-02
 -4.96363288E-03  3.26273105E-03  5.41886415E-02  1.71489404E-03 -9.19324583E-02
  4.09595128E-02 -6.21810604E-01  6.07711838E-02  5.38127168E-01 -4.29093850E-02
  1.45269510E-02  2.13833449E+00 -2.01446336E-01  6.00030214E-01 -1.23609312E-01
  1.40251736E-02  2.12240626E+00 -2.06802563E-01 -5.98727192E-01 -1.25261101E-01
  4.14362029E-02 -6.28455349E-01  5.46707788E-02 -5.49847665E-01 -4.16406536E-02
  1.52384464E-04  5.98789072E-04 -5.01616049E-03 -4.62268051E-04  2.77239501E-01
 -8.68778725E-05  1.41547063E-05  2.28400262E+00  1.44296487E-03  4.01928268E-07
  4.54103202E-04 -1.27483683E-02 -1.27460125E-03 -1.64979765E-01 -3.94487237E-03
 -1.63495074E-02  1.20908176E-01 -3.14180035E-01 -2.05691998E-01 -7.64004437E-03
 -2.31128097E+00  3.00217730E+00  5.43565387E-02  1.36503164E-01  9.02668773E-03
 -2.15858017E-02  4.50975317E-01  1.15673635E-01  1.01003317E-03  4.59703626E-03
 -9.29283055E-02 -2.55083832E-01 -3.27018202E-01  1.43851112E-02 -2.81297478E+00
 -2.35128279E-01 -1.03716757E-01  1.55353481E-01 -1.88643055E-02 -2.75059597E-02
 -1.26646931E-01  3.97024549E-01  1.58866055E-05  8.65651590E-05 -1.52430136E-03
 -2.27688576E-03 -2.73876938E-01 -1.45210435E-04 -1.45212049E-02 -2.98773135E+00
  1.51589203E-03  1.48466891E-03  2.00998880E-04 -1.17153187E-02  8.68665820E-06
 -5.09278983E-01 -1.07088586E-03 -4.89888803E-03  9.68283271E-02  2.56623748E-01
 -3.21093142E-01 -1.39338282E-02  2.82797555E+00 -2.16706968E-01  9.89563621E-02
 -1.59635121E-01  1.96234465E-02 -2.74230345E-02  1.28153990E-01  3.96730174E-01
  3.68848902E-03  1.53286831E-02 -1.12147041E-01  3.12612539E-01 -2.04011387E-01
  7.05701661E-03  2.31991844E+00  2.98242980E+00 -5.27774697E-02 -1.35294037E-01
 -8.32635584E-03 -2.15837749E-02 -4.47023068E-01  1.16142196E-01 -1.83671056E-05
 -6.47252613E-05  4.72750602E-05  7.64013075E-04 -1.95313309E-02  4.82809466E-05
 -1.21004682E-03 -4.99756976E-02 -4.51899125E-04 -1.22112377E-04 -4.23546026E-04
 -1.08158295E-02 -2.61301648E-04 -9.26518346E-03  8.03040292E-06  4.77838672E-05
 -3.93624554E-04 -1.19576473E-03  1.66579289E-01 -3.09709674E-04 -6.88413793E-03
  1.91532060E+00  5.82243618E-04 -3.09528649E-04 -1.40808431E-05 -1.38303443E-03
 -1.33551385E-03  1.65286567E-01  2.56948778E-02  2.05176677E+00 -1.67752243E-01
  6.88525155E-01 -1.58173008E-01 -2.51680196E-02 -2.04301005E+00  1.69421668E-01
  6.80611590E-01  1.57683609E-01 -1.08879625E-02 -4.05955130E-02  2.70494206E-01
 -4.63519439E-02 -2.27064388E-01 -1.60845044E-02  1.68235030E-01  3.67341090E-01
  1.65181999E-02 -7.88882136E-02 -6.43212955E-03 -5.52900460E-03  7.91225380E-02
 -2.12720117E-02  1.08359525E-02  4.04114601E-02 -2.69464679E-01  4.55276847E-02
 -2.25578494E-01  1.67996506E-02 -1.65698409E-01  3.65723808E-01 -1.78410851E-02
  7.82777031E-02  6.37614055E-03 -6.19030555E-03 -7.87520073E-02 -2.02503361E-02
 -4.16246163E-02  6.41205147E-01  5.88442861E-01 -1.07024380E+00 -5.18918600E-02
  2.69963203E-02  1.09823582E+00  4.14510185E-01 -1.03971760E-01  3.30271603E-02
 -2.73012463E-02 -1.12418437E+00 -4.11429321E-01 -9.71161419E-02 -3.16063788E-02
  4.11346842E-02 -6.32272987E-01 -5.86455583E-01 -1.06246702E+00  5.29235792E-02
 -1.72463921E-02 -6.42809297E-02  4.38888531E-01  5.74984316E-01 -7.87682567E-04
 -9.88298483E-03  1.42422661E+00 -2.41947088E-02  1.55330883E-01  1.94913231E-01
  1.61945246E-02 -9.53573680E-05  3.15209086E-01 -1.15765297E-03  7.14559832E-03
  2.16949836E-02 -1.11097544E-02  1.12967814E-02 -3.79768756E-01  9.14680358E-03
 -2.34941000E+00 -2.68882969E+00 -6.05483366E-02 -4.63301510E-01 -1.61591483E-03
 -2.49649109E-02 -5.02938954E-02 -1.14501168E-01 -1.49234095E-02 -5.63534743E-02
  4.37450620E-01 -5.90498646E-02  2.72501428E-01  1.25376346E-02 -1.76047927E+00
  3.01449473E+00 -1.52952444E-01  4.57018600E-01 -4.59233922E-03 -4.92538752E-03
  2.61561864E-01  3.22124852E-02  3.21181321E-02  1.23902067E-01 -1.02724982E+00
  1.36091369E-01 -3.39607701E-03 -9.91899284E-03  1.41673419E+00  2.50548850E-02
  2.52610612E-01 -1.46534693E-02 -2.69240847E-02  2.79278718E-05 -1.78727558E-01
 -2.91846781E-03 -1.47927323E-02 -5.57663277E-02  4.30562297E-01 -5.68126532E-02
 -2.78979982E-01  1.20584420E-02 -1.81129012E+00 -2.96682453E+00 -1.50605258E-01
  4.55269825E-01 -4.08058513E-03  4.23281528E-03  2.67943970E-01 -3.17745166E-02
  6.76661144E-03  2.02119847E-02 -6.82607207E-04  8.19354041E-03  3.84728787E-01
  9.81675230E-03 -2.39717908E+00  2.64698641E+00 -6.11791527E-02 -4.66210498E-01
 -1.93005406E-03  2.45365288E-02 -5.45162757E-02  1.12732193E-01 -9.35310333E-03
 -3.37478775E-02  7.91636226E-02  3.98083229E-03  2.32088786E-03 -2.77945830E-02
  5.03983564E-01 -3.34567619E-03  6.26990961E-03 -1.46846452E-01 -3.73212728E-02
 -5.90709179E-05 -9.84438827E-02 -2.12977931E-03 -6.86438358E-03 -2.72727878E-02
  1.05381359E-01 -5.60530571E-02  8.80131481E-04 -3.55536494E-02  1.95796311E-01
  1.02262841E-02  1.84831841E-01 -8.50152403E-02  1.28675934E-01 -6.16267358E-05
 -2.38535394E-01  7.48079497E-04  2.09462441E-02 -3.49172342E-01  2.25117924E-01
 -8.44592426E-02 -1.06739838E-01  1.96097173E-02 -3.76177868E-01  2.28578039E-01
  9.44094113E-02 -1.04654837E-01 -2.11746671E-03 -7.83562579E-03  6.16442627E-02
 -1.40090400E-01 -1.90857365E-01  3.56568320E-02  5.65869322E-02  3.87827213E-01
 -6.85178415E-02 -9.01737636E-02  2.30989070E-03  3.80751813E-02  3.58477596E-02
 -9.58273031E-02 -2.43034850E-03 -9.00326625E-03  6.97210906E-02 -1.51961297E-01
  1.94590856E-01  3.54108667E-02  7.58052949E-02 -3.95532258E-01 -6.83336614E-02
 -9.10011531E-02  2.15941110E-03 -3.84341393E-02  2.81083080E-02  9.93940931E-02
 -4.34537909E-02 -2.94476790E+00  4.97586425E-02 -3.16436584E-01  2.83288591E-02
 -1.75428238E-02  3.03350025E+00 -1.24906785E-01  3.68093371E-02  6.85482712E-02
 -1.70018202E-02  3.03353077E+00 -1.29028896E-01 -4.39999092E-02  6.72313428E-02
 -4.62872727E-02 -2.95635181E+00  5.13410199E-02  3.24591147E-01  3.11697435E-02
  2.56070063E-04  9.68165955E-04 -7.16701389E-03 -7.11688676E-03 -5.14931518E-02
  1.19478558E-04 -1.96039731E-02 -1.81369485E+00 -4.08937338E-03 -2.09816021E-03
 -2.58829629E-04 -6.15330582E-04 -4.48452424E-03 -1.02207638E-01  1.37158803E-02
  5.41601346E-02 -3.96873173E-01  1.23657814E-01  1.80969742E-01 -1.11098734E-02
  1.86255444E+00 -1.60698485E+00  9.19072968E-02  1.12664439E-01  1.10329331E-02
 -1.78542076E-02  1.59111930E-01 -8.15974283E-02 -4.31639387E-03 -1.92466334E-02
  2.19037000E-01 -7.52543253E-02 -2.25519785E-01  1.43842907E-02  1.98021383E+00
  1.84861923E+00 -1.23331164E-01  5.66340297E-02 -1.13489499E-02 -1.81694428E-02
 -2.02948561E-01  5.73080677E-03 -4.39023073E-04 -1.69784024E-03  1.43657986E-02
 -1.10821138E-03 -2.05406470E-01  1.39711665E-04 -1.94720452E-02  1.99913288E+00
 -4.74808732E-03 -1.47913292E-05  7.74101601E-04 -1.42128095E-02  2.67711632E-03
 -2.00155982E-01  4.72235914E-03  2.08038491E-02 -2.32011617E-01  7.56173616E-02
 -2.19681859E-01 -1.45877848E-02 -1.93232216E+00  1.93208548E+00  1.27955429E-01
 -6.84820647E-02  1.17718490E-02 -1.83568335E-02  1.96031144E-01  5.60867899E-03
 -1.39028607E-02 -5.47410149E-02  3.97773893E-01 -1.25034987E-01  1.72217344E-01
  1.06076337E-02 -1.80176759E+00 -1.68101300E+00 -8.73998338E-02 -1.00884340E-01
 -1.06081862E-02 -1.88245926E-02 -1.57541156E-01 -8.52694697E-02  1.08307006E-04
  3.88153590E-04 -8.69801664E-04  4.74162528E-05  1.93894420E-01  9.63697468E-04
 -6.49248099E-03 -3.10186021E-01 -6.36922020E-04  1.88064621E-03  9.88832919E-04
 -2.90487228E-03  1.35656085E-03 -1.52722231E-01  1.14830259E-04  4.57043857E-04
 -1.80008393E-03  8.45897158E-04  5.25097383E-02  6.00692142E-04 -1.05947563E-03
  6.46482770E-01 -2.87385541E-03  1.16197769E-03 -2.50818888E-03 -4.23783707E-02
  3.85921880E-03  4.59896246E-02  4.08790942E-02  8.55141146E-01 -1.07218842E-01
  3.11100048E-01 -9.03132385E-02 -4.17564930E-02 -8.44800509E-01  9.97488298E-02
  3.09169814E-01  9.47861737E-02  1.16501570E-02  4.34590426E-02 -3.01120957E-01
  4.61516926E-01  1.63648042E-01 -1.04511547E-02 -7.32133465E-01 -3.17328097E-01
  1.48560315E-02  1.64354504E-03 -7.57326534E-03 -3.53373291E-03  3.00414680E-01
  1.30704961E-01 -1.15908945E-02 -4.32389949E-02  2.99392976E-01 -4.57995307E-01
  1.58299783E-01  8.26735265E-03  7.30856481E-01 -3.06392797E-01 -1.04375028E-02
  1.31683357E-04  7.22641447E-03 -1.78658828E-03 -3.01301970E-01  1.27785734E-01
  9.82521313E-02  4.84177041E-01 -5.10441462E-04  2.96789595E-01 -5.06434360E-02
 -2.34573939E-02  4.02875305E-02  1.24408186E-01 -2.61636571E-01  3.20388333E-02
  2.39591377E-02 -1.18892865E-01 -1.21690236E-01 -2.62917347E-01 -3.43939162E-02
 -9.74113453E-02 -4.06714542E-01 -1.21792262E-04  2.90581340E-01  4.96904419E-02
 -3.06472269E-03 -1.35536562E-02  1.91005421E-01 -8.51810343E-02  2.28314970E-04
 -2.29510748E-02 -1.46144229E-01 -4.66900528E-03  1.10598649E+00 -2.78039483E-02
  8.72640584E-02 -4.50575767E-05  9.88817880E-02  2.60799706E-04  7.10679115E-04
  4.55311298E-03 -9.49336187E-02  2.02003959E-01  2.81221544E-01  9.20724211E-02
  2.88085538E-01 -3.94046336E-01 -1.14197368E+00  4.86046801E-02  4.44466672E-02
 -1.69725325E-01  6.09045548E-02 -1.68085942E-01  4.36546665E-04 -4.61689697E-04
  1.10777798E-01  8.54032814E-02 -1.14292146E-01 -3.66738372E-02 -7.23773096E-03
  1.01329075E+00 -2.57456550E-01  6.52383550E-02 -2.50539951E-01 -1.96277960E-03
 -8.44718679E-02 -1.62792462E-01  6.23524650E-03  2.49073581E-02 -3.00150514E-01
 -2.86233251E-01  3.76730550E-04 -5.93697309E-02  1.79436152E+00  3.67661024E-03
  1.05222118E+00  4.47762918E-02 -2.78228303E-01 -5.35892926E-04 -6.76960671E-02
 -3.72164402E-05  3.92557205E-04 -6.43564644E-04  1.12563766E-01  8.47048882E-02
  1.14485162E-01 -3.69891672E-02 -1.46232813E-02 -1.00587259E+00 -2.55513942E-01
  6.49245990E-02 -2.51132651E-01  1.16283241E-03 -8.54546263E-02  1.62861386E-01
  7.05300398E-04  4.51757155E-03 -9.41086572E-02  2.01213242E-01 -2.81822987E-01
  9.15957853E-02  2.78263831E-01  3.94100953E-01 -1.14289553E+00  4.81653681E-02
  4.44211950E-02  1.68094944E-01  6.20511143E-02  1.67248383E-01  2.32964363E-03
  8.75122929E-03 -2.28155102E-02 -1.09579182E-01  4.19089657E-04 -3.88605046E-01
  1.90089563E-02 -1.16623363E-03  5.37139579E-01  2.35706856E-02 -1.81584840E-01
 -1.39328799E-04 -3.68968467E-02 -8.19248479E-04 -1.95996012E-02 -7.92667176E-02
  3.39497941E-01  9.56883349E-02 -5.73358177E-05 -2.06129419E-02 -1.06938357E-01
 -1.08094510E-03  3.89601283E-01 -1.65050530E-01  3.88981629E-01 -2.05645090E-04
 -2.78647764E-01 -3.48853333E-07  1.13391308E-02 -7.52124153E-01  4.79328550E-01
 -1.02098392E-01 -2.55056679E-01  1.14181306E-02 -7.50252573E-01  4.79742060E-01
  1.00378491E-01 -2.54070281E-01  2.05792670E-03  7.74082365E-03 -5.30091888E-02
  4.30760336E-02  4.94769776E-02  2.52082337E-01 -1.22933019E-01 -9.88805435E-02
 -5.82460801E-01  1.11270435E-02  6.62855372E-02  2.28435278E-01  2.30848623E-02
  5.81498071E-02  1.97728545E-03  7.43469674E-03 -5.07804987E-02  4.07687955E-02
 -4.87610536E-02  2.51482146E-01 -1.18610325E-01  9.72436816E-02 -5.81510106E-01
  1.11092704E-02  6.58940846E-02 -2.28107692E-01  2.11869885E-02 -5.76756310E-02
  4.49051381E-02  6.37102868E-01  1.60412711E-01  3.19263527E-01  3.66606096E-01
 -1.04965944E-02  1.94988120E-01  1.34566483E-02 -1.97445786E-01  2.56907325E-01
 -1.06100820E-02  1.92160756E-01  1.64312490E-02  1.95788379E-01  2.57487482E-01
  4.50094590E-02  6.33384283E-01  1.62090979E-01 -3.19410822E-01  3.66661083E-01
 -6.02479203E-03 -2.51113423E-02  2.89131797E-01 -4.19470597E-02 -4.21548880E-04
 -1.03825909E-02  2.17643597E-01  4.39199105E-04 -7.10570528E-01 -3.56182791E-02
 -5.40934181E-02 -9.32447246E-04  2.05061427E-01 -2.20633062E-03 -4.60065197E-04
 -9.15210189E-04 -2.43122806E-02  2.77095909E-01  2.81062706E-01 -6.90540965E-02
 -1.60768281E-01 -9.56676293E-01  1.09229974E+00 -5.43957438E-03 -7.92343542E-02
  9.56559806E-02  8.98787928E-02 -2.51660725E-01 -1.55186520E-03 -9.46167240E-03
  2.37901701E-01  1.15739862E-01 -2.02802244E-01  8.76439254E-02  7.31804291E-03
  1.45559468E+00 -3.83956121E-01  1.15540368E-01  2.26741371E-01 -3.86758564E-02
 -2.11382695E-02 -2.44016281E-01  1.56176145E-02  6.32350331E-02 -7.09594584E-01
 -4.29485496E-01 -2.07712383E-03  4.62397496E-02  1.51099134E+00  2.85775307E-03
 -3.42339126E-03  1.19597475E-01  1.94600004E-01  8.57278345E-04 -1.21659082E-01
  2.92552025E-04 -1.45182843E-03 -9.00855126E-03  2.31868551E-01  1.17891122E-01
  2.02129058E-01  8.85258163E-02  4.23260783E-05 -1.47169680E+00 -3.93865405E-01
  1.16526168E-01  2.28285034E-01  3.75567088E-02 -1.71590068E-02  2.43503044E-01
 -4.71067359E-04 -9.14597026E-04 -2.64291771E-02  2.77361847E-01 -2.78539795E-01
 -7.00985707E-02 -1.59146235E-01  9.37736246E-01  1.10249578E+00 -4.87684358E-03
 -7.91867125E-02 -9.56973971E-02  8.80509241E-02  2.54308390E-01  1.66834404E-03
  6.58917287E-03 -2.01457648E-02 -1.55175938E-01 -5.30657934E-04  3.68040595E-01
  1.04899141E-01 -3.22343212E-05 -6.45412648E-01  1.25351201E-02  8.85316811E-02
 -1.02847355E-03 -7.84960688E-02 -1.16671931E-04 -2.52183435E-02 -1.01075226E-01
  4.22584042E-01  3.62338288E-02  3.78828393E-05 -1.28749583E-01 -5.59584701E-01
  2.49998838E-03  3.47838343E-01 -2.67799041E-01  1.08372017E-01  9.59656727E-04
 -4.13002552E-01  2.95033280E-04  2.28484671E-02 -5.77577255E-01  6.10239425E-01
  7.85797458E-02 -1.86998052E-01  2.20923217E-02 -5.85455869E-01  6.08534363E-01
 -7.16558759E-02 -1.88238532E-01  1.97165652E-03  7.44690028E-03 -4.98445902E-02
  2.77939449E-02  2.16590736E-02 -1.76341763E-01 -1.42695359E-01 -4.29310344E-02
  4.60167614E-01  4.63032814E-03 -7.41746008E-02 -1.38249224E-01  3.99282198E-02
  6.40447333E-02  2.01791785E-03  7.62501416E-03 -5.12025800E-02  2.81806268E-02
 -2.29085195E-02 -1.75921952E-01 -1.43329273E-01  4.50098826E-02  4.60904812E-01
  5.07129772E-03 -7.54869100E-02  1.38215083E-01  3.98576134E-02 -6.38937824E-02
  5.28403125E-02  2.80282271E-01  2.40800473E-01  3.20420512E-01 -3.67248124E-01
 -2.16273342E-02  3.17133678E-01  4.72962920E-02 -3.47203259E-01  3.14126176E-02
 -2.19520631E-02  3.33324649E-01  3.76150947E-02  3.51951748E-01  3.43551564E-02
  5.22176474E-02  2.90658474E-01  2.40084126E-01 -3.17425457E-01 -3.69473231E-01
  3.08535675E-05  1.20129275E-04 -1.12929616E-03  2.90463376E-05  1.14447265E-01
  1.25912199E-04 -2.06381356E-03 -3.14190634E+00  2.18409551E-03 -2.69863562E-04
  2.18796999E-04 -3.14262908E-02 -7.87046350E-04 -4.86670098E-01 -5.44810499E-03
 -2.61238809E-02  4.13587443E-01 -1.16641128E-01  2.83170843E-01  4.98957548E-03
  2.44789051E+00 -2.34222989E+00 -4.22689763E-02 -1.16254458E-01  1.32486376E-02
 -3.85876078E-02  2.19703623E-01  4.91009971E-01 -7.13802061E-03 -3.44683582E-02
  5.49472790E-01 -2.28339028E-01 -9.54180852E-03  3.31468118E-03  3.15374372E+00
 -2.04537774E+00 -4.72160475E-02 -1.44142271E-01 -3.01672814E-02 -5.20027892E-02
 -4.83643602E-01  5.48242543E-02 -8.07241482E-05 -3.23604663E-04  3.27720905E-03
  8.67667585E-04 -5.86951136E-01 -6.30325425E-04 -6.38963712E-03  3.77902707E+00
  3.60820497E-03 -5.55709762E-04 -1.50245353E-03 -2.34395220E-02  6.96532519E-04
  4.80707483E-02  7.16298280E-03  3.45714302E-02 -5.50905225E-01  2.27655601E-01
 -9.51084717E-03 -3.76469008E-03 -3.15131275E+00 -2.02951688E+00  4.37632711E-02
  1.43027930E-01  2.67842516E-02 -5.29308750E-02  4.82999556E-01  5.35856216E-02
  5.44074989E-03  2.60842322E-02 -4.12809026E-01  1.15092980E-01  2.84628753E-01
 -4.64998412E-03 -2.44630732E+00 -2.35086595E+00  3.29706295E-02  1.16953486E-01
 -1.11505100E-02 -3.76153800E-02 -2.19711213E-01  4.89314163E-01 -7.56372936E-06
 -2.99061183E-05  1.16182833E-04  5.18284111E-04 -1.48614654E-01 -1.85893497E-03
 -7.44658218E-04  1.64103739E-01  3.75703886E-03  7.13964502E-05 -2.53605813E-04
 -3.46317698E-02  2.84158500E-04 -1.56260378E-02  6.66473584E-05  2.69620041E-04
 -1.14552237E-03 -2.05017320E-04 -4.13856490E-02  6.49043547E-04  1.52176984E-03
  9.58193467E-02 -1.45786919E-03  7.36078237E-04 -5.79622560E-04 -1.11456509E-01
  1.76413818E-03  6.76755995E-02  8.98650604E-02  5.04015165E-01  2.56638905E-01
  6.62580969E-01 -7.95033612E-02 -9.03173076E-02 -4.99522530E-01 -2.60677342E-01
  6.62417467E-01  8.17277956E-02 -1.56038418E-03 -5.81124996E-03  4.59613441E-02
 -6.78698856E-02 -1.71500738E-01 -1.52915847E-02  4.79418817E-02  2.50153255E-01
  7.04428410E-04  5.82702933E-02  6.77910918E-03  6.33918903E-04  2.50981080E-02
  2.34367467E-02  1.56567366E-03  5.83310002E-03 -4.61941143E-02  6.80192805E-02
 -1.71478010E-01  1.71533327E-02 -4.74749615E-02  2.50434875E-01 -5.52675948E-03
 -5.83877359E-02 -6.19588279E-03 -6.92053118E-04 -2.51582785E-02  2.37395249E-02
  3.93244150E-02 -1.00421493E+00 -1.44078084E-01  2.41505020E-01 -3.49823803E-02
  5.24122025E-02 -2.48587231E+00  1.04504604E+00  7.04708081E-01 -2.82125079E-03
 -5.22953918E-02  2.47830868E+00 -1.04244025E+00  7.02191250E-01  5.10656417E-03
 -3.96014761E-02  1.00606044E+00  1.42925193E-01  2.43301862E-01  3.85726251E-02
 -1.56688972E-04 -6.33173547E-04  5.93170871E-03 -1.12581170E-03  5.56043585E-02
 -3.33022627E-06  1.25834301E-02 -8.64560324E-01  1.57233378E-03 -6.88752954E-04
  8.53206378E-04  4.37924295E-01  5.00437472E-03  3.13007960E-02 -2.56205492E-03
 -1.01822476E-02  7.76369673E-02  5.16354419E-03 -1.49804852E-02 -2.42687099E-01
  6.68748214E-01  1.79599420E-01  2.79369518E+00 -2.39315883E-02 -1.08103465E-03
  9.38655491E-02 -2.06786973E-02  5.36056615E-02  2.68828722E-03  1.07488936E-02
 -8.46541879E-02  4.07775017E-03  2.43577926E-02  2.13828765E-01  7.02907633E-01
 -2.32298618E-01 -2.54557071E+00  1.70253793E-02  3.86484287E-01  3.09954077E-01
  1.02100669E-02  2.58784931E-02  9.16632285E-05  3.92023295E-04 -4.73551978E-03
  1.43119448E-03 -2.83140732E-02  2.17183876E-05 -4.37827436E-02  7.98464469E-01
  1.09161711E-03  1.11329383E-03  5.16503883E-04 -4.40150264E-01 -4.06008336E-03
  1.89210251E-03 -3.02552138E-03 -1.21442836E-02  9.77073104E-02 -6.67121410E-04
  3.42375595E-02 -2.13466348E-01 -7.07123416E-01 -2.34809856E-01  2.53916427E+00
 -1.86300890E-02 -3.86378955E-01  3.10836242E-01 -9.64527534E-03  3.32375711E-02
  2.87258440E-03  1.14060892E-02 -8.78334132E-02 -2.92520830E-03 -1.73297946E-02
  2.41986638E-01 -7.05948454E-01  2.24267068E-01 -2.79197914E+00  2.20228727E-02
  4.85156583E-03  9.34541479E-02  2.07925908E-02  5.68717014E-02  1.17677271E-05
  4.36204740E-05  1.67721156E-05 -2.50367221E-03 -6.38480375E-03  3.51677913E-04
  1.17485821E-03  2.07590891E-02 -2.16925915E-04 -4.24035854E-04 -2.17176188E-04
  5.94837780E-01 -1.15091077E-03  9.01614569E-03  2.15041939E-04  8.91492999E-04
 -4.03400349E-03 -3.63915662E-03 -3.46382949E-02 -7.82188321E-04 -1.40317972E-02
 -1.38558163E-01 -2.52503466E-03  3.70992527E-03 -1.98454218E-03 -2.71015071E-01
  2.85151314E-03  1.98781898E-02  1.89085905E-03 -1.93638034E-01  5.95435876E-02
 -8.12117132E-02 -3.60164615E-01 -9.49345579E-04  2.37213035E-01 -7.17502528E-02
 -9.54304816E-02  3.59036377E-01  2.29477569E-03  8.75037435E-03 -6.23359428E-02
 -3.70534947E-03  4.43738640E-03  1.50609212E-01 -2.00658897E-02 -3.67512846E-02
  1.53743533E-01  5.46717634E-02 -3.10851519E-01  1.38393096E-02  5.21127373E-04
  2.85831265E-03 -2.25600496E-03 -8.61630874E-03  6.16368437E-02  4.81222294E-03
  4.68775689E-03 -1.50946696E-01  1.64143516E-02 -3.74891803E-02 -1.52902695E-01
 -5.30712382E-02  3.10739098E-01  1.44838625E-02  4.74468948E-04  4.00000506E-04
 -2.57607916E-03  1.71712475E-01 -3.41160986E-02 -3.64129699E-02 -5.45730742E-01
  8.58927811E-03 -2.41752197E-01 -5.93303855E-02  4.37663737E-02  8.77072355E-01
 -9.86918973E-03  2.22283567E-01  7.25020411E-02  5.25324533E-02 -8.76689521E-01
  4.07639644E-03 -1.99008061E-01  4.07496633E-02 -4.11876518E-02  5.47538398E-01
  1.67835190E-02  6.88463990E-02 -6.87886719E-01  1.08611017E-01  6.42813058E-04
 -6.09794342E-03 -1.36523000E+00 -1.30475051E-02  1.05069965E-02  7.50612026E-02
  6.60933280E-03  4.47781313E-03 -5.41771502E-01  2.21781556E-04 -1.46171348E-02
 -5.65263033E-02  4.31550049E-01 -6.56091742E-02 -1.05918221E-01 -1.42931043E-02
  1.99355000E+00  2.35210442E+00  9.12194728E-02  1.25135590E-01  1.46511773E-02
  3.44315587E-03  4.40954393E-02  9.41184669E-02  1.74862362E-02  7.21870167E-02
 -6.70549283E-01 -1.34081441E-01  4.23227862E-01  2.26025666E-02  2.39321857E-01
  4.65251269E-02 -2.02350368E-01  1.11061370E-01 -2.12377119E-02 -1.05849068E-02
 -8.76060699E-03  3.59626948E-01 -4.88761299E-03 -2.10742061E-02  2.58723119E-01
 -2.45291675E-01 -1.61421798E-04 -4.90555454E-03  4.49923351E+00  1.09404444E-02
  1.97286340E-01 -8.30780018E-02  1.94827679E-02 -4.01865480E-03  3.65932170E-01
 -3.61677474E-04  1.74547318E-02  7.20585258E-02 -6.69509431E-01 -1.33633169E-01
 -4.22568449E-01  1.83711296E-02  2.17061288E-01 -4.79252270E-02 -1.53002932E-01
  1.11198409E-01 -2.88345758E-02  1.71315850E-02 -8.63669165E-03 -3.58747146E-01
 -1.45758403E-02 -5.63600567E-02  4.30195851E-01 -6.52323524E-02  1.05841798E-01
 -9.37769199E-03  1.97380121E+00 -2.35500200E+00  3.56280465E-02  1.25597061E-01
  1.45958539E-02 -5.81578355E-04  4.35797070E-02 -9.22540677E-02 -1.02572459E-03
 -3.66081379E-03 -7.22704900E-03  1.97544474E-01 -1.91812852E-05  3.30450214E-02
 -1.00460624E-01  7.73931297E-04 -6.06504053E-02  1.16325634E-03  9.10733260E-03
  5.82504231E-03  3.16874579E-02  4.11030608E-04 -2.62749742E-02 -1.07958181E-01
  4.77008792E-01  3.64794375E-01 -4.12030030E-04 -1.28309334E-02  1.15356436E+00
 -2.29552069E-03  3.35711813E-01 -4.56033738E-01  1.19297837E-01 -2.08663123E-03
 -3.87278985E-01  4.82846295E-04 -5.21502759E-02 -2.18050902E+00  7.27424636E-01
 -6.31735562E-01  1.30277816E-02 -5.20873870E-02 -2.17640433E+00  7.26104437E-01
  6.29753964E-01  2.04502686E-02 -1.52774825E-03 -5.19929822E-03  2.54234864E-02
 -4.51167469E-02  1.09283174E-02 -1.30867878E-02  1.25377771E-01 -2.18703522E-02
  4.22191359E-02 -7.09803191E-02 -1.13122882E-02 -1.26662701E-02 -1.48381447E-02
 -1.02322752E-01 -1.54103899E-03 -5.25130079E-03  2.57943859E-02 -4.43120592E-02
 -1.08975150E-02 -1.56071563E-02  1.24189496E-01  2.15340358E-02  3.86289090E-02
 -7.18974802E-02 -4.48475990E-03  1.29766334E-02 -1.41276118E-02  1.02338016E-01
 -9.47055782E-02  1.70360303E+00 -2.73398638E-01 -2.50616979E-01 -2.73035980E-02
  4.43093679E-02  9.71948967E-01 -6.02108579E-01  3.24257176E-01  7.48222143E-02
  4.41000124E-02  9.77983970E-01 -6.00638389E-01 -3.23001736E-01  5.69702949E-02
 -9.46462030E-02  1.70229773E+00 -2.74290831E-01  2.49539524E-01 -1.80310064E-02
 -3.73380309E-07 -3.10159191E-06  1.16123419E-04 -2.81420830E-04  3.74240662E-01
 -2.01009601E-04 -2.93935623E-04 -7.11086681E+00  9.72648400E-04  5.50196499E-05
  2.66167246E-04 -5.35564403E-02 -7.28390460E-05  3.88546839E-01 -7.50951410E-03
 -2.70173034E-02  5.72956449E-02  6.60369030E-03 -7.57105796E-02  2.05056992E-02
  6.67791198E+00  1.78036208E+00 -2.73915321E-01  5.03212454E-02  3.09399850E-02
 -5.02497478E-02 -1.67753917E-01  1.60595704E-01  1.28906682E-02  5.13284080E-02
 -4.06373249E-01  1.83877876E-01  5.09283071E-02 -1.29955080E-02  5.37327617E+00
  6.87097655E-03  1.96472970E-01  6.32240734E-02 -7.25207965E-02 -6.77534094E-02
 -1.10791415E-01  4.05564857E-01  7.10817476E-06  3.41621073E-05 -5.85035877E-04
 -2.62095345E-04 -3.14648960E-01 -6.31505711E-05  4.46945744E-03  7.27450868E+00
  1.94757691E-03 -9.41343484E-05  2.19770989E-04  4.79604931E-02  1.21819125E-04
 -4.85931198E-02 -1.28882916E-02 -5.13110484E-02  4.05964672E-01 -1.84280519E-01
  5.10879167E-02  1.30070355E-02 -5.37177471E+00  7.32662514E-03 -1.98641760E-01
 -6.33652779E-02  7.18162113E-02 -6.74166311E-02  1.10905373E-01  4.05455842E-01
  7.52394663E-03  2.70865806E-02 -5.82651602E-02 -6.77834192E-03 -7.64836669E-02
 -2.03979543E-02 -6.67612745E+00  1.78132729E+00  2.72499781E-01 -5.01364826E-02
 -2.85475924E-02 -5.07300684E-02  1.68108681E-01  1.60677418E-01  8.33827505E-06
  3.45186163E-05 -1.90776545E-04  2.61784276E-04 -3.23169097E-02  1.02071215E-03
 -4.84659793E-05  8.61265187E-02 -1.37138220E-03  2.01069651E-04  6.35815108E-04
 -1.01525973E-01  5.30457711E-05  7.67137742E-02 -1.60050989E-05 -6.53045297E-05
  2.85258454E-04  2.17561316E-04 -9.42566632E-02 -3.72541929E-04  3.13313968E-04
 -9.34199847E-01  4.09303899E-04 -3.11386298E-04 -8.30275651E-05 -9.94713484E-02
 -4.06143806E-04 -5.69574111E-02  7.07060092E-02 -8.32306607E-01 -2.86463171E-01
 -6.32021147E-01 -8.92679533E-03 -7.08412851E-02  8.29739149E-01  2.87212073E-01
 -6.31609396E-01  7.90815489E-03  1.82094008E-02  6.97326224E-02 -5.07335859E-01
  8.32549427E-03  5.67780982E-02 -3.42915488E-02 -1.76041203E-01 -3.55278285E-01
 -8.46439768E-03  4.33486769E-01  4.18834462E-02 -1.79115039E-03 -1.75149940E-03
  2.08940071E-02 -1.82390534E-02 -6.98462773E-02  5.08150788E-01 -8.15206088E-03
  5.68548932E-02  3.32386867E-02  1.76821351E-01 -3.55077561E-01  1.14546554E-02
 -4.33091931E-01 -4.25345957E-02 -1.59549814E-03  1.58381594E-03  2.06904538E-02
 -7.96540680E-03  2.65059651E+00 -4.49553708E-01 -1.32687208E-01  1.11756014E-02
  4.74070621E-02 -1.00218476E+00 -4.19965310E-01  7.38203971E-02 -1.12196344E-01
 -4.75617987E-02  1.00241179E+00  4.20048905E-01  7.34982860E-02  1.12932161E-01
  8.08747752E-03 -2.64681448E+00  4.50824701E-01 -1.33158273E-01 -7.95866257E-03
  9.01285278E-05  3.94936311E-04 -4.13047089E-03  3.87096192E-04 -2.14547274E-01
 -1.78333220E-03 -2.15693164E-02 -3.25929016E+00  7.14314471E-02 -8.66896748E-04
  1.31269697E-02 -2.17628656E-03 -3.87308559E-03  3.92678177E-02  1.08399367E-02
  3.97388495E-02 -1.54889332E-01 -1.02394310E-01  2.30348124E-01 -9.13566667E-03
  2.89503746E+00 -5.21727900E+00  2.02768334E-02 -7.01887141E-02  5.57035516E-02
 -2.40010833E-02 -1.39354032E-02 -2.05102742E-01 -4.71704297E-03 -1.76973179E-02
  5.26525978E-02 -2.24468949E-01 -2.52050107E-01  8.62585174E-03  2.82230847E+00
  6.12568248E+00 -2.25832496E-01  1.97977680E-01 -4.51888557E-02 -2.98078501E-02
 -2.40420911E-01 -1.39958811E-01  2.21827509E-04  9.78165472E-04 -1.14631613E-02
  6.29672029E-04  7.49033406E-02 -4.98320955E-03  1.39404982E-03  2.78403212E+00
  1.86825186E-01 -1.04359652E-03 -5.42684883E-03 -2.09247253E-02 -9.06880401E-03
 -4.61661218E-01  4.68818188E-03  1.78026145E-02 -6.31269754E-02  2.27564692E-01
 -2.48509778E-01 -5.67371333E-04 -2.86784382E+00  6.10600173E+00 -1.07084487E-01
 -1.98871500E-01 -5.54635213E-02  4.13775406E-03  2.38788486E-01 -1.44889124E-01
 -1.03874392E-02 -3.77608671E-02  1.30609786E-01  9.57214548E-02  2.29023035E-01
 -6.61075846E-03 -2.86438486E+00 -5.22968072E+00 -6.25453940E-02  7.09941486E-02
  5.67425147E-02 -1.49401299E-04  1.47969171E-02 -1.98110339E-01  3.77771299E-05
  1.45121031E-04 -5.97901543E-04 -5.76718349E-05 -2.24780536E-01 -5.09288918E-03
 -3.03462071E-03  2.01637374E-01  2.88904077E-02  5.17614970E-04  1.64225981E-02
  2.23533694E-03  5.54303558E-04  1.25111610E-01  2.57559290E-04  1.12038672E-03
 -6.56586903E-03 -1.05950416E-03  1.23101848E-01 -2.48621039E-02 -8.00385085E-03
  6.57310470E-01  3.20079967E-02  3.77488817E-03 -3.87633619E-03  1.95834411E-02
  1.05264940E-03  6.66346417E-02 -3.71634554E-02  1.03373673E+00 -6.77539555E-02
  3.48375191E-01 -7.60878360E-02  2.91551191E-02 -1.00901350E+00  6.15867028E-02
  3.39931356E-01  4.52457355E-02  8.09534431E-03  3.07242673E-02 -2.14488549E-01
 -7.95488678E-02 -1.12777753E-02 -3.67802891E-03  7.83392114E-02 -1.76847778E-01
  7.14770761E-03  4.28011414E-01 -7.04089821E-03 -8.35567716E-03 -2.48620922E-01
  1.27518520E-01 -7.92867502E-03 -3.00871639E-02  2.09695324E-01  7.98385314E-02
 -1.37517967E-02 -1.72914936E-03 -7.97204114E-02 -1.70323679E-01  1.09220767E-03
 -4.28055864E-01  4.10584804E-03  1.11859487E-02  2.49269530E-01  1.28127371E-01
  1.92312964E-01 -1.17274831E+00 -1.38704085E-01  5.97013547E-01 -1.00483207E-02
 -5.12442608E-02  1.93958826E+00 -2.45346160E-01 -5.56634301E-01  5.96639018E-02
  4.47255823E-02 -1.91761705E+00  2.60825868E-01 -5.52941266E-01  4.18156179E-02
 -1.96032677E-01  1.19932089E+00  1.34092253E-01  5.95902205E-01  3.42711656E-02
  1.12441973E-03  4.93666757E-03 -4.63775916E-02  1.68535530E-02  1.26107338E-02
 -2.77168383E-02 -2.96513955E-01  2.36298251E-01  1.05695198E+00 -9.81883980E-04
  1.95155929E-01 -8.63472881E-04 -4.56472330E-02 -2.24184978E-03  3.28801250E-03
  1.45291731E-02 -1.88168675E-01 -5.50652772E-02 -3.61383356E-03 -1.25696266E-01
  2.85627618E-02  4.04829972E-01 -2.73703992E-01  1.20999730E-02  8.58328612E-01
 -1.77963831E-01  1.47924893E-02 -4.83661281E-02 -3.88863199E-04  3.04670344E-04
 -7.63577874E-02  2.77871251E-02 -5.98061539E-03  6.45934203E-02 -6.14139878E-01
 -1.75826476E-01 -2.61715576E+00 -1.76463535E-02 -7.84858537E-01 -2.60409759E-01
  9.17189035E-04  4.76632110E-02  3.64234135E-03  1.60773592E-02 -1.90169823E-01
  1.20810885E-02 -4.16686526E-03 -7.86475639E-02  9.59700723E-02 -2.06697190E-01
  2.93229446E+00 -2.54598669E-02 -9.04048914E-02  3.44230119E-03 -1.50460012E-01
  3.00989701E-02 -9.64882996E-04 -1.85967136E-03 -6.99739640E-02 -1.19426877E-03
  3.83756845E-02  6.57466757E-02 -2.03265641E-01 -6.26446047E-01 -2.63892338E+00
  8.13125911E-03 -7.82936813E-01  2.61526107E-01 -3.08005751E-02 -3.04535040E-02
  4.63020085E-03  1.94416404E-02 -2.06750207E-01 -6.81275186E-02 -2.65116155E-02
 -1.26569262E-01  4.43717419E-01  2.82713497E-01 -2.56253796E-01  2.27048590E-03
  8.59876484E-01  1.80082797E-01  1.46135341E-02  7.24144483E-02  2.96229408E-04
  1.13393045E-03 -4.98467142E-03  1.12435025E-02  1.45272306E-02 -7.52058086E-02
 -5.14080308E-02 -1.41651900E-02  4.41162878E-01  3.25259960E-03  2.61801517E-01
 -4.46973718E-04  1.69816176E-02 -8.22864284E-03  4.59835792E-03  1.98001354E-02
 -1.12730574E-01 -1.68857523E-02 -7.53939177E-03 -3.91778835E-01 -9.78022406E-02
 -3.97032196E-02  5.14275741E-01  5.66816331E-02 -4.98293625E-02  1.02916406E-03
  6.78089607E-03 -4.64577319E-03 -5.89822046E-02  9.36177264E-02 -3.89645707E-02
  4.15709617E-02 -2.47719722E-01 -6.31203284E-02  2.21348679E-01 -4.68269166E-02
 -8.37920765E-02 -2.59662192E-01  6.38507253E-04  2.47002810E-03 -2.00581619E-02
  5.43980935E-03  1.93353709E-02 -4.61827681E-02 -7.07345378E-03 -3.65341373E-02
  7.24728231E-02 -2.97658840E-02 -2.30752302E-02 -1.58943089E-01  1.69791059E-02
 -1.42039619E-02  1.72203565E-03  6.58191718E-03 -4.87222143E-02 -4.96902652E-03
 -1.83726117E-02 -4.60384651E-02  2.77467986E-03  6.07703367E-02  7.30101606E-02
  2.54901900E-02 -2.44540159E-02  1.58600827E-01 -1.51474452E-02 -2.09044563E-03
 -3.80824033E-02  2.48526714E-01 -3.04509413E-02 -3.47555354E-02  1.68710993E-01
 -4.79762111E-02  1.06246114E-01  1.41563342E-01  1.04140776E-02  7.99789777E-01
 -5.41672729E-02  3.50522608E-01  1.07101604E-01  6.10978716E-02  8.04525251E-01
 -1.34332879E-02  1.01100670E-01 -4.82576496E-02 -4.27769294E-02  1.62898529E-01
 -1.84818384E-02 -8.11624461E-02  9.46199425E-01 -1.27026424E-01  1.81930558E-04
  9.02800291E-04  2.47136789E+00 -6.25238824E-04  1.85340214E-01  1.69765211E-01
  3.46753085E-02 -1.35085573E-04  5.98998171E-01 -2.31281870E-04 -1.08559458E-02
 -5.43241443E-02  9.00027935E-01  1.42835442E-01 -3.35151126E-02 -2.67107097E-02
 -1.64776158E+00 -1.34769457E+00 -4.70009620E-02 -2.07717528E-02  1.85180884E-01
 -3.58116160E-02 -3.47543512E-02  3.68149243E-01 -1.03501715E-02 -5.14256620E-02
  8.64424511E-01 -2.11132468E-01  6.65202556E-02  8.69048323E-03  1.96711531E+00
 -6.26662338E-01 -4.19521885E-01 -7.16140921E-03 -1.33079054E-01 -4.17894269E-02
 -9.46502952E-02 -3.66048634E-01 -1.87277635E-02 -8.35440418E-02  9.99421585E-01
  6.44827904E-02  3.03246063E-04 -2.20659670E-02  3.09779732E-01 -9.09740001E-04
  4.04224213E-01 -9.70070573E-03  2.10599017E-03 -1.28775360E-03  6.37729420E-01
 -7.88251837E-04 -1.03762322E-02 -5.15508697E-02  8.66366572E-01 -2.11052901E-01
 -6.64920547E-02  8.09938795E-03  1.96965919E+00  6.33103799E-01 -4.12170500E-01
 -7.63980170E-03 -1.33545463E-01  4.01209852E-02 -9.45134944E-02  3.66294038E-01
 -1.08502778E-02 -5.43074827E-02  9.00074930E-01  1.43624915E-01  3.36087702E-02
 -2.67310094E-02 -1.64746289E+00  1.34368432E+00 -5.15741421E-02 -2.01412947E-02
  1.84256199E-01  3.35018117E-02 -3.51380987E-02 -3.68533165E-01 -5.62979168E-03
 -2.28129111E-02  1.18173572E-01  4.11372370E-02  2.74411495E-06 -2.75837242E-02
  2.27064695E-01  5.05777028E-04  1.24392870E-01 -5.23144430E-02  5.41262011E-02
 -1.40453232E-04  2.69149370E-03  4.76853482E-05 -5.69406567E-03 -2.63576626E-02
  1.87821810E-01  5.10290826E-02 -2.24058290E-04 -1.97889988E-02  1.12105138E+00
  5.40399610E-04 -4.57473961E-02 -2.12028346E-01 -1.00754469E-01 -1.49527440E-03
 -1.10105064E-01  5.22535480E-04  1.44476500E-01 -1.02072052E+00  3.62639173E-02
 -3.44377016E-01  1.41099838E-01  1.44475993E-01 -1.02074814E+00  3.59071271E-02
  3.43202618E-01  1.44220126E-01 -8.64237876E-03 -3.35375554E-02  2.57569443E-01
  5.31221140E-02 -1.13700162E-01 -4.92376326E-03  6.04884634E-02  2.98115216E-01
  5.33666045E-05  7.72013513E-02 -3.07719956E-03 -3.00925771E-02 -6.69722258E-02
  6.40734019E-02 -8.63439745E-03 -3.35063538E-02  2.57315622E-01  5.30972069E-02
  1.14020184E-01 -4.94723425E-03  6.04781849E-02 -2.98466745E-01  2.49495343E-04
  7.77883090E-02 -3.09162108E-03  3.00797601E-02 -6.69708965E-02 -6.44306668E-02
  2.53425310E-01 -1.57096557E+00  1.15102641E-01  1.44720594E-01  4.30031727E-02
  2.42102353E-01 -1.24809706E+00 -7.63853134E-01  3.22913577E-02  9.26808443E-02
  2.42338340E-01 -1.25265506E+00 -7.64302065E-01 -3.19726007E-02  9.28799497E-02
  2.53599523E-01 -1.56860795E+00  1.14952363E-01 -1.44950112E-01  4.63962042E-02
  2.03888508E-05  8.52026961E-05 -1.37398215E-03  7.45990386E-05 -2.98568962E-02
 -2.65180798E-03  1.74448960E-03 -7.50111582E-01  3.52290178E-02 -1.13552023E-03
  7.63060365E-03  1.95545709E-01  1.03102147E-03  9.39322832E-03  9.18983412E-04
  2.96756942E-03  1.37602238E-03  7.06424982E-03  8.66288332E-04 -5.79133276E-02
  8.90840875E-01  9.73822002E-02 -7.46501311E-01  9.07204535E-02 -1.85224676E-01
  8.88638427E-01 -3.03890233E-02 -2.07958519E-03 -2.21596457E-03 -1.10465468E-02
  1.83257954E-01  4.85915935E-03 -3.51753951E-02 -1.14954585E-01  6.90871861E-01
  6.94613274E-02  1.47541700E+00 -2.33071936E-02 -2.51686810E-02  7.29294904E-01
 -9.89177818E-02  8.26903610E-02 -1.38836706E-05 -7.07429418E-05  9.04082809E-04
 -1.53198164E-03 -1.65424749E-01  2.34699254E-03 -8.99803263E-03  1.15852523E+00
 -3.87250252E-02  1.00712974E-03  9.11207540E-03  7.21857037E-01  2.48687188E-03
  7.78243874E-03  2.31200684E-03  1.13537483E-02 -1.83012985E-01 -3.27426912E-03
 -3.36734664E-02  1.11036111E-01 -6.79326840E-01  7.62543145E-02 -1.40544410E+00
  2.52354357E-02  3.15072402E-02  7.33309709E-01  1.00364047E-01  8.46853249E-02
 -1.07596398E-03 -3.60910564E-03  4.76881186E-03 -3.09168697E-03  1.23928971E-03
  6.04614321E-02 -9.04145713E-01  9.78660638E-02  6.73812563E-01 -9.06544562E-02
  1.99906260E-01  8.83709800E-01  3.14439888E-02 -2.33066570E-03  2.43543819E-05
  1.00155486E-04 -4.28653873E-04 -7.59981053E-04 -2.17037424E-02 -6.92938031E-04
 -4.45600680E-04  4.11064350E-02  1.55184550E-03  1.16644601E-04 -1.53044359E-03
  3.68172350E-01 -9.61382642E-04  1.72066475E-02 -1.47518938E-04 -5.96507623E-04
  2.74875583E-03 -2.26223494E-04  1.21874996E-01  1.54250969E-03 -3.09377452E-03
 -3.32110832E-01 -9.08191232E-03 -1.43898659E-03 -9.41570579E-03  1.11979022E+00
 -9.69686289E-05 -2.32821587E-01  3.98785872E-03  1.23034676E-01 -2.36268972E-01
  1.68254296E-01  9.32311965E-01 -3.78565189E-03 -1.18464040E-01  2.37008694E-01
  1.67167307E-01 -9.16063013E-01  2.21032170E-04  8.91180316E-04 -6.72066478E-03
  1.58831615E-02 -3.58864891E-02  1.76876662E-01 -2.30908385E-02  4.19969949E-02
 -8.27365262E-02  4.50336751E-02  4.04274049E-02 -1.02831427E-01  9.08633999E-03
  1.18644149E-02 -1.70249237E-04 -6.92951377E-04  5.19578626E-03 -1.63903854E-02
 -3.66468355E-02 -1.76120467E-01  2.25476898E-02  4.32851838E-02  7.95320645E-02
 -4.57551227E-02 -3.82707272E-02 -1.02208020E-01 -8.44572934E-03  1.21715996E-02
  1.94414903E-02  3.88220131E-01 -1.38671799E-01  4.44136282E-02  9.78100681E-01
  3.00960003E-02 -1.55885718E-01  8.51016480E-02  1.74615857E-02  3.33402379E-01
 -2.92501914E-02  1.49095238E-01 -8.66679532E-02  1.80417459E-02 -3.62711200E-01
 -1.98790287E-02 -3.91920528E-01  1.44900958E-01  4.64842109E-02 -9.46987814E-01
 -4.13981568E-04 -2.75453568E-03  8.07046282E-02 -1.73828211E-02 -8.60731258E-04
  2.63283711E-01  4.95689188E-02 -5.86346181E-03 -3.40939729E+00  9.17500604E-02
 -6.65580567E-01  3.14130877E-03  1.25677743E-02  5.35196848E-04  2.64921730E-03
  1.00681301E-02 -6.69964214E-02 -9.07416592E-02  2.47834129E-02 -1.25914812E-01
  1.52795803E-01  8.01401766E-03  3.40667299E+00  1.78435857E-02 -6.39996657E-01
 -1.97724123E-01 -3.18249388E-03  5.21711937E-02 -4.50834746E-03 -1.73933813E-02
  1.30745936E-01 -4.55481968E-02  6.97273514E-02  1.72248371E-01 -1.48054157E-01
 -1.05465747E-01 -3.02915010E+00 -6.51973318E-02 -2.09467178E-01  2.30460501E-01
 -8.59430579E-02  1.93922837E-02 -3.70986676E-03 -1.59216186E-02  2.12526253E-01
  1.12358310E-01 -2.13343229E-03 -2.28308280E-01  4.69696316E-01  1.28828194E-02
  3.24287810E+00 -3.71563367E-02 -7.50745670E-01  8.13232584E-03 -4.10613742E-02
 -4.76336306E-04 -4.48421208E-03 -1.72461825E-02  1.27570096E-01 -4.53985839E-02
 -7.10062018E-02  1.74580832E-01 -1.61918696E-01  1.18035612E-01 -3.05684923E+00
 -6.63028503E-02 -2.09528581E-01 -2.12475899E-01 -8.32995397E-02 -1.71229714E-02
  2.65668260E-03  1.01352595E-02 -6.90958048E-02 -9.05078339E-02 -2.46036526E-02
 -1.24156558E-01  1.30386384E-01 -1.02355001E-02  3.41704616E+00  1.64633131E-02
 -6.36027900E-01  2.19330093E-01 -1.29257129E-03 -5.23625070E-02 -1.15229460E-03
 -4.88983638E-03  2.57505690E-02  7.62532872E-02 -6.26170596E-04  8.74722088E-03
 -4.49652885E-02 -4.78432281E-05  2.22152072E-02 -1.45680953E-02  9.61142964E-02
  4.58933606E-03  5.64444771E-02  3.22372681E-04  9.01503449E-03  3.61339340E-02
 -1.57625519E-01 -8.87660705E-03  1.62413518E-03 -5.85166182E-02  3.89583819E-01
 -3.34396019E-03  5.35282204E-01  1.70845041E-01  7.30622912E-01  1.28212884E-02
  1.00313524E-01 -3.16415546E-03  1.18384737E-02 -2.19376998E-01 -8.83189044E-02
 -1.18815454E-01 -5.56381988E-01  1.18444801E-02 -2.24372105E-01 -8.16734750E-02
  1.23108988E-01 -5.77224345E-01 -1.46090683E-03 -5.62145441E-03  4.10680124E-02
  1.64062933E-02  1.13940737E-03 -1.22720159E-02  4.47391123E-02 -5.53854674E-04
  6.34938444E-02  1.32444867E-02 -6.94483278E-02  5.44142253E-02 -3.68793806E-02
 -2.87982509E-03 -1.49681172E-03 -5.76068713E-03  4.21251406E-02  1.59119304E-02
 -2.53716988E-03 -1.62064350E-02  4.55430960E-02  1.78289298E-03  6.47295839E-02
  1.06736945E-02 -6.96402146E-02 -5.66974438E-02 -3.72021517E-02  3.31895402E-03
  3.19444786E-02 -2.44066496E-02 -6.64303468E-02  3.45958829E-02 -1.36449768E+00
  1.42624303E-02 -7.13745644E-02  3.36430262E-02  9.15417606E-02  1.25797821E+00
  1.34246279E-02 -7.47130724E-02  3.24243374E-02 -9.24074418E-02  1.24785835E+00
  3.09642526E-02 -3.44059227E-02 -6.14310931E-02 -3.14437899E-02 -1.38643839E+00
 -9.39318235E-03 -4.24919158E-02  6.69593706E-01 -4.03196384E-03  1.08988826E-04
 -1.64911103E-01  7.88049483E-01 -9.24542363E-03  2.15571223E+00  3.54773372E-01
  2.24513583E-01  4.56522202E-04  2.70038017E-01 -9.10095272E-04  1.55899548E-02
  6.00971130E-02 -4.42313167E-01 -3.55572857E-01  1.53354436E-01  1.33297323E-01
  3.13580919E-01 -8.62974548E-01 -1.82098706E+00  1.09512601E-01 -2.70930908E-03
 -2.35986756E-03  1.77149489E-01 -1.56787712E-01 -1.41337031E-02 -5.07046863E-02
  2.71174557E-01 -3.36350185E-01  1.61384619E-02 -7.43224387E-02 -7.28484734E-01
  1.48869525E+00  1.51309562E+00 -9.78277082E-02  1.87681539E-01 -1.82847668E-01
 -2.04310403E-01 -2.18426668E-02  3.80816924E-03  2.00541742E-02 -3.96896789E-01
  5.69934886E-02 -7.31728733E-04  1.65588572E-01  2.63847707E+00  7.67554086E-03
 -1.05975311E+00 -2.95380495E-01  5.69751245E-02  6.82434138E-04 -5.56026431E-01
 -9.93584295E-04 -1.41226349E-02 -5.06536966E-02  2.70655699E-01 -3.35385157E-01
 -1.74540920E-02 -7.36903851E-02 -7.41501132E-01 -1.46174741E+00  1.51362784E+00
 -9.90701092E-02  1.88209240E-01  1.87230833E-01 -2.02050144E-01  2.21109533E-02
  1.55957124E-02  6.01364515E-02 -4.43487811E-01 -3.54780375E-01 -1.51887989E-01
  1.33937317E-01  3.01290524E-01  8.34637426E-01 -1.82133344E+00  1.10865959E-01
 -3.55710401E-03  6.80256250E-03  1.76089432E-01  1.57128138E-01 -7.57938757E-03
 -3.11219840E-02  1.55776430E-01  2.95728752E-01  1.03576386E-05  1.88540155E-01
 -2.09034147E-01  2.78423205E-04 -7.24555004E-01 -6.80716182E-02 -1.30639809E-01
  6.13604442E-04  1.97848681E-01  3.24820783E-04  2.01638226E-02  8.13700005E-02
 -3.81670814E-01  1.22488122E-01  3.24668454E-04 -2.80600373E-01  3.81403726E-01
  1.22561243E-03  1.27520148E+00  3.26715299E-02  5.54687028E-01  1.01514305E-03
 -3.07889726E-01 -4.10381686E-04  9.05950334E-03 -8.92750729E-01  3.02050758E-01
  2.92329828E-02 -5.81264057E-01  8.92862570E-03 -8.98779453E-01  3.02270783E-01
 -2.54548716E-02 -5.82259994E-01 -5.13503707E-03 -1.98758766E-02  1.45957196E-01
  8.39907008E-02 -9.60315378E-03  1.47487851E-02  1.37410801E-01  1.45423482E-02
  7.74133227E-02  8.61658985E-02 -4.96495588E-02  2.90140826E-02 -1.34287793E-01
  3.36373003E-02 -5.13030955E-03 -1.98568495E-02  1.45770786E-01  8.41922653E-02
  9.75381910E-03  1.40142416E-02  1.36963328E-01 -1.45126522E-02  7.79816899E-02
  8.60897376E-02 -5.00355298E-02 -2.96370828E-02 -1.33646554E-01 -3.36664080E-02
  1.43531096E-01  1.81632178E-02 -1.91114550E-01  1.69487626E-01  5.08408231E-01
 -7.53774025E-02  7.49126437E-01  4.06815141E-02 -8.06853039E-02 -5.03638205E-01
 -7.53535959E-02  7.40255400E-01  3.82141562E-02  8.01210126E-02 -5.08382088E-01
  1.43101684E-01  2.89789266E-02 -1.92639666E-01 -1.68192302E-01  5.03653725E-01
  1.00222200E-02  4.28824069E-02 -5.74032217E-01 -3.38935143E-02 -3.91695710E-03
 -1.51343412E-01 -7.81532848E-01  7.44414196E-02  2.47141687E+00 -1.52808044E-01
  1.23810914E-01 -1.45914974E-04 -2.60065205E-01  5.34659164E-04 -1.23837522E-02
 -4.88011725E-02  4.03253700E-01  2.04452206E-01 -1.00621145E-01  1.45039424E-01
 -7.16472222E-02  9.62768428E-01 -1.79720969E+00 -1.13188494E-01  4.67908601E-02
 -1.55745631E-01 -1.98740981E-01  3.18571791E-01  4.70022859E-03  1.32480501E-02
  5.08095082E-02  2.91388874E-01  1.44588838E-01 -7.37734303E-02  3.57778662E-01
 -2.07940449E+00  1.05276425E+00 -4.84930288E-02  1.11802409E-01 -2.06482997E-01
 -3.15986859E-02  3.10070195E-02 -1.04146450E-02 -4.91340147E-02  8.20249361E-01
  1.61405376E-01 -4.92495379E-04  1.69831415E-01 -1.95733126E+00 -6.41784100E-02
 -4.26485270E-01  3.18192380E-01 -1.67058914E-01 -5.87527164E-04  4.80085770E-01
  9.62313294E-04  4.62581772E-03  1.30314588E-02  4.92935477E-02  2.90316830E-01
 -1.42906809E-01 -7.43769472E-02  4.79374220E-01  2.03283219E+00  1.05520477E+00
 -5.19131417E-02  1.10285913E-01  2.04314553E-01 -3.51915209E-02 -3.44505405E-02
 -1.21019689E-02 -4.75364501E-02  3.86191094E-01  2.03113749E-01  9.79783055E-02
  1.44763690E-01  4.31469364E-02 -9.33348783E-01 -1.80035253E+00 -1.12704064E-01
  4.71420794E-02  1.53418046E-01 -1.89346698E-01 -3.18163504E-01  6.28490125E-03
  2.54534523E-02 -1.25134510E-01 -1.65141059E-01 -1.29872947E-03  2.36572532E-01
  1.66293957E-01 -5.28934996E-03 -9.11615873E-01  4.31371063E-02 -8.43672062E-02
 -1.48215754E-04 -9.75145998E-02 -1.53151787E-03 -5.36861266E-03 -2.18121481E-02
  1.15688562E-01 -1.08380955E-01  2.87813961E-05 -3.98352477E-01  4.38630361E-02
  3.19515131E-03  1.66191251E+00  4.27189115E-01  8.06371136E-01 -2.43977895E-04
  5.16173744E-01 -1.86059561E-03  9.74206749E-03  6.08606048E-01 -4.11303565E-01
 -2.55273715E-01 -9.07954599E-01  9.99562913E-03  6.12970833E-01 -4.05767349E-01
  2.48368515E-01 -9.08305614E-01  2.14907939E-03  8.43406735E-03 -6.19069976E-02
 -5.79785214E-02  1.33148994E-02  2.77165526E-02 -5.66154991E-02 -1.13182483E-02
  1.05941493E-01 -8.09935592E-02 -1.20157436E-01  3.29076185E-02  6.76455298E-02
 -4.98078519E-02  2.13982566E-03  8.39389161E-03 -6.14093104E-02 -5.99262738E-02
 -1.92024249E-02  2.77745278E-02 -5.21550629E-02  2.21808044E-02  1.05984018E-01
 -8.41120544E-02 -1.19833801E-01 -3.29121501E-02  6.35865561E-02  4.98001346E-02
 -7.47382388E-02 -1.34208495E-01  8.38633145E-02 -9.67134642E-02  4.02069470E-01
  1.24709213E-01 -1.16077522E+00  1.24495501E-01  3.19494701E-01 -3.69302439E-01
  1.22683082E-01 -1.17561757E+00  1.25974302E-01 -3.16337818E-01 -3.67227256E-01
 -7.66487271E-02 -1.01887812E-01  9.75269608E-02  9.75663835E-02  4.05229227E-01
  5.97730052E-06 -2.56046011E-05  2.28397325E-03  6.51467366E-04 -3.96706892E-01
  3.10975854E-04  1.06643129E-02  9.02215308E+00 -7.48718131E-03  2.10122827E-03
 -9.93244795E-04 -3.15280563E-03  5.98264886E-03  8.01420545E-02 -1.79503422E-02
 -7.91682402E-02  1.01227249E+00  2.12015552E-02 -9.74226011E-02  5.77069665E-03
 -6.89487292E+00  1.26149208E+00  5.44403599E-02 -1.45826635E-01  1.61079652E-02
 -6.43607448E-02 -5.63018330E-01  7.30983567E-03  6.97744550E-03  2.51334585E-02
 -1.12969879E-01  8.54872953E-02  7.13004465E-02  6.71125798E-03 -7.62662479E+00
 -2.08384145E+00 -6.60086071E-02  2.75430062E-01  1.40549663E-02 -3.65101356E-02
  2.12355837E-01 -1.83959095E-01  1.18413722E-04  5.50884782E-04 -9.35370064E-03
 -9.76752265E-04  4.03211416E-03 -1.54075104E-03 -2.38098911E-03 -8.05320078E+00
  3.15183531E-03 -2.37219546E-03  2.04026286E-03 -3.59302727E-02 -3.71777609E-03
  6.67382847E-02 -7.10050448E-03 -2.55490039E-02  1.13981691E-01 -9.19999925E-02
  7.54987240E-02 -5.66252714E-03  7.62816274E+00 -2.11036296E+00  5.33991859E-02
 -2.75362231E-01 -1.49236534E-02 -3.95983589E-02 -2.13360563E-01 -1.80978781E-01
  1.81274503E-02  7.98043184E-02 -1.01563527E+00 -2.57604056E-02 -9.90059662E-02
 -7.07799321E-03  6.87641414E+00  1.27684442E+00 -4.08089818E-02  1.47058430E-01
 -1.56919531E-02 -6.58969148E-02  5.68985921E-01  1.12307726E-02 -7.24510384E-05
 -2.92149505E-04  1.60752945E-03  3.18473033E-03 -1.67906067E-01 -4.50290916E-04
 -5.50571343E-03 -7.28260895E-01  2.79463933E-03 -5.53060939E-04  1.43280224E-03
 -2.78377230E-02  2.18943408E-03 -2.03532698E-01 -3.08657185E-05 -1.17109500E-04
  3.26065385E-04  2.45622315E-03 -1.11791139E-02  5.23952216E-03 -1.01526220E-02
  6.38060128E-01 -2.08499723E-02 -3.00818407E-03 -7.89372226E-03 -1.57053866E-03
 -3.96864758E-03 -8.71332273E-02 -1.62548297E-02 -8.56821715E-02 -3.02356785E-01
 -4.30360239E-01 -3.35555228E-02  1.43055907E-02  9.17172130E-02  3.09443538E-01
 -4.38365618E-01  5.26219440E-02  3.45478112E-03  1.36046265E-02 -1.17143265E-01
  1.03020519E-01 -3.20040590E-01 -1.17017532E-02 -2.77061116E-01  5.59964905E-01
  4.50622832E-03  2.07114261E-01 -3.39799949E-03  1.14289804E-02  2.52581254E-01
 -2.31059942E-02 -3.38891528E-03 -1.33472285E-02  1.14931212E-01 -1.01915898E-01
 -3.21917807E-01  1.16000613E-02  2.80210645E-01  5.65122377E-01 -4.23745378E-03
 -2.07514529E-01  3.18509819E-03  1.17209545E-02 -2.55848714E-01 -2.20493334E-02
  1.07710102E-01 -2.17271145E+00 -7.68038317E-01  8.59315118E-02 -5.93896829E-02
  7.74754641E-02  1.34520979E+00 -4.97158796E-02  1.28677066E-01 -4.19522378E-02
 -8.09467217E-02 -1.33433719E+00  4.78275422E-02  1.32222544E-01  4.52992800E-02
 -1.07131935E-01  2.17180619E+00  7.76207995E-01  8.55173707E-02  5.67172140E-02
 -1.39488054E-03 -5.66779679E-03  3.44222218E-02 -1.50460242E-02  2.85695909E-03
 -9.90897123E-02  2.72561852E-01 -3.74151239E-02  3.32926824E+00 -6.50875642E-02
 -3.92745487E-01  6.35583262E-04  9.55431626E-02 -1.64277965E-03  2.73704919E-03
  1.06527486E-02 -9.62669189E-02 -1.95818336E-02 -4.97952335E-02  1.32299765E-01
 -3.40084045E-01 -1.49529750E-01 -1.67425056E+00  1.12249189E-02  2.68575292E-01
 -5.90905754E-01  2.00738240E-02 -5.43027358E-03  1.46686542E-03  6.33932836E-03
 -8.96515424E-02 -4.01343454E-02 -6.97453573E-02 -1.33196670E-02  9.07750798E-02
 -1.01568326E-01 -6.34137096E-01  5.93962132E-03 -4.04927155E-01 -1.30344615E-01
  3.69998210E-02 -1.89703624E-02 -1.25696311E-03 -4.06245796E-03 -5.09322772E-02
  4.33628470E-02  1.47299650E-03 -9.23383104E-02 -9.39885069E-01  3.27673640E-02
  2.22384797E+00 -8.05579743E-02 -2.85309117E-01  5.50046266E-04 -5.47890383E-02
 -9.50887946E-04  1.38934194E-03  5.91860401E-03 -8.09506742E-02 -4.13858983E-02
  6.95420390E-02 -1.29101500E-02  3.88608687E-02  1.45995871E-01 -6.31628548E-01
  7.10380228E-03 -4.03594766E-01  1.33699960E-01  3.70450491E-02  2.17954890E-02
  2.70477742E-03  1.04172231E-02 -8.96029134E-02 -1.66600267E-02  5.19265304E-02
  1.33030338E-01 -4.06781018E-01  1.08043518E-01 -1.67571481E+00  1.54415817E-02
  2.67453596E-01  5.94089970E-01  1.55078802E-02  3.22381750E-03 -6.00877094E-04
 -2.38066325E-03  1.45614582E-02 -3.24871827E-02  8.97022907E-04  3.82390128E-01
 -2.79348316E-02 -5.36458546E-04 -1.52531869E+00  6.51568332E-03  1.23227072E-01
  5.10871078E-04 -1.76351856E-02 -5.30863937E-04 -1.00156741E-03 -4.27146869E-03
  2.71396002E-02  1.29543623E-01 -1.25818088E-05  4.97437343E-01 -7.20868744E-01
 -1.56703707E-03 -1.74059341E+00 -8.41572113E-03 -2.48685489E-02 -7.62861530E-04
 -1.10658733E-01  1.33396505E-03 -1.72087570E-02  4.96601932E-01  7.26106167E-02
  1.93462219E-01  5.00884196E-01 -1.72311104E-02  4.93212678E-01  6.75330596E-02
 -1.87749196E-01  5.01619290E-01  9.20394209E-04  3.33994841E-03 -2.31506239E-02
  2.69020514E-03 -5.88665219E-03  1.03376873E-01 -1.85316228E-02  4.36071335E-03
  1.51400153E-01  1.89224341E-02 -4.13032114E-01  6.49298407E-02  1.61455884E-02
  1.54070847E-02  8.82215367E-04  3.19084866E-03 -2.19672911E-02  3.70991811E-03
  7.94204744E-03  1.02965790E-01 -1.91527211E-02 -7.38367644E-03  1.51619150E-01
  2.09976124E-02 -4.14430418E-01 -6.68193108E-02  1.63096960E-02 -1.66091835E-02
 -2.25353028E-02 -1.63646474E-01  3.29519198E-02 -3.98539142E-02  1.50420577E-01
 -4.43419690E-02 -2.00938385E-02  7.01619795E-03 -2.99045680E-02  1.37245895E-01
 -4.19735409E-02 -2.79796218E-02  2.41247919E-03  2.84030948E-02  1.32990333E-01
 -1.95660780E-02 -1.66128842E-01  3.26075227E-02  4.12069508E-02  1.47573786E-01
 -8.25291430E-03 -2.70885510E-02  1.74666441E-01  1.16789226E-01 -5.71089227E-05
 -1.31836281E-02 -1.52592134E+00  1.28868881E-02  4.58431670E-01 -9.36071387E-02
 -4.51624965E-02 -1.81145828E-04 -8.75599243E-01 -3.40263152E-04  1.20194731E-03
  1.24145913E-02 -3.25297516E-01  8.91578267E-02  1.02129582E-01  2.06034853E-02
  2.68211273E+00  7.26068391E-01 -2.71363779E-01  1.00990276E-01  5.86943133E-02
 -7.61754350E-02 -9.35929497E-02 -2.43989740E-01  4.06208212E-04  2.92044799E-03
  3.17738788E-02  1.31463913E-01  2.36535967E-01 -1.97074786E-02 -1.27629289E+00
  2.73025124E+00  1.33183864E-01  2.08917076E-01  3.61963630E-03  2.03880994E-03
  1.49446546E-01  3.72794228E-01 -1.01913176E-02 -4.74809292E-02  8.91204984E-01
 -1.66645886E-01  1.60833832E-04 -8.54982354E-03  7.37034456E+00 -1.02497614E-02
 -2.60532366E-01 -9.35057986E-02 -1.35146638E-01  6.02929949E-04  1.59608193E-01
 -9.37376262E-04  2.32724932E-04  2.18341399E-03  4.04861912E-02  1.29620123E-01
 -2.36828594E-01 -1.91414321E-02 -1.24816436E+00 -2.70260578E+00  1.31458159E-01
  2.04595860E-01  5.11528800E-03  9.53894322E-04  1.47108581E-01 -3.71831088E-01
  1.40953080E-03  1.32627761E-02 -3.33647717E-01  9.07472100E-02 -1.01101632E-01
  2.10249995E-02  2.69240052E+00 -7.59195007E-01 -2.66312215E-01  1.06538604E-01
  5.65261766E-02  7.95608662E-02 -9.07828955E-02  2.44422297E-01  1.33377526E-03
  5.64591342E-03 -6.50081939E-02 -5.16585567E-02 -5.40227987E-04  3.86985736E-02
  4.32471208E-01 -4.05466470E-03 -1.58698081E-01 -3.75921356E-02  2.26961376E-02
 -1.23431152E-03 -6.12929668E-02 -1.77398109E-03  1.47112382E-02  5.53556916E-02
 -2.03505562E-01 -5.88809837E-01  6.54005967E-05  1.89235437E-03  4.66672990E+00
  9.04873624E-04  2.83542121E-01 -7.37837130E-01  1.49954604E-03  5.24986817E-04
 -3.59507914E-01  3.09632708E-04  3.53026116E-01 -3.95587166E+00  5.18031041E-02
 -7.69588836E-01  2.93615331E-01  3.52603379E-01 -3.95831483E+00  5.38041820E-02
  7.67417528E-01  2.94883533E-01 -4.81562955E-03 -1.79320981E-02  1.34133783E-01
 -6.27829038E-03 -1.03456563E-01  1.42521416E-02 -1.04661855E-01  2.89120150E-01
  1.01197768E-02  1.11077967E-01 -5.23767247E-02  5.93136230E-03  9.02368547E-02
  1.04334977E-01 -4.92559262E-03 -1.83606275E-02  1.37621558E-01 -6.65339262E-03
  1.01578923E-01  1.50267364E-02 -1.01359388E-01 -2.86022358E-01  1.01909655E-02
  1.10112522E-01 -5.13804192E-02 -4.04637363E-03  8.72779013E-02 -1.05907165E-01
  8.89595770E-02  1.25762205E+00 -7.09003604E-01  6.03866826E-02  4.52126958E-02
  2.17365392E-01  1.94782869E+00 -2.01964331E-01 -2.75921084E-01 -6.28442236E-02
  2.17940689E-01  1.92130185E+00 -2.02643171E-01  2.75200725E-01 -6.58036001E-02
  8.94266366E-02  1.28374256E+00 -7.01343091E-01 -5.79024929E-02  3.84737598E-02
 -1.32127549E-04 -5.16987771E-04  4.38149492E-03 -7.11472563E-04 -3.02574421E-01
 -3.34438092E-04  4.96205598E-03  1.64171018E+00  1.34070764E-02 -1.69993058E-03
 -9.13426971E-04 -2.95059536E-01 -1.75290225E-03  1.71883065E-01  8.33436004E-03
  2.86305859E-02 -5.32288736E-02  1.91617293E-01 -1.67630684E-01  1.25343450E-01
 -1.88924227E+00  3.03071840E+00 -2.54459204E-01  4.74757474E-01 -4.73544215E-01
 -5.62420889E-01 -1.18420511E-01  8.94491748E-02 -1.24732585E-02 -5.77253587E-02
  8.73769715E-01 -1.49659606E-01  1.32507242E-02  1.12188298E-01 -4.89330135E-01
 -2.79825616E+00  8.87665817E-01 -1.32139640E-01  4.55551899E-01 -5.63628645E-01
 -1.08605601E-01 -1.51177193E-01 -8.13322293E-05 -3.25211985E-04  2.89362203E-03
 -1.32275841E-04 -1.99361559E-01 -5.54855329E-04  1.64146880E-02 -1.31184050E+00
  8.73997121E-03 -2.64910156E-03 -8.05984703E-04  5.46768300E-02 -1.27025817E-03
  1.74977811E-01  1.24895299E-02  5.78219215E-02 -8.75275553E-01  1.47965666E-01
  1.31385136E-02 -1.11901881E-01  4.82112465E-01 -2.80884794E+00 -8.92663183E-01
  1.32786370E-01 -4.56792193E-01 -5.62208734E-01  1.09051902E-01 -1.53427282E-01
 -8.16306269E-03 -2.79174451E-02  4.59836416E-02 -1.92389793E-01 -1.65350852E-01
 -1.24294194E-01  1.90119160E+00  3.02678923E+00  2.43640179E-01 -4.72886572E-01
  4.73888429E-01 -5.58240679E-01  1.18252444E-01  8.92122861E-02 -3.47248676E-05
 -1.40743690E-04  5.94728391E-04 -1.66277610E-03 -4.72585424E-03  1.45139069E-03
  2.95920427E-03  4.24239496E-01 -6.89180585E-03 -1.30267427E-04 -5.31134408E-04
  4.13813851E-02 -1.42974124E-03  1.97394850E-01  9.75230806E-05  3.81942054E-04
 -1.60194905E-03  8.73301529E-04  6.19619583E-02  2.33916379E-03  3.73569486E-03
 -4.98347952E-01 -7.93931805E-03 -5.40178843E-04  2.97188297E-04  6.97768418E-01
 -2.93500125E-03 -2.46615756E-01 -4.80812867E-02 -4.54420433E-01 -2.12149657E-01
 -1.57126296E-01  5.62281508E-01  4.97097621E-02  4.39441829E-01  2.16626647E-01
 -1.56240402E-01 -5.57086928E-01 -8.44716398E-03 -3.28691734E-02  2.62920617E-01
  5.50549946E-02 -3.65921066E-02  1.70641243E-02  8.13516688E-02  1.06013141E-01
 -1.53270980E-02  2.49071982E-02 -2.21419013E-01  1.50872013E-01 -1.25864395E-01
  1.09128169E-01  8.37419484E-03  3.25746605E-02 -2.60379444E-01 -5.43792300E-02
 -3.38681034E-02 -1.63435392E-02 -8.45205879E-02  9.90171775E-02  1.62731954E-02
 -2.14696445E-02  2.19007545E-01  1.50155196E-01  1.28025816E-01  1.06185844E-01
  1.65356021E-01  1.11761060E+00  2.36232221E-01 -1.61141894E-01 -5.13586256E-01
  1.59532931E-01 -1.48256941E+00 -2.99660089E-01  5.88579126E-02 -8.98309377E-01
 -1.59264696E-01  1.49262117E+00  2.96717294E-01  6.12619454E-02  8.97975233E-01
 -1.64285113E-01 -1.11399773E+00 -2.45234162E-01 -1.60376530E-01  5.15409510E-01
  1.71279797E-02  6.63108547E-02 -4.25721037E-01  1.37448481E-01 -1.27537573E-02
 -4.58251267E-03 -1.33441409E+00  5.13700994E-02  2.98443459E-01  5.05378446E-01
 -4.32064323E-02  1.02449661E-02  7.57883898E-02  5.10787490E-03 -8.58592664E-03
 -3.47560486E-02  3.50574845E-01 -7.58364482E-02  3.53901525E-01  4.62094665E-03
  2.86317705E-01 -3.08463903E-01 -1.15774604E-01 -1.27912928E-01  1.06295579E-01
 -5.48478244E-02  1.37655594E-02 -2.17055742E-01 -9.62797018E-03 -3.94186569E-02
  4.10744170E-01  1.53757371E-02  6.80588456E-02 -1.32836865E-02 -9.49504997E-02
  1.15085694E+00 -3.92801157E-02 -5.97340571E-02 -1.92627410E-02  4.23756061E-02
 -9.99536142E-02 -1.44391464E-01  1.27913761E-02  4.99855408E-02 -3.48653499E-01
 -1.09278212E-02 -5.35317872E-03  9.26198253E-04  1.84491610E+00 -5.52193042E-02
 -7.13125116E-02  3.12527440E-01 -1.08241650E-02 -9.32420619E-03  1.73991232E-01
  5.22072172E-03 -8.78813426E-03 -3.55029100E-02  3.49445625E-01  3.16207863E-02
 -6.68035789E-02 -7.64056663E-03 -1.02564705E-01 -1.34803135E+00  4.06681262E-02
 -5.31281488E-02  1.14201431E-03 -1.52866790E-02 -9.76079434E-02  1.24941142E-01
 -9.16445976E-03 -3.66610343E-02  3.49163707E-01 -9.55120265E-02 -3.68359215E-01
  1.00703550E-02  4.51626598E-01  5.11865226E-01 -1.56115892E-01 -1.62477371E-01
  7.56590100E-02  7.19819447E-02  1.86957696E-02  2.27729589E-01  3.65873330E-03
  1.43755534E-02 -5.76069675E-02  4.02595392E-01  8.24369074E-04  1.80707454E-02
 -6.22937186E-01  2.22407589E-02 -6.53270654E-02 -2.63561205E-02  3.78257073E-02
 -3.88903597E-03  2.85563938E-01  9.44609989E-03 -5.26027271E-03 -2.22984367E-02
  1.16833232E-01 -3.70812716E-01 -3.27307746E-03  8.24320130E-02  1.87291363E+00
  2.11691599E-02 -2.39765231E-01 -4.19139965E-01 -7.34853618E-02 -1.99113555E-02
  1.14132008E-01  2.69706725E-03  7.80834910E-02 -1.17134056E+00 -1.87880221E-01
 -2.70541715E-01  2.33930281E-01  7.71257968E-02 -1.17719794E+00 -1.76678952E-01
  2.47705665E-01  2.71251555E-01  2.72993453E-03  1.20300081E-02 -1.22246401E-01
 -1.86597706E-02  2.31333483E-01  1.08027161E-02  3.10222487E-01 -5.98169772E-01
  1.32858260E-03 -2.71627967E-01 -3.88991373E-02 -5.09803073E-03 -2.72473659E-01
 -2.52156115E-01  3.57802031E-03  1.53373746E-02 -1.48938147E-01 -2.20059157E-02
 -2.31786610E-01  1.42059500E-02  2.99090955E-01  6.04474275E-01 -1.16576137E-03
 -2.70900482E-01 -4.98517832E-02 -4.80852731E-04 -2.59323396E-01  2.62480973E-01
  8.33599086E-03  5.00659977E-01  6.92853090E-01  2.18699295E-01  4.15882158E-02
  4.90828312E-02  2.41111248E-01  1.90407494E-01  9.24717786E-02 -1.09637252E-03
  3.71529483E-02  3.61167172E-01  2.36160127E-01 -9.45602163E-02 -5.01292691E-02
 -6.27102723E-03  4.38291685E-01  6.59887491E-01 -2.33313758E-01  2.93697172E-02
  6.11886999E-04  2.37049689E-03 -1.57271857E-02  4.78520654E-03  3.68800495E-01
 -1.35600949E-05 -4.35151047E-02 -2.40763322E+00  2.04046293E-03  1.73576083E-02
 -9.93759642E-04 -3.15302526E-01  3.70748817E-03 -1.40441028E-01 -5.24030437E-03
 -1.44403084E-02 -1.61468775E-01 -2.87058151E-01  2.11298025E-01  9.90063721E-02
  3.14222336E+00 -2.88591244E+00 -4.88574385E-01 -4.26183374E-01 -5.06458232E-01
 -3.53874262E-01  1.11614046E-01 -1.81165595E-01  9.15916686E-03  4.45516977E-02
 -7.70192251E-01  2.11600883E-01 -4.57694884E-03  1.02263167E-01  7.97138039E-01
  2.84436350E+00  1.18588597E+00  1.02132926E-02  3.72453200E-01 -4.94862958E-01
  1.73451446E-02  2.69255573E-01  4.70860950E-04  1.85434786E-03 -1.37976314E-02
 -2.05810959E-04  1.72373435E-01  2.54035888E-04  5.29364429E-02  2.45598268E+00
 -1.03620312E-02  1.11983975E-02  6.22373188E-04  2.43983111E-01  5.79189709E-03
 -1.18906071E-01 -9.80264928E-03 -4.71718388E-02  7.96517474E-01 -2.10119621E-01
 -9.09232968E-03 -1.02972982E-01 -7.98578167E-01  2.77040667E+00 -1.17798780E+00
 -1.53599747E-02 -3.69629042E-01 -4.97985273E-01 -2.45835053E-02  2.79193318E-01
  4.63507509E-03  1.19880998E-02  1.85870473E-01  2.81422343E-01  1.87395778E-01
 -9.87774598E-02 -3.12574085E+00 -2.85847268E+00  4.85917396E-01  4.15569488E-01
  5.11046856E-01 -3.52906471E-01 -1.09664359E-01 -1.66552352E-01  1.13589533E-04
  4.47810410E-04 -1.76220334E-03  1.41923730E-02 -9.84391673E-03  1.25198058E-04
 -2.22950395E-02 -5.20964897E-01  5.90257474E-04 -1.00322437E-03  1.32069110E-03
  1.31290209E-01  1.00512699E-02 -2.11569282E-01 -2.05975220E-04 -8.58261784E-04
  4.28806947E-03 -1.19630459E-02  1.15961400E-01  1.55069388E-03  5.72678006E-02
 -8.76517959E-01 -3.64668745E-03 -1.23781222E-02 -2.08284471E-03  6.26060271E-01
  5.46164672E-03 -7.10135625E-02 -2.44037542E-02 -2.27214511E-01  1.99344509E-01
  3.53315533E-01  5.84331801E-01  2.83543800E-02  1.58642008E-01 -2.12344582E-01
  3.70053487E-01 -5.71003606E-01  1.10187509E-02  4.30467667E-02 -3.47972338E-01
 -5.12826609E-02  3.25645406E-02  5.44010264E-02 -1.08258933E-01 -1.45279071E-01
 -3.60813196E-02  3.58073274E-03 -1.89727490E-01  8.98071184E-02  1.42673198E-01
 -1.36953070E-01 -1.07759945E-02 -4.20064350E-02  3.37826969E-01  4.99373089E-02
  1.65345388E-02 -5.40238719E-02  1.29635433E-01 -1.03334739E-01  3.61498483E-02
 -2.22148491E-02  1.87924314E-01  9.04487869E-02 -1.60956899E-01 -1.19438800E-01
 -2.13882646E-01 -5.19410276E-01 -4.21394773E-01  2.28135053E-01 -3.15478651E-01
 -1.75883497E-01  1.39983740E+00  6.15045569E-01  1.17022453E-02 -8.30192789E-01
  1.78203072E-01 -1.38570413E+00 -6.00354414E-01  4.07959411E-03  8.26835614E-01
  2.13256616E-01  5.50875989E-01  4.69372841E-01  2.12667377E-01  3.17267494E-01
 -8.20960028E-06 -6.27949313E-06 -1.19060929E-03  5.54578035E-04 -3.05958046E-02
  3.49890928E-05 -3.40074610E-03  4.38388113E-01 -3.57496286E-03 -2.18575752E-03
 -6.15900040E-04 -8.22406910E-02 -1.05481919E-03  9.43655719E-03 -6.66929769E-04
 -3.42420673E-03  6.55505670E-02  3.99982222E-02 -1.80197407E-02  1.49489698E-02
 -5.77388942E-01  1.74313133E-01  1.69390570E-01  1.50447412E-03 -4.69856661E-01
 -1.26230943E-01 -1.35810927E-02  3.31294754E-02  5.19279125E-04  1.59283224E-03
  8.82948075E-03 -1.60516834E-02 -3.13194348E-03  1.21437532E-01 -3.04934859E-01
 -1.67632082E-01  4.90140285E-01  3.62888665E-02  4.23786333E-02 -6.68165494E-01
  3.84203057E-03 -3.77314852E-02 -6.31627636E-05 -2.74480161E-04  3.79752318E-03
 -7.27028333E-04 -9.30446800E-03 -3.50522841E-05  2.18391506E-02 -5.94988606E-01
 -1.58238986E-03 -1.47962287E-03 -3.52483214E-04  1.34352994E-01  1.05694551E-03
 -2.81219789E-02 -5.17155766E-04 -1.57382672E-03 -8.70717061E-03  1.58914048E-02
 -3.58913748E-03 -1.21339410E-01  3.03063557E-01 -1.79878027E-01 -4.90338835E-01
 -3.41943880E-02 -4.19488025E-02 -6.68542047E-01 -2.79589892E-03 -4.16017737E-02
  7.54720864E-04  3.82950940E-03 -7.10168179E-02 -3.87732068E-02 -1.62762025E-02
 -1.50622009E-02  5.83444094E-01  1.53599305E-01 -1.63791040E-01  4.46243408E-04
  4.68471920E-01 -1.27245829E-01  1.77305603E-02  3.39863369E-02 -2.69734373E-05
 -1.07683353E-04  5.48559460E-04  2.82538409E-04  6.51414660E-03 -1.07078568E-05
 -4.09955887E-03  3.34805151E-02  8.21152599E-05 -1.22668854E-03 -2.20944876E-05
  6.71714445E-01 -2.16817750E-04  8.74794253E-03  2.40781644E-05  8.83045839E-05
 -3.27485272E-04 -1.09515925E-03 -6.17746586E-02 -3.43915550E-04  1.45402176E-02
  5.95438275E-01  2.70150529E-03 -2.14709781E-03  3.37561016E-04 -2.83443673E-01
 -1.36245447E-03  1.04556785E-01  2.43480811E-02  3.63713120E-01 -5.99901388E-02
 -5.08527423E-02 -2.00688844E-01 -2.32371801E-02 -3.88618213E-01  6.09990415E-02
 -4.53729918E-02  2.01293024E-01 -9.21950138E-04 -3.62116829E-03  2.96163309E-02
  3.71392295E-04  3.32947782E-03  2.13988079E-01  1.42085239E-02  6.79734346E-03
 -3.55253488E-02 -7.33715594E-03  3.42126227E-01 -6.44122155E-01 -1.06672970E-02
  1.06000010E-02  1.03008622E-03  4.05050217E-03 -3.32757147E-02 -5.19777327E-04
  2.68338052E-03 -2.14140109E-01 -1.35093942E-02  9.83984167E-03  3.59860151E-02
  9.95607285E-03 -3.41557955E-01 -6.44407676E-01  1.15542415E-02  9.96171402E-03
  2.36287479E-02 -1.37810393E-01  7.94592180E-02 -3.33464346E-02 -5.83842927E-01
  1.90155763E-02 -1.88757212E-02 -8.89885848E-02 -1.03583121E-02 -5.81229233E-01
 -1.85479152E-02  3.14692501E-02  8.47685204E-02 -8.39029887E-03  5.81612025E-01
 -2.37211591E-02  1.55760560E-01 -7.59254728E-02 -2.98218794E-02  5.81531049E-01
  3.74363959E-05  1.32129898E-04 -9.20255448E-05 -2.21941574E-04  6.59193849E-02
  1.85839794E-04 -2.39130760E-03  1.32855270E+00  4.52941392E-03  2.80537150E-03
  5.02265528E-04 -3.13455238E-01 -3.41765629E-04 -1.14459164E-01 -1.91519078E-02
 -8.21939125E-02  9.99085854E-01  3.48222567E-01  4.38154561E-02 -1.71726638E-02
 -2.92426495E+00 -1.50492528E+00 -8.45381585E-01 -4.93984401E-01 -1.47323056E-01
  2.16044344E-01 -3.91771813E-02  2.83228484E-01  1.73489382E-02  6.57204332E-02
 -4.37700765E-01  2.49859348E-02 -2.00538958E-01  3.40506450E-02 -1.33204790E+00
  2.18191260E+00  9.84924691E-01  7.54320117E-01 -2.58923197E-02 -1.56720387E-01
 -2.42095679E-01  6.08735435E-03  6.77481594E-05  2.83862676E-04 -3.20463544E-03
  7.15314265E-04 -3.99291303E-01  2.36768132E-04 -1.33376700E-02 -2.28046190E+00
  8.03406177E-03  2.03140201E-03  6.49915749E-04  4.66270657E-01 -2.66171330E-04
 -4.22736373E-01 -1.73415541E-02 -6.56939663E-02  4.37020105E-01 -2.40507314E-02
 -2.00857268E-01 -3.34782947E-02  1.33300234E+00  2.18687560E+00 -9.90627467E-01
 -7.56935738E-01  2.28447352E-02 -1.53718328E-01  2.41440296E-01  8.24269814E-03
  1.90302282E-02  8.16756027E-02 -9.93116568E-01 -3.49322893E-01  4.14022838E-02
  1.71564568E-02  2.92743709E+00 -1.49129866E+00  8.40975617E-01  4.91367459E-01
  1.47888671E-01  2.17215078E-01  3.52911407E-02  2.83121621E-01  4.32545688E-05
  1.71013582E-04 -8.44274782E-04  2.86081264E-04  1.39455177E-01  5.54688333E-05
  2.64706674E-03 -1.18492870E-01 -1.27702220E-03  9.81027794E-04 -1.02676096E-03
  2.36999025E-02  5.67499478E-04 -1.23150849E-01 -2.50472324E-05 -9.74338153E-05
  4.29594638E-04 -7.01348119E-05 -3.50502326E-01  8.46938632E-04 -5.25286032E-03
  3.21476823E+00 -4.16049801E-03  7.37021254E-04  4.94356357E-04  1.24388195E-01
  1.02500577E-03 -2.97201198E-01  1.74767327E-01  1.63208784E+00 -7.61841870E-01
 -3.82234336E-01 -4.83387917E-02 -1.75447298E-01 -1.61805963E+00  7.59524256E-01
 -3.85322784E-01  4.95642742E-02 -1.43453960E-03 -5.78815011E-03  4.64982219E-02
 -8.99606595E-02  1.41118247E-01  2.68267226E-02  1.47010794E-01 -1.74620964E-01
 -4.95256645E-02 -1.61821166E-01 -1.44295444E-01  1.11761372E-01 -8.99662980E-03
 -2.16505394E-03  1.34383525E-03  5.43187651E-03 -4.35075118E-02  8.97936887E-02
  1.40583153E-01 -2.67904565E-02 -1.46444722E-01 -1.74832586E-01  4.91401368E-02
  1.58949144E-01  1.44680765E-01  1.11704895E-01  7.91471335E-03 -8.75803217E-04
  7.74938102E-02 -2.12685695E+00  8.88552844E-01 -1.62980588E-01  3.32045088E-01
  1.99756674E-01  1.62570159E+00 -1.71973494E-01 -5.26335719E-02 -3.06430852E-01
 -1.99898004E-01 -1.63316266E+00  1.74528681E-01 -5.42821352E-02  3.07566386E-01
 -7.76083473E-02  2.11570534E+00 -8.91981705E-01 -1.67076088E-01 -3.33608510E-01
 -2.04191934E-03 -1.48388217E-02  5.59729582E-01 -7.58609434E-02 -1.99091547E-04
  3.43244239E-03 -1.23277296E+00  1.01919722E-02 -9.27007799E-03  7.17264466E-01
  8.42140884E-02  4.54573318E-03 -5.66932453E-01  1.10058479E-04 -1.37652844E-02
 -6.05638805E-02  7.74129737E-01 -2.53955446E-01  2.85761032E-01 -1.66917596E-02
  2.13853882E+00 -1.85044574E+00  7.33124062E-02 -3.26360415E-01  1.34754675E-03
  9.54763551E-03 -7.39534522E-01  3.60734622E-01  4.80866244E-03  1.99879631E-02
 -2.80711451E-01  1.26045881E-01  5.66055167E-03  2.74579115E-02 -1.30467884E+00
 -4.59218340E-01 -2.93956160E-01 -2.32544517E-01 -6.74599250E-02 -9.68670685E-02
 -2.77650895E-01 -2.51957093E-01  4.85784748E-03  2.33509035E-02 -3.84448235E-01
  1.29347778E-01  5.42345902E-05  5.92096875E-03 -7.75058045E-01 -2.47689963E-03
  6.85577687E-01  2.29082611E-01  1.40430226E-01 -3.05136640E-03 -5.32483509E-01
  1.23295368E-03  4.82617202E-03  2.00537955E-02 -2.81180037E-01  1.25452505E-01
 -5.30755417E-03  2.72266575E-02 -1.28960807E+00  4.52785362E-01 -2.80648598E-01
 -2.32142948E-01 -7.19495752E-02  9.80629396E-02 -2.78934154E-01  2.52990240E-01
 -1.37517802E-02 -6.05117911E-02  7.73651762E-01 -2.53136041E-01 -2.85452555E-01
 -1.78450003E-02  2.14544243E+00  1.85446354E+00  5.18190404E-02 -3.26795958E-01
  2.58656031E-03 -1.44233351E-02 -7.39590223E-01 -3.60821577E-01  1.67391440E-02
  6.68562313E-02 -3.65890578E-01 -1.46397215E-01 -5.47398814E-04 -4.69224733E-03
  1.85402459E+00 -7.93769673E-04  2.69183431E-02  3.11977710E-01 -3.87004086E-02
  1.28616051E-03 -5.43239735E-02 -5.58813159E-04  1.04336128E-02  4.18602340E-02
 -1.91182295E-01  1.72439928E-01  7.35859316E-04  9.16709822E-02 -2.05106668E+00
 -8.33153876E-03 -6.59573959E-01  1.86040046E-01 -5.42035902E-02  2.63410892E-03
 -1.31298277E-01 -1.15429130E-03  9.40399652E-02  1.10390760E+00  2.18950155E-01
  5.35557324E-01  5.23189800E-02  9.47190323E-02  1.11778505E+00  2.16277444E-01
 -5.35497395E-01  4.76838353E-02 -2.23123746E-02 -8.77848594E-02  7.45736329E-01
  2.78806317E-03 -7.99494011E-02 -1.29875282E-02 -1.68064310E-01  6.08476613E-01
  1.22973538E-02 -3.09780786E-01  4.17932496E-02 -8.82989478E-03  2.35216269E-02
 -6.65408209E-02 -2.23549356E-02 -8.79548005E-02  7.47247674E-01  2.41690541E-03
  7.90087701E-02 -1.32174877E-02 -1.66466884E-01 -6.07159193E-01  1.17511374E-02
 -3.10592790E-01  3.78025942E-02  3.28648544E-03  2.23533544E-02  6.59770667E-02
  2.02346253E-01 -1.73143485E+00 -1.16908186E+00  4.79827873E-01 -2.90476832E-02
  4.95225928E-02 -7.72052773E-01  7.80412918E-01  1.42963567E-01  3.32793060E-02
  5.01374216E-02 -7.76268065E-01  7.77258740E-01 -1.41811225E-01  3.21980670E-02
  2.02771639E-01 -1.73334316E+00 -1.16490591E+00 -4.78517594E-01 -1.78134973E-02
  3.51053139E-05  1.66998890E-04 -2.86789576E-03 -1.25282672E-04  7.87874319E-02
 -1.10802140E-04  6.65110280E-03  4.69928148E-01 -4.17345228E-03 -4.69752432E-04
 -2.69760211E-03  1.06714284E+00  1.23369021E-03 -2.84609551E-02 -7.14994555E-03
 -3.03324750E-02  3.49295942E-01  9.36568148E-02  4.57756436E-02  1.43083419E-01
 -7.98553050E-01 -4.75301018E-01  2.36103382E+00 -1.99245961E-01  1.18489923E-01
 -8.93998372E-01 -3.31432724E-02  6.95777373E-02  5.77902778E-03  2.09265889E-02
 -9.67080306E-02  4.55791943E-02 -9.31413458E-02 -5.19107308E-02 -6.82806240E-01
  8.26811965E-01 -1.72626547E+00  2.94028508E-01  4.62346327E-01  6.43110216E-01
 -1.83656734E-01  6.32389284E-02  7.86933702E-05  3.35211932E-04 -3.44394958E-03
 -9.63287233E-04 -2.06595336E-01 -3.89890589E-04  2.73426826E-04 -4.98658041E-01
 -1.33827759E-02 -2.43904080E-04 -5.91607297E-04 -7.31495866E-01  2.93725890E-03
 -8.74469036E-02 -5.74917277E-03 -2.07689950E-02  9.40579578E-02 -4.58947192E-02
 -9.36037035E-02  5.09312971E-02  7.01272872E-01  8.22616581E-01  1.73674318E+00
 -2.93087379E-01 -4.61863971E-01  6.38281812E-01  1.87584512E-01  5.90183689E-02
  7.16681484E-03  3.04576150E-02 -3.52330547E-01 -9.19474649E-02  4.65002348E-02
 -1.42743551E-01  7.92561635E-01 -4.86068791E-01 -2.35998722E+00  2.00084314E-01
 -1.18207508E-01 -8.95715062E-01  3.63781494E-02  7.30948689E-02 -7.38609951E-05
 -3.00448710E-04  1.62438242E-03  9.76779355E-04  6.62017118E-02 -1.77086136E-04
 -3.63968659E-03 -2.00413820E-01  7.69691919E-04 -7.45607964E-04  1.61753591E-03
 -1.59752942E-01  6.86446726E-04 -8.83313186E-02 -9.86047066E-05 -3.92246017E-04
  1.71648161E-03 -1.63807978E-03  3.46559066E-02 -1.24651394E-03  1.16444150E-02
 -7.48349954E-01  6.15383899E-03 -4.26907673E-04 -2.09995296E-03  9.43545675E-01
  3.25296902E-03 -6.26334536E-01 -1.81811371E-02 -1.01059296E+00 -1.62704941E-01
 -2.03278116E-01  6.10039311E-01  1.64854762E-02  1.00332245E+00  1.57137969E-01
 -1.95098105E-01 -6.09910755E-01  1.40748730E-03  5.55565701E-03 -5.00895160E-02
 -4.47707845E-02  6.62323457E-02 -1.03467009E-01  5.04058366E-02 -1.14263875E-01
  1.50938953E-01 -5.53371404E-02  2.96878371E-01 -1.50215559E-01  1.64826321E-02
 -1.85824677E-02 -1.36673024E-03 -5.39983916E-03  4.87831972E-02  4.54197543E-02
  6.64375889E-02  1.03876279E-01 -4.98242896E-02 -1.12906710E-01 -1.51143391E-01
  5.75813115E-02 -2.98659499E-01 -1.50589950E-01 -1.71062770E-02 -1.96753477E-02
  1.35383786E-03 -6.10663394E-01  3.16270743E-01 -4.69762139E-02 -1.09873025E+00
  1.04743980E-01  6.52041188E-01  2.13382855E-01  4.45736803E-02  5.17380275E-01
 -1.06379267E-01 -6.45176411E-01 -2.22571191E-01  4.65131789E-02 -5.17040583E-01
 -3.29092823E-03  6.27412212E-01 -3.14605156E-01 -4.80815851E-02  1.09926829E+00
  4.41297577E-03  2.17389899E-02 -4.36077046E-01  7.20674507E-02  9.40174300E-04
  1.85290448E-02 -8.94684252E-01 -1.24836237E-02  7.70047300E-01 -3.74683008E-01
  6.13815395E-01  4.26101396E-03  7.17720592E-02 -1.10061768E-03  1.02232537E-02
  4.23560301E-02 -5.02252259E-01  1.03689196E-02 -1.50507522E-01 -5.43745086E-02
 -3.39815358E-01  9.83372330E-01 -3.80597392E-01  2.27146036E-02 -2.08088897E-01
 -3.78527419E-02  1.63844523E-01  2.78351597E-02 -9.83592810E-03 -4.48794162E-02
  6.41196793E-01  6.78091360E-02  9.70536085E-02  1.26486548E-01 -1.15815373E+00
 -1.08897042E+00 -1.07358671E+00  3.22487240E-03 -4.36646774E-01 -7.90241635E-01
 -3.92809534E-01 -2.69759175E-01 -1.98900725E-02 -8.98788412E-02  1.21221372E+00
  1.82851569E-01 -3.55054504E-04  1.52504446E-01  3.18827310E-01  1.38675254E-02
  3.59917682E+00  2.17836003E-01  2.30525331E-01 -2.62239602E-03 -2.45583604E-01
  5.03066295E-04 -9.90420633E-03 -4.51839810E-02  6.45283076E-01  6.74371932E-02
 -9.75159383E-02  1.26875990E-01 -1.18079729E+00  1.11178117E+00 -1.06019267E+00
  1.61220512E-03 -4.38951607E-01  7.95532467E-01 -3.93095510E-01  2.72993191E-01
  1.02725160E-02  4.25304627E-02 -5.03004300E-01  9.81121207E-03  1.51414966E-01
 -5.53564708E-02 -3.57550950E-01 -9.99681739E-01 -3.98159682E-01  2.54195724E-02
 -2.09330993E-01  3.10691474E-02  1.61832637E-01 -2.90949525E-02  3.18701217E-03
  1.37886198E-02 -7.19133756E-02 -4.02933218E-02 -1.29788009E-04  3.56481619E-02
 -6.31820687E-01  4.70770769E-04 -2.37835996E-01 -1.01308006E-01 -3.95838388E-01
 -1.12909633E-03  1.07803638E-02  1.30369833E-04  1.27876820E-02  4.82800595E-02
 -1.55290486E-01  1.98260139E-01 -4.03873295E-04  2.57581143E-01 -1.55614769E+00
 -3.02820387E-03 -1.59540357E+00  1.13424039E-01  4.84070088E-01  2.95632232E-03
 -6.29899926E-01 -1.96638541E-03  3.17560104E-01  1.69145622E-02  5.62691049E-01
  5.82345495E-01  3.96974518E-02  3.16852034E-01  2.72684385E-02  5.61964260E-01
 -5.84752624E-01  3.51763193E-02  1.12823230E-02  4.49386155E-02 -3.89077697E-01
 -5.68693661E-02  8.12077537E-02 -9.35953727E-02  9.26917349E-02 -3.71070353E-01
  1.37040293E-01  1.09841551E-02  2.96260245E-01 -1.61030077E-02  1.15241572E-02
 -6.00957325E-02  1.12796335E-02  4.49305515E-02 -3.89111021E-01 -5.65352999E-02
 -8.11825036E-02 -9.26060644E-02  9.18503293E-02  3.70359720E-01  1.35508869E-01
  1.09700559E-02  2.94364897E-01  1.62552045E-02  1.14893233E-02  6.07626438E-02
 -6.96358199E-02  4.57173700E-01  5.63565606E-01 -2.87301396E-01 -1.58431520E-01
  1.72476253E-01 -8.57231146E-01  7.92123923E-01  2.59150175E-01 -6.44938382E-02
  1.73624993E-01 -8.68800701E-01  7.92486218E-01 -2.59568778E-01 -6.88939402E-02
 -6.85047291E-02  4.57935161E-01  5.62813332E-01  2.88108424E-01 -1.50264416E-01
 -1.20186846E-03 -6.96720940E-03  1.93579200E-01 -9.45199154E-02 -4.67206816E-04
  4.70561592E-02  8.86722795E-01  3.81245716E-02  1.63973141E+00  2.82595294E-01
  6.29536574E-01 -4.71714275E-04 -6.59650994E-02  3.70969675E-03 -7.40857941E-03
 -2.92372425E-02  3.01935852E-01  1.23622726E-02  1.15790784E-01 -3.21376542E-02
  1.00196958E-01 -5.77133688E-01 -1.01937098E+00 -1.53123103E-02 -3.13073103E-01
 -2.09708836E-01 -1.49039753E-01 -5.47377128E-02  6.45028880E-03  2.97339772E-02
 -4.54315378E-01 -2.35709438E-02 -4.29517474E-02  1.11601661E-01  1.24412535E+00
  9.85354461E-01 -7.74775845E-01 -2.17592147E-02 -5.86008515E-01 -9.01400784E-01
  4.46562802E-01  4.14357636E-01  1.41823489E-02  6.18806810E-02 -7.39068305E-01
 -1.43697874E-02  4.61105009E-04  2.40407105E-01 -1.66923523E-01 -5.09354757E-02
  3.72734827E+00 -1.74362890E-01 -4.78269533E-02 -3.31633811E-04  5.83669230E-01
 -3.83396380E-03  6.51153474E-03  3.00266137E-02 -4.58173125E-01 -2.50775332E-02
  4.32351892E-02  1.11670881E-01  1.33653453E+00 -1.04486533E+00 -7.73313983E-01
 -1.76694123E-02 -5.85642336E-01  9.01265377E-01  4.50759697E-01 -4.19377994E-01
 -7.47798409E-03 -2.94815075E-02  3.03789314E-01  1.50719133E-02 -1.16270957E-01
 -3.19282878E-02  1.53059972E-01  6.22953473E-01 -1.01960412E+00 -1.55177325E-02
 -3.13480107E-01  2.11589294E-01 -1.43793266E-01  5.84885692E-02 -5.97279083E-03
 -2.51673602E-02  1.38287880E-01  6.17215234E-02  3.96211711E-04  9.17398120E-02
  3.29153849E-01 -5.11580393E-03 -6.33627870E-01  5.75488471E-02 -5.43637144E-01
  9.71742317E-05  1.24566091E-03 -1.40316105E-03 -1.27665041E-02 -4.93187379E-02
  1.86160301E-01 -2.60664524E-01  7.21751999E-04  2.84593376E-01  2.38512540E+00
  1.30904528E-02 -1.16448532E+00 -2.24859050E-01  8.60475956E-01 -2.03934479E-04
  4.93619958E-01  3.31257239E-03 -3.10219063E-01 -4.91334134E-01 -6.42877770E-01
 -6.87430317E-01  5.36144043E-03 -3.06321320E-01 -5.30139934E-01 -6.41768303E-01
  7.02959402E-01  8.09728986E-03 -7.47410874E-03 -3.00987580E-02  2.67067545E-01
  5.58026611E-02 -6.47399143E-02 -9.57007900E-02 -7.65954784E-02  2.68900808E-01
  1.80207472E-01  4.29862924E-02  3.28747198E-01  1.42614471E-03 -1.03585550E-02
  6.87390931E-02 -7.55657914E-03 -3.04274322E-02  2.70055915E-01  5.59280777E-02
  6.51937770E-02 -9.58944225E-02 -7.55957291E-02 -2.70089719E-01  1.80366200E-01
  4.33464043E-02  3.28318172E-01 -2.16407578E-03 -1.13305720E-02 -7.04212938E-02
 -8.63800165E-03 -1.78254523E-01 -4.50835967E-01  2.70313076E-01 -1.84853037E-01
 -1.78257161E-01  1.03150597E+00 -8.29047717E-01 -1.85851683E-01 -2.04279980E-01
 -1.80352068E-01  1.05161403E+00 -8.42783300E-01  1.90063562E-01 -2.05375673E-01
 -1.06535425E-02 -1.73861808E-01 -4.51314874E-01 -2.73523584E-01 -1.85644732E-01
 -5.52594796E-05 -2.52216048E-04  3.86238769E-03  3.22558840E-05  8.28257987E-02
  3.75535562E-04  1.38429612E-04 -3.89411258E+00  6.83364166E-03  7.45317988E-04
  2.58847650E-03  3.15249825E-02 -9.20040969E-04 -6.42745727E-01 -6.72757481E-03
 -2.34460044E-02  1.69577144E-01  1.79101856E-01  8.24599549E-02  7.99526813E-03
  2.32659383E+00 -2.39566088E+00 -9.27184029E-03 -5.58210966E-02 -5.43022255E-02
 -4.68382220E-02  4.60586521E-01 -2.67032549E-01  2.06245084E-03  1.45458268E-02
 -2.63608761E-01 -1.46565590E-01 -1.90692054E-02  7.78654996E-03  5.95633347E+00
  3.57696697E+00  1.30509070E-01  3.72934033E-01  9.70053923E-03  4.76827938E-03
  7.05404788E-01  6.25513698E-01  3.25565944E-05  1.62193855E-04 -2.73054559E-03
 -6.02030342E-04  1.23824676E-02  7.69766694E-04  1.10176499E-02  7.78599733E+00
  1.13317972E-02 -3.98392132E-03 -9.53041261E-04  8.19307609E-02  3.81692100E-03
  1.24755617E+00 -1.93849855E-03 -1.39927368E-02  2.56112447E-01  1.44780288E-01
 -1.70675390E-02 -7.16264631E-03 -5.94033165E+00  3.55511535E+00 -1.36256011E-01
 -3.70579848E-01 -1.11839254E-02  1.02932887E-02 -6.98016277E-01  6.21021528E-01
  6.64241828E-03  2.30897099E-02 -1.64790180E-01 -1.79149426E-01  8.14909825E-02
 -7.98806201E-03 -2.32468535E+00 -2.38970184E+00  3.36909403E-03  5.71511071E-02
  5.41195656E-02 -4.30234151E-02 -4.62135475E-01 -2.68327570E-01 -2.69626362E-05
 -1.15439308E-04  6.43583921E-04 -1.00572317E-04 -1.54490888E-01  2.47481521E-04
  1.36336003E-03  8.07168919E-01 -1.63124673E-03 -3.03189406E-05 -1.88710797E-03
 -1.18430661E-03 -5.34099390E-04  2.41303515E-01 -4.77061412E-05 -1.75919116E-04
  4.38538354E-04 -1.04261786E-03  1.71441021E-01  1.04759496E-03  1.69641304E-02
 -6.68025460E+00 -4.92220199E-03 -1.95300457E-03  3.05831777E-03 -3.27167321E-01
  1.14091351E-03 -9.66655326E-01  4.81565516E-01 -7.77180217E+00  7.93652033E-01
 -2.14943911E+00  3.13689423E-01 -4.86104333E-01  7.75666117E+00 -8.01170092E-01
 -2.13827126E+00 -3.16297882E-01 -5.82983567E-03 -2.34716151E-02  2.23037935E-01
  4.15307154E-02 -1.01489694E-01 -6.71097891E-04  6.59413237E-03  1.92426073E-01
  1.03455898E-03  6.19406251E-02  1.19436379E-03  1.27868766E-03 -6.68951342E-02
  1.33840755E-01  5.79896184E-03  2.33456805E-02 -2.21848072E-01 -4.14305734E-02
 -1.01100872E-01  1.41547387E-04 -7.44756936E-03  1.90694500E-01 -3.23846199E-04
 -6.17829713E-02  9.88328981E-04  1.58018590E-03  6.71004197E-02  1.33861694E-01
 -1.38509169E-01  4.57563249E-01  1.30000655E-02  1.42205070E-01 -4.54588822E-02
 -3.26520838E-01  2.37829019E+00 -1.07157878E+00 -1.39798431E-01 -6.01559804E-02
  3.24702875E-01 -2.35861282E+00  1.05708288E+00 -1.35076350E-01  5.87849238E-02
  1.39995295E-01 -4.60558019E-01 -1.48348746E-02  1.41493052E-01  4.38778835E-02
 -2.39839257E-02 -1.02446471E-01  1.29310655E+00  2.67999542E-01  9.19680258E-03
 -2.58099590E-03 -1.79360783E+00  4.74592455E-01  3.64869969E-01 -5.01528047E-01
 -1.52653292E-01  3.40320282E-02 -7.29706112E-02 -2.37059942E-02  6.08745627E-05
 -2.32459615E-03  1.64853560E-01 -2.13116292E-02 -1.18617929E-01  1.21917721E-02
  4.69987020E-01 -1.91454239E-01 -8.44752014E-01  3.82429414E-01 -4.92408795E-01
  4.80515321E-02 -1.75367067E-02 -3.08371586E-02  1.34090249E-02  5.32093262E-02
 -5.15558709E-01 -2.62879988E-01 -3.67492047E-01 -4.51289417E-03  8.53435463E-01
  3.56795183E+00  8.92307883E-01  4.90111999E-01 -4.01666247E-01 -1.05836585E-01
  6.19124810E-01 -3.77229506E-01 -2.67734244E-02 -1.14566854E-01  1.19833296E+00
 -1.31768584E-02  2.24573364E-02 -1.14351000E-02  4.33029718E+00 -6.20937457E-01
 -4.02295174E-01 -1.35663017E+00 -3.67446111E-01  2.48919919E-02  4.53324763E-01
 -6.52618889E-02  1.37885053E-02  5.38126438E-02 -4.76289536E-01 -2.61021490E-01
  4.02821987E-01 -7.26701677E-03  1.57083839E+00 -3.87547759E+00  8.55097952E-01
  5.25734711E-01 -4.40661202E-01  1.54583260E-01  6.20679004E-01  4.79991117E-01
 -3.90475098E-04 -5.10901835E-03  2.29771014E-01 -5.09546175E-02  1.22928208E-01
  2.39122788E-03  1.45146919E+00  8.20761243E-01 -9.29655526E-01  3.77206049E-01
 -4.69836553E-01 -7.83257839E-02 -4.77422735E-02 -6.67630618E-02  1.63377642E-02
  6.72517541E-02 -3.68169149E-01 -1.32642037E-01 -2.43050607E-02  6.80266184E-02
  9.26398383E-02  4.23286435E-02 -6.07488109E-01  2.24817192E-01 -1.95986806E-01
 -3.50307458E-03 -7.46365264E-02  3.28457617E-02  9.10011095E-03  3.78322683E-02
 -2.18959183E-01  1.23759701E-01 -7.56427862E-02 -1.20194203E-01  3.48613208E+00
  9.68924297E-01  9.91315992E-01 -3.18128480E-01 -5.98155400E-02  7.71936633E-02
 -7.27823629E-01  6.97459003E-02 -2.50220163E-01 -1.97656763E+00  6.27563516E-02
 -4.80389495E-01  7.20199174E-02 -1.92664016E-01 -3.85085914E+00  3.42624274E-01
  8.25619923E-01  1.09885118E-01  2.62135396E-03  1.11913918E-02 -1.08404590E-01
 -8.52891804E-02  9.38222090E-02 -1.13101364E-02  1.09641141E-01 -2.69570055E-01
  8.13870646E-02 -2.81874756E-01  5.31537923E-02  6.94674651E-02  3.80786250E-02
 -1.43359012E-01  3.19037386E-03  1.35259862E-02 -1.32858623E-01 -9.89310942E-02
 -1.20078565E-01 -6.95351747E-03  1.13019193E-01  2.99214252E-01  7.43709981E-02
 -3.07990476E-01  4.68260617E-02 -6.62495226E-02  4.74189498E-02  1.59416853E-01
  3.17228294E-02  5.67151723E-01  5.91655132E-01 -1.63987577E-01 -9.34726317E-04
  6.11422926E-02  1.58098874E+00 -1.38315593E+00 -8.24319577E-01 -6.61274669E-02
  1.18344466E-01  1.37525614E+00 -1.37203713E+00  8.79770861E-01 -7.92174877E-02
  7.47912160E-02  3.43072337E-01  5.35054616E-01  1.59781993E-01  3.78634359E-02
  2.56418174E-03  1.09371578E-02 -1.37555433E-01 -2.89697480E-02  8.28283023E-02
  4.34365602E-04  1.92933567E-01  3.96964276E+00 -3.49802842E-02  5.46947929E-02
  1.81442374E-02  2.91044071E-01  7.39975165E-03 -2.35918222E-01  2.11365012E-03
  1.33661523E-02 -3.21569277E-01  1.40908295E-01  3.27961193E-02  4.33609146E-02
 -4.29346178E+00  2.76935555E+00  4.59737340E-01 -6.84248595E-03 -4.49840020E-02
 -1.42187691E-01  1.46312817E-01 -4.58128720E-01 -3.34019518E-03 -8.89669400E-03
 -1.29603889E-01  1.20696855E-02  2.05547629E-01  1.29563578E-02 -3.02388007E+00
 -1.58541416E+00  7.66905193E-02 -2.18519706E-01  2.25010603E-01  2.34936796E-01
 -5.60397224E-02  5.39282934E-01  2.88683195E-03  1.23716190E-02 -1.30027332E-01
  7.65997155E-04  2.09274661E-01  1.20959484E-03 -4.59280184E-01 -5.24759800E+00
  4.34869134E-02  1.43821425E-01  3.84156691E-02  2.26579220E-01 -4.86449924E-02
 -5.90010521E-01  4.68350993E-04 -2.36686029E-03  2.32794901E-01  4.34441954E-02
  1.23743853E-01 -1.16732391E-02  2.76342673E+00 -7.97030707E-01 -2.68631514E-01
  1.11214407E-01 -1.30685450E-01  2.07524990E-01 -7.46555626E-02  4.42943902E-01
 -2.12450107E-03 -1.27684149E-02  2.82074509E-01 -1.33385006E-01  6.08060728E-03
 -4.46856519E-02  4.08888317E+00  2.65949523E+00 -2.67535721E-01 -7.48692783E-02
  1.49986538E-01 -1.26059835E-01 -1.40492730E-01 -4.57202317E-01 -1.79028606E-03
 -7.37330433E-03  4.04156563E-02  1.39635701E-02 -2.32384540E-01 -7.27953507E-03
 -9.11966063E-03  4.43090336E-01  6.61784689E-02 -2.48533653E-02  2.08055884E-02
 -3.16212862E-02  7.34939793E-03  3.16823529E-01 -9.89140081E-04 -4.10120867E-03
  2.34401823E-02 -1.40464311E-02 -7.05600289E-01  1.29705648E-02 -3.63766372E-01
  8.94950767E+00 -1.01808039E-01  3.38672145E-02  8.46862138E-03  7.03802822E-01
  7.98121635E-02  6.45126855E-01 -2.37060900E-01  8.96051390E+00 -1.31626169E+00
  1.64917393E+00 -1.82406191E-01  2.82641736E-01 -8.34200446E+00  1.27099413E+00
  1.51278848E+00  1.64711008E-01 -3.06460263E-03 -1.26363908E-02  1.31970148E-01
  7.61898051E-02 -1.38562713E-01 -1.78723367E-02 -3.54825797E-02  1.81537228E-01
  2.17618143E-02  1.52530594E-01  2.48953313E-02  3.56712900E-03 -4.94948209E-02
  8.67580114E-02  2.45334640E-03  1.00279095E-02 -1.06285143E-01 -5.64768543E-02
 -1.15255159E-01  1.98250372E-02  1.05246030E-02  1.19190342E-01 -3.88040864E-02
 -8.82717795E-02 -3.51672099E-02  1.86339781E-02  4.06403950E-02  5.43169338E-02
 -2.04969843E-01  1.01228765E+00  1.62903041E-01  1.91040271E-02 -1.71301954E-01
 -2.84715320E-01  8.45951390E-01  4.26064871E-02  3.31101748E-01  6.26613503E-02
  2.64285503E-01 -1.15023946E+00  2.48324405E-01  1.49344263E-01 -4.81401780E-02
  1.95275982E-01 -1.11520107E+00 -2.84921766E-01 -1.49227031E-02  1.66804549E-01
 -1.78064901E-02 -7.20311307E-02  7.49396267E-01 -4.00556712E-02  5.04790002E-05
 -8.80197118E-03  4.31873174E-01  2.04776382E-02 -1.86811195E-01 -4.23476783E-01
  5.70250633E-03  1.20297192E-06  2.42842848E-01 -5.44252141E-04  6.42533341E-03
  2.75103752E-02 -3.78925358E-01 -1.69808750E-01 -2.06833789E-01  9.80153785E-04
  2.57370940E+00 -1.45146617E-01  1.81828789E-01  6.77542145E-01  7.72203558E-02
  2.52784622E-02 -1.75779956E-01 -1.12560139E+00 -1.06785715E-02 -5.03373140E-02
  6.49100018E-01 -9.27682473E-02  1.73936448E-01 -3.72670167E-03  3.06820790E+00
 -1.09434437E-01 -5.84684919E-02 -8.09865518E-01  1.01454938E-01  5.17776683E-02
 -2.21211654E-01 -1.18325047E+00  2.03924679E-02  7.65452335E-02 -6.84682308E-01
  2.80283759E-01  5.42086825E-04  1.49732605E-02  7.28500707E-01 -1.91325467E-02
 -1.30609020E-01  4.92059284E-01  7.53312961E-02  9.43724651E-04  5.19053084E-01
  4.37259256E-04 -1.06410998E-02 -5.01858885E-02  6.47386923E-01 -9.12465680E-02
 -1.73362875E-01 -3.80173897E-03  3.08794794E+00  9.42060258E-02 -6.35113872E-02
 -8.08411378E-01  1.03033279E-01 -5.06833041E-02 -2.19795875E-01  1.18410795E+00
  6.43942957E-03  2.75605436E-02 -3.79642891E-01 -1.69974428E-01  2.06888474E-01
  1.30475156E-03  2.60590550E+00  1.70449124E-01  1.83125669E-01  6.74597525E-01
  7.99144249E-02 -2.58076137E-02 -1.74683847E-01  1.12030677E+00  5.16725670E-03
  2.11650803E-02 -1.13356539E-01 -4.74512690E-02 -1.44076470E-03 -1.64682416E-02
  1.88465816E-01 -1.38994394E-03  1.50768219E-01  5.00160465E-01  6.46184283E-02
  6.39834706E-04 -1.43311717E-01  1.10225791E-03  1.14778611E-03  3.77539960E-03
 -1.72856093E-03  4.95798212E-02 -6.00592709E-04  2.26901752E-03  9.61262643E-01
  5.32261853E-03  6.86811490E-02 -3.62857264E-01  1.14382100E-01 -3.05323261E-04
  1.13817839E-02 -6.34160684E-04 -3.33999435E-03 -9.03045959E-01  5.75845545E-03
 -1.40696974E-01  2.66027601E-03 -3.83918238E-03 -9.06454203E-01  6.87991329E-03
  1.39942013E-01  3.88753192E-03 -6.33463483E-03 -2.64713992E-02  2.45573743E-01
  3.70109293E-02  1.08908463E-02  6.20233965E-03 -7.11786837E-02  8.99170196E-02
 -2.45267102E-02 -1.49796895E-01 -2.56347720E-02 -1.11815462E-02  1.04533166E-01
  2.83345773E-02 -6.41388716E-03 -2.67819343E-02  2.48125818E-01  3.65322178E-02
 -1.18983899E-02  6.20905978E-03 -6.94979093E-02 -9.01721819E-02 -2.45849329E-02
 -1.50536179E-01 -2.61927900E-02  1.00172111E-02  1.04614231E-01 -3.02762682E-02
 -6.06652847E-01  3.45661581E+00 -7.25807053E-01  8.75826726E-01  1.69223648E-02
  9.04426404E-02 -2.93281970E+00 -6.28364698E-01 -3.10063181E-01  9.60248691E-03
  9.04691605E-02 -2.93050850E+00 -6.29170676E-01  3.11717689E-01  9.75713471E-03
 -6.04983000E-01  3.44011455E+00 -7.29188651E-01 -8.75254127E-01  1.61087711E-02
  7.07729341E-03  2.99743852E-02 -3.72818778E-01 -8.94309096E-02 -1.24405513E-03
 -3.11415895E-03  4.14543321E-01 -1.53002372E-02  3.31245557E-01  1.94410527E-01
 -1.19238632E+00  1.40914723E-03  6.02786895E-02 -1.18338214E-03 -1.22202664E-03
 -4.57918032E-03  1.23952953E-02 -3.56010485E-03  4.96487249E-02 -3.32558305E-02
 -7.47650722E-02 -8.67543276E-02 -2.69950793E+00 -1.28531198E-01 -1.52229178E+00
  5.92934716E-01 -5.43267960E-02 -1.27153500E-01 -4.22764826E-03 -1.78317830E-02
  2.01963870E-01  7.63512181E-02  1.12865697E-01  1.01080054E-03 -2.16877659E-01
 -8.01572594E-01  3.09798419E+00 -1.61771075E-01 -1.79300215E+00 -6.72349446E-02
 -2.23300264E-01  1.30848186E-02  7.32796142E-03  2.96982787E-02 -2.92583979E-01
  6.05298396E-02 -2.53449380E-05 -1.99761562E-02 -9.93867342E-01  4.18922401E-02
 -1.44779247E+00  4.51541741E-01 -1.50918848E-01  2.99579260E-03 -7.21089664E-02
  1.42694709E-03 -4.09776599E-03 -1.72900762E-02  1.94944370E-01  7.98336232E-02
 -1.11963293E-01  3.93599335E-04 -3.01511350E-01  8.39602114E-01  3.09545776E+00
 -1.59407950E-01 -1.79812856E+00  6.56432302E-02 -2.28296639E-01 -1.45601466E-02
 -1.11974625E-03 -4.16318561E-03  6.13145559E-03 -2.80052221E-03 -4.94907909E-02
 -3.33996867E-02 -1.26715375E-01  7.13349848E-02 -2.70481595E+00 -1.36809234E-01
 -1.52347369E+00 -5.88042696E-01 -6.03075176E-02  1.20139252E-01 -5.56276825E-03
 -2.29006049E-02  1.28175244E-01  2.07042528E-02 -2.46200615E-03  1.99490552E-01
 -2.01101552E-02 -3.27860340E-03 -2.27986761E+00 -7.53536643E-02 -6.04866068E-01
 -2.45387428E-04 -4.43653227E-03  2.30945621E-03 -3.25085004E-03 -1.36558501E-02
  8.17182705E-02 -6.27335149E-03 -6.98686092E-04 -2.47643231E-01 -8.52723229E-01
  2.03353359E-03  7.66156387E-01 -3.01911375E-02 -1.08267508E+00  1.18912576E-04
 -2.52416731E-02  1.27330801E-03  6.37225622E-02  6.12944024E-01  4.41953045E-02
  2.65582546E-01  3.66947569E-01  6.19550717E-02  6.10550259E-01  4.53991564E-02
 -2.69521773E-01  3.67378899E-01  4.85582576E-05 -1.45658675E-04  7.77430670E-03
  2.03475215E-02 -2.67984796E-02 -7.96298297E-03 -4.61684130E-02  6.37920847E-02
  2.68068470E-01  8.57139998E-02  1.13397665E-01  2.80731675E-01  3.72877644E-03
  2.32909434E-02 -1.89682185E-04 -1.08919527E-03  1.58033988E-02  1.99551967E-02
  2.59477514E-02 -7.87635687E-03 -4.38643974E-02 -6.84165024E-02  2.67799363E-01
  8.53250304E-02  1.13528733E-01 -2.79995147E-01  3.13152790E-03 -2.92043217E-02
 -6.39871348E-02  2.61597694E-02 -2.15864398E-01  1.50664470E-01  2.84893627E-01
 -2.21907055E-02 -4.80622490E-01  4.09570099E-01  2.37212714E-01  1.73218101E-02
 -2.28388770E-02 -4.77659723E-01  4.24882214E-01 -2.43320697E-01  2.06481734E-02
 -6.05776605E-02 -1.07186801E-02 -2.18112428E-01 -1.45119392E-01  2.82183062E-01
 -1.34627757E-05 -5.69182239E-05  5.56841329E-04 -1.23339980E-03  5.46997370E-02
  1.13352000E-05  2.92538781E-03  6.10980270E-01  3.13873685E-03  1.51029807E-04
 -5.07821769E-03  9.34286588E-02  1.65523064E-03  7.71745415E-02  4.88328800E-03
  1.87324271E-02 -2.29340210E-01  4.89223407E-02  5.53268231E-02  1.16802022E-02
 -2.57611966E+00 -3.65845398E-01  3.46212888E-02 -6.31259242E-01 -8.41983479E-02
 -3.95488730E-02 -8.13253678E-02  9.88790295E-01 -1.90948004E-03 -3.70134038E-03
 -8.73970271E-02  2.92067397E-01  8.67319242E-03  4.92995877E-03 -3.97461067E+00
 -9.57221558E-01  1.40443537E-01  4.44351246E-01  4.19164054E-03  7.96623827E-02
  5.16187147E-01  6.16995289E-01  9.00474471E-05  3.53798307E-04 -3.20099834E-03
  2.68803084E-04 -2.98856723E-02 -2.73784792E-04  2.92470443E-03  2.84514995E-02
 -9.01649913E-03  4.03361262E-03 -1.35679865E-03  7.80449007E-02 -4.59852956E-04
  2.19795674E-02  1.80346963E-03  3.22953058E-03  9.33139067E-02 -2.91271977E-01
  6.68008761E-03 -5.14291353E-03  3.97645095E+00 -9.48272306E-01 -1.14741247E-01
 -4.49189557E-01 -1.65747179E-02  7.89544340E-02 -5.21421471E-01  6.21466489E-01
 -4.86833916E-03 -1.86813584E-02  2.28315439E-01 -4.97305171E-02  5.55801288E-02
 -1.16691990E-02  2.58483958E+00 -3.67373896E-01 -5.90175129E-02  6.32115227E-01
  7.35643469E-02 -4.43530856E-02  8.09209754E-02  9.92390796E-01 -3.16820003E-05
 -1.32509126E-04  8.14486346E-04 -8.82381566E-04  3.54231968E-01  5.98719751E-04
 -1.01187673E-03  6.34876806E-01 -1.00135077E-02  7.01132806E-04 -2.33325103E-03
 -4.72231749E-03 -3.98800004E-04 -3.44045946E-01 -9.03529261E-06 -3.69371943E-05
  1.55813832E-04 -7.87612036E-05  8.67900510E-02 -1.13512202E-03 -2.00795740E-03
 -3.22605405E-01  4.94909578E-03 -1.72643161E-03 -4.67452338E-03  3.74266810E-02
  8.42546819E-04  6.39807259E-01 -1.34823502E-01  1.06098092E+00  3.11430431E-02
  3.59894838E-01 -1.66390283E-03  1.34964631E-01 -1.06003024E+00 -3.07534657E-02
  3.58014695E-01  5.24601370E-03 -1.90190485E-02 -7.55426459E-02  6.53327216E-01
 -8.37963199E-03  4.03959282E-02 -3.26654229E-03  1.39639663E-01  4.49511455E-01
  7.45583501E-03 -4.11538203E-02  4.46717905E-03  6.66117806E-03 -7.73464093E-02
  4.73080123E-01  1.90418657E-02  7.56230708E-02 -6.53925242E-01  8.12245553E-03
  4.05706502E-02  3.06407739E-03 -1.40223712E-01  4.48983582E-01 -5.36052633E-03
  4.11964865E-02 -3.88169181E-03  4.49129407E-03  7.83327381E-02  4.73403278E-01
  4.76742542E-01 -3.77352988E+00 -1.41587439E-01 -6.06907032E-01 -4.87509266E-02
 -4.59810050E-01  2.91325873E+00  4.03679330E-01  5.50183530E-01  3.18768331E-02
  4.59497229E-01 -2.92741655E+00 -4.00977267E-01  5.47981059E-01 -3.15762150E-02
 -4.79238211E-01  3.78533637E+00  1.35445354E-01 -6.11910350E-01  5.06325969E-02
  6.45422992E-05  4.93413281E-04 -1.22624627E-02  7.44536401E-03 -3.39585484E-01
  3.12630171E-04  2.51277845E-02 -1.72518117E+01 -2.03287052E-04 -7.52112848E-03
  4.57444868E-03  5.70594380E-01 -1.20918536E-02 -2.97461359E-01 -1.47909083E-02
 -6.17099132E-02  9.41184787E-01 -1.83094222E-01  7.67897064E-02  6.12442211E-02
  1.85789812E+01 -1.09363305E+01  2.27080729E-01  6.06474872E-01 -4.70310470E-01
 -1.62124343E-01  1.05745946E+00  8.66283182E-02 -1.36310482E-02 -5.54431486E-02
  6.89142723E-01 -4.89913529E-02  1.17971922E-01  4.91117709E-02  2.04716946E+01
  1.16650392E+01  9.06444596E-01  2.51546238E-01  6.94712091E-02  4.11566884E-01
  1.10854550E+00 -3.00080113E-01 -1.61378677E-04 -6.03944196E-04  3.49900733E-03
  2.20783816E-03 -2.56573961E-01 -7.42627755E-04 -1.07587570E-01  2.67575157E+01
  9.23614339E-03 -6.38980914E-03 -4.32102878E-03  6.97891070E-01  2.48771999E-03
 -2.38065624E-02  1.39577550E-02  5.69218559E-02 -7.08506294E-01  4.80676968E-02
  1.21477390E-01 -4.92240701E-02 -2.04077360E+01  1.17083962E+01 -9.20281044E-01
 -2.46772764E-01 -6.30938008E-02  4.16308170E-01 -1.08316649E+00 -2.94209853E-01
  1.50820783E-02  6.32200044E-02 -9.65151158E-01  1.93088396E-01  8.10901300E-02
 -6.10114159E-02 -1.86239899E+01 -1.09207263E+01 -2.18120496E-01 -6.02736839E-01
  4.77010785E-01 -1.54082898E-01 -1.04411925E+00  1.04823052E-01  3.71369099E-04
  1.54444479E-03 -9.37080731E-03  7.80152121E-03  1.29820220E-01 -2.60122561E-04
  1.14841037E-02 -6.36193272E-02  4.05100226E-03  6.62996017E-03  4.23170810E-04
 -2.16402424E-02  8.01023369E-03 -2.47617151E-01 -1.07602059E-04 -4.66527663E-04
  3.71143238E-03  1.93898312E-03  4.92467771E-02 -4.30912865E-04 -4.38926136E-02
 -1.36012368E+00 -1.06114948E-03  1.72480344E-02 -1.39505439E-03 -1.38384610E-02
  4.42108903E-03  1.43273629E+00  4.93793874E-02  1.78530475E+00 -2.62701854E-01
 -1.61789799E-01 -8.81376329E-02 -4.28949948E-02 -1.70124649E+00  2.59255736E-01
 -1.74960274E-01  8.24216216E-02  5.03856276E-03  2.07402258E-02 -2.05263672E-01
 -3.70692527E-02  7.87591821E-02 -1.88956968E-02 -6.78821986E-02 -1.51244639E-01
  4.21354833E-02 -1.13301060E-01  2.29034024E-02  4.02310073E-02  1.36867769E-02
 -1.24635623E-01 -5.78190220E-03 -2.36503728E-02  2.30152279E-01  4.37924119E-02
  7.99007473E-02  1.82905160E-02  6.53856920E-02 -1.64297620E-01 -4.18988551E-02
  1.08309314E-01 -2.18677975E-02  4.15219376E-02 -2.98518588E-02 -1.32987188E-01
 -4.95406575E-02  1.63213475E+00 -8.68398348E-01  8.27209985E-01 -2.53814912E-01
 -5.80418630E-02  1.05474080E+00 -2.74092110E+00 -1.23660490E+00  9.93010512E-02
  6.74224608E-02 -1.10350174E+00  2.73236364E+00 -1.21896760E+00 -1.01135903E-01
  5.10598245E-02 -1.62846710E+00  8.74482911E-01  8.35021418E-01  2.49833635E-01
 -3.95029778E-04 -2.57464511E-03  5.77441740E-02 -2.96450906E-02 -4.11133593E-02
 -4.40347400E-03 -1.05447559E-01  2.87818082E+01 -5.94178008E-02  2.83827844E-02
 -8.27791898E-03 -7.14841717E-01  5.13510058E-02  1.07294226E-01 -1.65423769E-02
 -6.73274112E-02  7.78041119E-01  1.17368843E-01  2.01950742E-01 -7.46514232E-02
 -2.22085610E+01  1.37265597E+01 -2.09579280E-01  1.68521887E-01  6.23557987E-01
  2.25168869E-01  8.06748291E-01 -4.62938218E-01 -1.15375841E-02 -4.99994323E-02
  8.42496603E-01  2.12528641E-01  1.50000385E-01 -6.05280776E-02 -2.14248990E+01
 -1.17179455E+01 -1.18406918E+00  5.16576677E-01 -3.54478774E-02 -5.30744347E-01
  3.52062333E-01  6.61669769E-02  5.65844787E-04  2.10636834E-03 -1.15323446E-02
 -9.34287736E-03 -1.51746298E-01  6.10205675E-03  4.72572148E-01 -2.18863433E+01
  2.00642280E-03  1.79371786E-02  2.84704094E-02 -8.88039595E-01 -7.15374907E-03
  3.15149260E-01  1.03653598E-02  4.46824171E-02 -7.73050967E-01 -2.09821026E-01
  1.38956954E-01  6.27884641E-02  2.11926145E+01 -1.18941091E+01  1.18959021E+00
 -5.29718126E-01  3.17813605E-02 -5.36838283E-01 -4.48501345E-01  4.30750340E-02
  1.53782740E-02  6.12694645E-02 -6.81035123E-01 -1.55857246E-01  1.86679895E-01
  7.22179571E-02  2.23679762E+01  1.36753870E+01  2.53460823E-01 -1.82024979E-01
 -6.29197014E-01  1.83790600E-01 -8.52840744E-01 -5.36051636E-01 -1.42377197E-03
 -5.91851917E-03  3.59782753E-02 -3.05193699E-02  1.75581303E-01 -2.58450036E-03
 -5.22913751E-02 -2.57695266E+00  2.15904169E-02 -2.39260327E-02  1.28649807E-02
  2.55573879E-02 -2.98919405E-02 -5.11730574E-01  4.84638384E-04  2.09679972E-03
 -1.63838964E-02 -7.63878463E-03  4.16829524E-02  4.54710156E-03  1.92006683E-01
  5.20929060E-01 -9.50336154E-03 -6.88193978E-02  2.51896884E-02  6.89242378E-02
 -1.48990493E-02 -3.96948515E-01 -3.56206789E-01 -2.32442225E-01 -5.42372305E-02
  2.42434927E-01  2.21402106E-02  3.26658856E-01 -1.24084614E-01  6.47333266E-02
  3.05932520E-01 -1.04765812E-02  3.67340439E-03  1.59248956E-02 -2.06009358E-01
 -9.55347834E-02  1.39370862E-01  2.30426179E-02  2.86242669E-01 -4.18526279E-01
 -5.32178590E-02  1.60360332E-01 -3.09332718E-02 -5.16682741E-02  8.29010535E-02
  2.69592531E-01 -7.41496594E-04 -4.41732262E-03  1.06589681E-01  6.81434802E-02
  1.33669815E-01 -1.99555321E-02 -2.67403992E-01 -3.58658158E-01  4.48930303E-02
 -1.44816737E-01  1.80169256E-02 -5.24131669E-02 -1.64094843E-02  3.02162655E-01
 -2.87492885E-01  2.57783156E+00  2.53289417E+00 -9.27325812E-01  3.26324938E-01
  9.40360789E-02  1.23587436E+00  1.69667051E+00  1.04178558E+00 -1.52326827E-01
 -1.31628827E-01 -1.03377044E+00 -1.67549300E+00  9.75338567E-01  1.58492185E-01
  2.80489504E-01 -2.58291717E+00 -2.53749811E+00 -9.52924887E-01 -3.05675556E-01
 -5.17123222E-03 -3.45261883E-02  7.82466344E-01 -4.43048675E-01 -3.14142850E-03
 -6.20681381E-02 -1.33487529E+00 -2.29611570E+00 -9.18917356E-01  3.68792230E-01
 -1.32477498E-01  5.86294464E-02  7.75997061E-01 -1.18580844E-02 -6.92413023E-03
 -3.75054288E-02  6.16793647E-01 -2.82406715E-01  8.56693336E-02 -1.09854573E-02
  2.73145859E+00 -8.62588843E-01  2.89943778E-01 -1.23885551E-01 -9.95998433E-02
  2.71336316E-01 -3.64209536E-01  6.15881859E-01 -8.04530198E-03 -3.65302554E-02
  4.68972762E-01 -6.06407923E-04  6.18500811E-02  1.82724155E-02  1.31567598E-01
  2.30527313E+00  2.28978577E-01 -8.43154848E-02 -3.42737908E-02  9.59498870E-02
 -6.76689857E-01  2.04020236E-01  6.83987571E-03  2.46313945E-02 -9.26608028E-02
 -1.45330197E-01  6.09640381E-03  8.59238615E-02  7.04890356E+00  1.96426450E+00
 -1.53196675E-02  2.29340787E-01  3.91332720E-01  7.65533632E-02 -7.35344483E-02
 -2.30446982E-02 -9.21288822E-03 -4.16593526E-02  5.63021096E-01  2.96863486E-02
 -7.87051570E-02  7.82926680E-03 -3.52454519E+00 -2.75532608E-01  7.99330406E-03
 -1.68188641E-02 -2.84441453E-02  6.95147327E-03 -6.55275030E-01 -2.28837369E-01
 -8.65572509E-03 -4.44082937E-02  6.87393275E-01 -2.56623953E-01 -1.10883408E-01
 -2.33903738E-02 -1.01156321E+00 -1.42053379E+00  2.71097724E-01 -1.20263216E-01
  1.78564015E-02 -3.17323807E-01 -2.86711122E-01 -5.43071833E-01 -1.79681469E-02
 -7.48148035E-02  4.60135832E-01 -4.31876580E-01 -1.01585153E-02 -3.57148387E-02
 -7.13736875E-01  1.76068782E-01  2.58743761E-01 -2.79682847E-01  1.88418781E-01
 -2.11053137E-03 -4.14973551E-01  3.08643597E-02  6.80534265E-03  2.93651664E-02
 -2.29043159E-01 -1.13845053E-01 -1.60586889E-03  5.83769202E-02  2.87557978E+00
 -5.79958550E-02 -7.71239409E-02 -9.91268718E-01  3.56558441E-01 -6.15560283E-03
 -2.31939959E-01  5.36311571E-02 -1.72797627E-01 -2.65431222E+00  9.63417499E-02
 -5.09489466E-01  7.87289352E-02 -2.24897698E-01 -2.71864517E+00  9.45375012E-02
  4.64719106E-01  8.63409952E-02  1.94180618E-02  7.60670445E-02 -6.53269811E-01
 -1.81149467E-01  3.62648198E-02  1.56957279E-02  1.18309924E-01 -3.89680980E-01
 -3.36632616E-02  6.83168325E-02 -8.24354492E-02  1.75926155E-02  4.65878267E-01
 -2.47939452E-01  1.95056838E-02  7.65798379E-02 -6.66127815E-01 -1.91149774E-01
 -5.26444664E-02  1.85567576E-02  1.59010471E-01  4.37973191E-01 -4.07660183E-02
  9.32712735E-02 -8.53747677E-02 -8.58848867E-03  4.71804637E-01  2.04059858E-01
 -5.01350935E-02 -2.85874874E-01 -1.85203067E-01  2.63274119E-01  1.06481627E-01
 -3.05769117E-01  1.59047081E+00 -2.87727462E-02  4.13215799E-01  5.05440100E-02
 -2.90571176E-01  1.73613081E+00  2.96445507E-01 -5.98229613E-01  1.59641756E-02
 -8.63784982E-02  1.59321424E-02  1.97902094E-01 -1.03812654E-01  1.67442420E-01
  1.04943999E-02  4.47273728E-02 -6.80720355E-01 -4.32993675E-01  5.13744341E-04
 -1.29255124E-02  3.18750809E+00  1.62092388E-01 -1.07862138E-01 -4.49713581E-01
  1.62797258E-02  2.59541227E-05  9.18238021E-01 -3.63078309E-04  7.31113905E-03
  3.02384581E-02 -5.48071123E-01 -1.15541768E-02 -1.01873728E-01  2.31285462E-03
 -3.24239690E+00 -5.26560734E-01  2.09304928E-02 -3.99689489E-01 -1.46644932E-02
  3.18701271E-02 -9.30028974E-02  6.23883691E-01 -7.48293576E-03 -3.26736660E-02
  4.74780641E-01 -3.07672235E-02 -6.05363879E-02 -7.99673345E-03 -1.49598137E+00
  1.35452600E+00  6.66578553E-02  5.19952168E-01  3.75171601E-02 -3.13191350E-02
  1.46376660E-01  6.54618794E-01 -1.65977388E-02 -7.65450399E-02  1.16535058E+00
 -1.30765378E-01  1.39792343E-04 -2.21710285E-02  4.11107939E+00 -1.40463642E-01
 -2.48574574E-01 -1.52549284E-01 -1.32060939E-01 -2.53335211E-03  4.85501693E-01
  1.89169036E-03 -7.37276748E-03 -3.22011760E-02  4.66828834E-01 -3.22566145E-02
  6.18868710E-02 -7.76716838E-03 -1.23816732E+00 -1.49575835E+00  8.62732627E-02
  5.14979323E-01  2.83851800E-02  1.89015069E-02  1.45837068E-01 -6.50534024E-01
  7.43584404E-03  3.07431537E-02 -5.53789657E-01 -1.37143640E-02  1.03747897E-01
  2.78331646E-03 -2.97158593E+00  6.91500680E-01  6.46556967E-03 -4.00326835E-01
 -2.66388483E-02 -1.99227257E-02 -9.71449082E-02 -6.30317665E-01  2.39589736E-02
  9.72939207E-02 -5.08787787E-01 -2.54539260E-02  3.53349969E-04 -5.64019528E-03
  3.05331399E-01 -1.17798738E-02  5.92734491E-02  8.37318772E-01  3.73915072E-02
  5.94184230E-04  1.53839117E-01 -1.57877661E-03 -3.54495611E-03 -1.72590676E-02
  1.42334443E-01 -1.21985560E-01  9.00817156E-05 -5.39136048E-02  2.34489355E+00
  1.98243911E-03  4.66864041E-01 -2.53925205E-01 -3.28581895E-02  9.59805490E-05
 -4.01675019E-01 -3.83182003E-03  2.77067430E-01 -2.61195795E+00  4.31861195E-01
 -4.95991897E-01  9.35682591E-02  2.80680406E-01 -2.60407234E+00  4.31523949E-01
  4.98072303E-01  9.44278249E-02 -1.61616513E-02 -6.54566167E-02  5.90247607E-01
  9.28609205E-02  4.15502186E-02  1.40194788E-03  5.72150501E-02  1.71193480E-01
 -4.05759716E-03 -3.30323877E-01 -1.34807327E-02  7.27717467E-04 -9.16887601E-02
  1.34620390E-01 -1.61845140E-02 -6.55544194E-02  5.91554055E-01  9.38239434E-02
 -4.03388814E-02  2.09795403E-03  5.43486911E-02 -1.75068173E-01 -5.21390329E-03
 -3.31879846E-01 -1.42551252E-02 -7.73787831E-04 -9.22665710E-02 -1.32166782E-01
 -2.98840442E-01 -1.53620579E+00  4.50761664E-01 -4.05620949E-02  1.58975700E-02
 -5.47560699E-01  3.69105492E+00 -2.17236920E-01  5.63093475E-01 -4.02031806E-02
 -5.47743029E-01  3.67523279E+00 -2.39779382E-01 -5.48789521E-01 -3.36017472E-02
 -2.96939032E-01 -1.55612493E+00  4.24531960E-01  2.94664864E-02  8.89890482E-03
 -1.13446583E-03 -7.76132937E-03  1.94966720E-01 -1.10128197E-01 -2.98165799E-04
  3.85121856E-01 -1.25799634E-01  2.39531218E-03  5.24330670E+00  1.77692480E-01
  5.45131456E-01 -7.75341252E-03  2.59739341E-01  1.98142835E-04 -2.73919770E-03
 -1.33343748E-02  1.99978307E-01 -8.22685588E-02  3.81730284E-02  1.18086240E-01
  2.79475972E-01 -1.78355784E-01 -1.45194341E+00 -3.45779722E-02  4.86471044E-01
 -1.74815707E+00 -4.70028496E-02 -2.93876753E-02 -7.67240520E-04 -3.28210495E-03
  2.27727060E-02 -2.15687697E-02  6.69465260E-03 -1.08119915E-01 -2.07829094E-01
  2.30855745E-01  1.49288024E-01 -5.75865988E-02  5.67872530E-01  4.25271514E-01
 -2.13178646E-01 -1.07092716E-01  3.83250354E-03  1.62653227E-02 -2.35095803E-01
 -2.38713078E-02 -1.46811585E-04 -3.56652831E-01  1.04244769E+00  6.15047085E-03
 -2.23153913E+00  5.94528976E-02 -1.63803269E+00 -4.25013539E-04 -1.62135994E-01
 -2.01758712E-04 -8.88495694E-04 -3.77592442E-03  2.88132173E-02 -2.34193794E-02
 -6.42115891E-03 -1.07934638E-01 -2.33308306E-01 -2.27531815E-01  1.11700069E-01
 -5.46306705E-02  5.98349355E-01 -4.03855311E-01 -2.11532898E-01  9.71780411E-02
 -2.62132800E-03 -1.28824766E-02  1.95558296E-01 -8.13060096E-02 -3.75017956E-02
  1.19246674E-01  2.39843237E-01  1.65650631E-01 -1.40008472E+00 -3.58347333E-02
  5.11596788E-01  1.72316431E+00 -5.49621320E-02  2.37787700E-02 -6.60244247E-03
 -2.73633814E-02  1.66098751E-01 -9.18895533E-02  1.80992919E-03  1.91209109E-01
 -1.75559952E-01 -2.08323875E-03 -1.29001965E+00 -7.75602636E-02 -1.08086787E+00
 -2.49865096E-04 -1.07616990E-01 -3.69073904E-03  5.56657792E-04  1.37385915E-03
  8.47664761E-03  3.13256686E-02  3.43436289E-04 -1.34218662E-01 -4.88059223E-03
  4.12277348E-03  1.58180956E+00 -4.58171047E-02 -1.13058212E+00 -1.22107152E-03
 -3.35584238E-02  3.23893187E-03  1.14306844E-01 -3.42500619E-01  1.84555276E-01
  1.18652837E-02  3.47463534E-01  1.12570273E-01 -3.51826393E-01  1.84916004E-01
 -1.18304761E-02  3.49167270E-01  4.24828080E-03  1.65769405E-02 -1.42581292E-01
 -4.03899837E-02  9.79647236E-03 -5.94403843E-02  2.99419401E-02 -9.68597041E-02
  7.67435546E-02  3.20141885E-02  4.15898057E-01 -1.28942181E-01  1.15885994E-01
 -5.87557805E-02  4.38720244E-03  1.71218557E-02 -1.47063143E-01 -4.01613145E-02
 -9.31463472E-03 -6.10634205E-02  2.83485135E-02  9.97922826E-02  8.04928191E-02
  3.16073788E-02  4.18440569E-01  1.27590155E-01  1.15665692E-01  6.43612896E-02
 -5.60646243E-02  1.64385905E-01 -2.95774442E-02  1.09383514E-01 -6.64553658E-01
 -7.82601339E-02  6.35097491E-02  1.56230383E-01  1.29337556E-01 -1.16876472E-01
 -8.27275828E-02  9.58711537E-02  1.58129213E-01 -1.36885886E-01 -1.33260983E-01
 -5.16431234E-02  1.33994446E-01 -2.48544777E-02 -1.02578358E-01 -6.49410780E-01
 -8.63152697E-05 -4.37368785E-04  7.78374364E-03 -1.08486627E-03 -9.49576160E-03
  3.21086043E-03 -1.58740717E-02 -5.61327055E+00  3.89592401E-02  3.28059124E-03
  4.55374735E-03  1.34821664E+00  3.67007979E-03 -5.19706602E-02  2.59084300E-04
  1.95161891E-04  4.80705666E-02 -1.77117773E-02 -8.09684532E-03  1.14537061E-01
  4.48407081E+00 -2.70858233E+00  3.54601280E+00  1.13458772E-02  1.32415316E+00
  1.54189936E+00 -1.01325959E-01  1.28213226E-01 -2.31561546E-03 -9.54496366E-03
  1.14215185E-01 -4.47005313E-02 -4.25103880E-03  3.50268705E-02  4.77299147E+00
  2.93633702E+00 -1.96901011E+00  5.89619586E-02  1.98857470E+00 -1.19227979E+00
  7.28707603E-02  1.39894104E-01  1.03304298E-04  4.44499183E-04 -5.82002185E-03
 -9.15708782E-04 -2.58650288E-02 -2.47639637E-03  3.18950347E-02  6.01019913E+00
 -1.81930091E-02  1.06687298E-03 -9.30957441E-03  4.67493663E-01 -3.20381428E-03
 -1.45421924E-02  2.28075195E-03  9.38580183E-03 -1.12616825E-01  4.44788913E-02
 -4.69251588E-03 -3.70068663E-02 -4.78248111E+00  2.92714873E+00  1.96470222E+00
 -6.21433966E-02 -1.97359799E+00 -1.20168842E+00 -8.28986389E-02  1.44919756E-01
 -3.71811768E-04 -7.62211040E-04 -3.83149088E-02  1.43973201E-02 -8.91681498E-03
 -1.12458649E-01 -4.46071251E+00 -2.71043112E+00 -3.55818616E+00 -6.80117689E-03
 -1.30841217E+00  1.57012734E+00  1.00748837E-01  1.27011743E-01 -1.88245139E-04
 -7.75687253E-04  4.58218708E-03 -2.63633979E-03 -5.03952335E-02  1.26628604E-03
 -5.03627764E-03  2.94606614E-01 -7.49414821E-03 -4.08677648E-03 -8.25304867E-03
 -6.44353935E-02 -3.09451918E-03  1.08473745E-01  5.55486323E-05  2.34311456E-04
 -1.60823565E-03  1.43805473E-04  1.21689771E-02 -3.80445433E-04  6.11135874E-03
 -8.79964140E-01  9.43672885E-03 -3.85842572E-03 -5.75517691E-03  1.12709985E-01
  1.03577757E-03 -4.36142963E-02 -4.76411633E-02 -3.52071784E-01 -1.49287658E-02
 -9.91497186E-02  4.02803785E-02  4.63420439E-02  3.37364924E-01  1.53594729E-02
 -9.61512163E-02 -3.58436711E-02  2.80910937E-03  1.10217855E-02 -8.94840464E-02
  4.28911930E-03 -1.10471647E-02 -1.20451167E-01 -6.11089876E-02 -2.76576377E-02
  2.93549986E-01 -4.42510211E-02  2.18472734E-01  1.08806739E-01 -2.65685784E-03
 -1.30489753E-01 -2.49053125E-03 -9.76203884E-03  7.83878259E-02 -7.08224021E-03
 -1.15267683E-02  1.19561649E-01  6.28964279E-02 -2.06959037E-02 -2.93191902E-01
  4.67171560E-02 -2.11915892E-01  1.11349717E-01  9.13595034E-03 -1.26304578E-01
  7.95840602E-02 -3.75868886E-01 -3.20197128E-01  1.44069711E-01  8.00281702E-01
 -7.54411731E-02  5.73061029E-01 -4.74895082E-01 -1.42424006E-01 -1.00245170E+00
  7.45712705E-02 -5.75761558E-01  4.77867836E-01 -1.45263993E-01  1.00151665E+00
 -7.97654053E-02  3.86525664E-01  3.20470186E-01  1.43025633E-01 -8.10506647E-01
 -1.16826165E-05 -7.57553957E-05  1.72879934E-03 -2.25138091E-04 -2.68296533E-02
  1.61994882E-03 -7.57809512E-03 -1.90897485E+00  1.72579020E-02 -1.01638025E-04
 -3.58395633E-04 -1.16070379E+00  1.78898075E-03  5.24162928E-02  1.11288195E-03
  7.19348378E-04  1.62960988E-01  7.17179854E-02 -7.21539897E-03 -9.02468724E-02
 -9.05958155E-01  3.88927640E-01 -1.01942914E+00 -7.38723501E-02  4.17108218E-01
 -3.01617255E-01 -5.15717022E-01  4.58609364E-01 -1.60789280E-02 -6.72469549E-02
  9.41956788E-01 -1.21616592E-01  1.13102422E-02 -8.32882606E-02  7.26627914E-01
  1.60368491E+00 -8.65164462E-01  5.72239422E-01 -3.92041358E-01 -1.94363208E-01
  3.11197141E-01  8.11797464E-01 -1.70333701E-05 -7.17800558E-05  8.77464883E-04
 -6.26589461E-04 -8.42913966E-02 -9.78611439E-04  1.83138091E-02  4.09039670E+00
 -5.57941083E-03 -1.12369339E-03 -3.72238790E-03 -1.06431799E+00 -1.25624249E-03
  1.42102251E-01  1.60699802E-02  6.71948430E-02 -9.40639303E-01  1.21238762E-01
  1.19173781E-02  8.22731492E-02 -7.37392738E-01  1.59422702E+00  8.56354214E-01
 -5.69972041E-01  4.00578416E-01 -1.98991905E-01 -3.13861950E-01  8.11594767E-01
 -1.16544919E-03 -9.79587544E-04 -1.58713794E-01 -7.26507358E-02 -7.38737857E-03
  9.13269454E-02  9.04874885E-01  3.85202601E-01  1.01953244E+00  7.28680668E-02
 -4.06730899E-01 -2.90393328E-01  5.15429053E-01  4.54212367E-01  1.23923549E-05
  5.40713788E-05 -2.75021456E-04 -5.13948786E-04 -3.72882246E-01  7.03995707E-04
 -3.21712413E-03 -1.65436343E-01 -4.10124948E-03 -1.09516406E-03 -3.89672930E-03
  2.15953575E-02 -9.73149338E-04  5.80689731E-01  2.38596391E-05  1.00373876E-04
 -6.93195221E-04  8.85452432E-05  1.04222517E-02 -7.38773183E-05  4.72281290E-03
 -1.45168274E+00  3.25975316E-03 -1.54211255E-03 -1.39117800E-03  2.66028229E-01
 -8.06694860E-04 -2.01496518E-02 -1.89017503E-01 -4.20691305E-01 -3.83849246E-02
 -7.27954603E-02  2.03770415E-01  1.88262298E-01  4.09032886E-01  3.98279938E-02
 -7.09275119E-02 -2.02719806E-01  1.96919349E-02  7.80211725E-02 -6.75711304E-01
  1.03829325E-02 -2.71692302E-02  5.03581246E-02 -1.79479902E-01 -4.72571744E-01
 -1.34005050E-01 -1.02855418E-01 -7.66395813E-02 -9.00065750E-02  5.81091217E-03
 -6.80556355E-01 -1.95686230E-02 -7.75217257E-02  6.71038187E-01 -1.14287216E-02
 -2.81387741E-02 -5.02871418E-02  1.82163445E-01 -4.67057506E-01  1.33832813E-01
  1.02391433E-01  7.96005328E-02 -8.89843524E-02 -3.20968707E-03 -6.78918119E-01
  3.23191837E-01 -1.47949838E+00  6.57255339E-01 -4.35371020E-01  6.88767716E-02
 -3.32261239E-01  3.35332519E+00 -2.51344576E-01  5.05916681E-01  6.90118306E-02
  3.31744790E-01 -3.34329186E+00  2.51851184E-01  5.04712395E-01 -6.79331140E-02
 -3.23255941E-01  1.47578522E+00 -6.50970838E-01 -4.33616034E-01 -7.33920424E-02
 -3.86072399E-03 -1.30021488E-02 -7.43930972E-02  1.11448796E-01  1.24916156E-03
  1.72000638E-01  2.45510320E-01 -8.51683538E-01  1.18351874E+00 -9.46828200E-01
 -7.59656774E-01 -6.07877891E-02  4.04759777E-02 -1.35799285E-02  1.45533853E-02
  5.84035319E-02 -6.71081024E-01  9.03524664E-02 -2.51474835E-01  1.89722740E-02
 -6.89311877E-02  1.56820014E+00 -3.16316726E-01  3.68570868E-01  2.86113299E-01
 -1.22984446E-01  3.92174069E-01  7.18506389E-01 -1.18448815E-02 -4.99444852E-02
  7.25279024E-01  2.02617747E-02  1.52503759E-01 -1.45865534E-02 -1.09440265E+00
 -2.18270813E+00  3.18109058E-01 -1.70300057E-01 -1.01621836E-01  5.33522760E-01
 -4.88038106E-01  1.52074902E-01  1.71470530E-02  7.82270912E-02 -9.18238053E-01
 -6.93394393E-01 -3.37238495E-04  7.48208322E-02  2.56165672E-01  8.53007248E-01
 -6.41781253E-01  9.07440104E-01  8.19271423E-01 -6.06547125E-02 -1.16254280E+00
 -8.31241812E-03 -1.23326837E-02 -5.19891472E-02  7.57731917E-01  2.36410703E-02
 -1.53134887E-01 -4.51383359E-03 -2.64894271E+00  3.08181125E+00  4.63255514E-01
 -1.53943943E-01 -9.75009427E-02 -5.72731797E-01 -4.78381193E-01 -1.60442081E-01
  1.48122509E-02  5.94085791E-02 -6.85636319E-01  9.55797615E-02  2.50881074E-01
  2.71549823E-02 -1.62146243E+00 -2.49956430E+00 -2.61404393E-01  3.59057808E-01
  2.07560552E-01  1.05324486E-01  3.81801058E-01 -7.26667369E-01  2.56297717E-02
  1.06213731E-01 -6.25115940E-01 -3.25671555E-02  6.09613779E-03  9.60115333E-02
 -1.55660520E-04  5.63788312E-02 -1.15180634E+00  3.26800968E-01 -6.22517019E-01
  1.68591900E-04  1.35170236E-01 -4.53619322E-03  2.38434352E-03  1.55038269E-02
 -2.32607272E-01 -1.34342068E-01 -2.35474153E-03  9.20479097E-02 -1.91355049E+00
 -4.88039547E-02 -7.42904551E-01 -6.26830011E-01  2.61941718E-01  2.76840533E-02
  1.22575943E+00 -1.92152808E-04 -3.99813965E-01  2.27598065E+00 -8.37348311E-01
  1.47013805E-01 -7.98426896E-02 -3.96440605E-01  2.26135390E+00 -8.14027068E-01
 -1.63889833E-01 -1.10452659E-01 -3.38526808E-03 -1.27733150E-02  9.20460073E-02
  2.98639592E-03  2.40857739E-02 -1.48036660E-03  1.13469160E-01  2.15430127E-02
  3.45432446E-02 -2.14067751E-01  1.74925084E-01  8.01250003E-03 -7.21178912E-02
  1.11875158E-01 -2.68208097E-03 -9.94855410E-03  6.53207264E-02  2.14009941E-03
 -2.59643166E-02 -5.18662231E-03  1.18476955E-01  8.01411277E-03  4.58301145E-02
 -2.08023647E-01  1.80631098E-01 -1.70604998E-02 -6.95011999E-02 -9.82159995E-02
  2.35132591E-01 -3.95786852E-01  2.95510282E-01 -5.82971531E-01  7.32123212E-02
  2.51745378E-01 -1.32014115E+00  3.18417956E-01  8.00984874E-02  2.36419815E-01
  2.47359125E-01 -1.27073380E+00  4.60648661E-01 -1.68400295E-01  2.45624571E-01
  2.39830641E-01 -4.17196647E-01  4.50555892E-01  6.72172130E-01  5.54826333E-02
 -3.45642837E-05 -2.66475196E-05 -7.57114005E-03  4.11355656E-03 -4.58531046E-02
  5.99661766E-03  1.12609928E-02  2.87803560E+01  4.86578154E-02 -2.66847978E-02
 -2.35027916E-02  2.03867608E+00  1.03846741E-03  4.60297154E-01  4.17558042E-03
  1.62336147E-02 -2.37934400E-01  9.22154113E-02  5.78635615E-03  1.32922149E-01
 -2.60710645E+01  1.57166646E+01  8.74605173E-01 -1.41541940E-01 -1.33151859E+00
  2.69494369E-01 -1.16506135E-01  1.07257148E-01 -8.03420865E-03 -3.39161373E-02
  5.50645907E-01  6.74977326E-02  1.76043111E-02  1.63877076E-01 -2.61821407E+01
 -1.51767033E+01  2.38661830E+00  2.69664689E-01  1.82577279E-02  6.65147874E-01
  1.30141386E-01  1.06644453E-01  4.69959873E-04  2.14602986E-03 -2.44941204E-02
 -2.06268004E-02  1.03062343E-02  1.94676618E-03 -1.06906505E-02 -2.87492577E+01
 -2.18725319E-02  2.85262552E-02  2.62657719E-02  1.92578699E+00 -3.64238124E-02
  2.86950388E-01  7.31136212E-03  3.08562828E-02 -5.05307438E-01 -6.54218335E-02
  8.18582838E-03 -1.64759238E-01  2.60562434E+01 -1.50228114E+01 -2.37880067E+00
 -2.78191290E-01 -1.68761367E-02  6.27458855E-01 -1.58826269E-01  9.91933149E-02
 -3.28248840E-03 -1.26194487E-02  1.95206366E-01 -8.61001707E-02  2.04102882E-02
 -1.30879291E-01  2.60238124E+01  1.55911034E+01 -8.85065962E-01  1.60204065E-01
  1.35321856E+00  2.78884234E-01  1.39772688E-01  6.53299123E-02  7.50615847E-04
  3.10786761E-03 -1.82282255E-02 -4.17881901E-04 -1.95550327E-01  3.45727961E-03
  2.64870732E-03 -1.90378655E+00 -3.42966240E-02  8.50605238E-03 -2.16045962E-02
  1.17251518E-03  4.79277382E-03  1.36108516E-01  6.13847441E-05  4.25779965E-04
 -6.75876860E-03 -3.86381558E-03  7.84247400E-02  3.01073866E-03 -6.45613538E-02
  1.69710745E+00 -2.38393953E-02 -1.85132024E-02  8.39367401E-03 -9.27176779E-01
  3.54761923E-02 -2.97097368E-02  3.96339221E-02 -1.53645063E-01  3.53510756E-01
  2.97028044E-01 -5.12507863E-01 -6.40699572E-02  3.01899265E-01 -4.02744121E-01
  2.82374974E-01  5.05503751E-01  1.11776336E-02  4.49423946E-02 -4.27198420E-01
 -1.55911103E-02  3.43834831E-02 -6.44776652E-02  1.00673843E-01 -4.93275984E-01
  1.96400911E-01  1.00607373E-01  1.01123707E-01  1.53982531E-01  4.28396290E-02
 -2.06107717E-01 -1.13933931E-02 -4.57650534E-02  4.33467670E-01  1.64773319E-02
  3.32235798E-02  6.51959045E-02 -9.54511457E-02 -4.95240594E-01 -1.97605839E-01
 -1.11659100E-01 -9.03396076E-02  1.54604625E-01 -4.92874369E-02 -2.13111734E-01
  6.33987007E-02 -2.35996150E-01  2.60930378E+00 -1.49222666E+00 -3.16698370E-01
 -3.89288813E-02  6.63536279E-01  2.40261381E+00  1.45488123E+00  1.75488750E-01
  5.59181608E-02 -7.44063859E-01 -2.37644625E+00  1.44942343E+00 -1.58341844E-01
 -4.87532696E-02  2.04567667E-01 -2.58867454E+00 -1.45387957E+00  3.19805981E-01
  4.04108456E-04  2.75724203E-03 -1.23946598E-01 -3.75903713E-04 -7.18280900E-04
 -3.26398858E-01  8.62658865E-02  4.02621786E-02 -8.42894363E-01 -3.14107909E-01
  2.37581627E+00  1.26053417E-03  8.21418819E-02  6.78321784E-04  5.52467185E-03
  2.18423535E-02 -2.49885083E-01 -1.95283253E-03 -7.43446944E-02 -6.72974262E-02
 -3.41270875E-01  7.78493134E-01 -8.86268485E-01  1.30043655E-01 -9.96031015E-01
 -4.23653375E-01  7.23898360E-02  2.22996072E-01 -5.81610326E-03 -2.46077006E-02
  3.49425847E-01 -9.87737789E-03  8.94777126E-02  3.58808483E-02 -8.63728160E-01
 -1.37830954E+00  4.91108330E-03 -1.59183350E-01 -2.30029043E-01 -1.23377304E+00
 -2.41756298E-01  5.81612197E-02  9.88374176E-03  4.34385970E-02 -5.23961800E-01
 -2.58975879E-01 -5.94282953E-04 -1.11467106E-01 -5.82164075E-01 -4.28725558E-02
  1.09126726E+00  5.84730027E-01 -2.30126489E+00  1.54217940E-03 -6.50824820E-01
  8.52660915E-04 -5.81032643E-03 -2.45945066E-02  3.49388022E-01 -9.94949443E-03
 -9.02963918E-02  3.57746832E-02 -7.85079809E-01  1.33165483E+00  6.31574214E-03
 -1.59156186E-01 -2.32898273E-01  1.23373689E+00 -2.43927609E-01 -5.98672739E-02
  5.46293714E-03  2.15918390E-02 -2.46455636E-01 -2.08585186E-03  7.36046127E-02
 -6.75501195E-02 -2.61740492E-01 -7.31196613E-01 -8.91502034E-01  1.31683700E-01
 -9.97078644E-01  4.25723945E-01  7.10288925E-02 -2.19145928E-01  8.29691561E-03
  3.44230107E-02 -2.05368042E-01 -3.25852186E-02 -8.07396870E-04 -1.59947389E-01
 -4.75612927E-02 -2.38162591E-03  2.32430583E+00  8.40578032E-02  1.29347652E+00
  8.72080117E-04  2.71920718E-02  1.71076203E-03 -2.80006965E-03 -8.95945675E-03
 -1.00390460E-02 -3.96064587E-02  6.43902911E-05 -2.38394380E-02 -1.19727483E+00
  3.54253097E-03  9.59124472E-01 -2.89474914E-01 -1.17460667E+00  4.37388927E-04
  4.20612338E-01 -4.06192278E-04 -1.68426234E-01  1.31813127E+00 -3.12159627E-01
  2.37353138E-01  4.86138364E-01 -1.69561380E-01  1.32094925E+00 -3.13296137E-01
 -2.37704493E-01  4.85695032E-01  6.37403286E-05  4.44567334E-04 -1.20775096E-02
 -5.01690924E-03  4.62956255E-03 -2.21822630E-02  4.11322785E-02 -4.05679248E-03
  1.00757304E-02 -5.62930716E-02 -3.25718144E-01 -9.59433448E-03 -2.45959081E-03
  3.54513798E-02 -1.89512726E-05  1.10616180E-04 -8.94391729E-03 -4.87219880E-03
 -4.52997594E-03 -2.20288465E-02  4.08226708E-02  9.80455757E-04  9.51550158E-03
 -5.66156315E-02 -3.25930402E-01  9.44091857E-03 -2.49243917E-03 -3.76997186E-02
  9.25548403E-02 -1.96593807E-01  3.71291740E-02 -1.93648159E-01 -4.26906284E-01
  1.19737244E-01 -7.98987220E-01  3.10993105E-01  9.60117433E-02 -6.93091183E-01
  1.20817073E-01 -8.01955777E-01  3.05898983E-01 -9.17477982E-02 -6.92193621E-01
  9.21935060E-02 -1.92546704E-01  2.55136821E-02  1.87337894E-01 -4.27686978E-01
 -6.10850836E-05 -2.87356908E-04  4.77554362E-03  2.35982614E-04  3.78224397E-01
 -5.60456207E-04  2.37899968E-03 -7.43955973E+00 -2.64167537E-03  1.38094228E-03
  2.41967106E-03  5.15704502E-01  7.60593471E-04 -1.05216640E+00 -1.28920674E-02
 -5.75879310E-02  1.04704640E+00  8.69427141E-02  5.05814666E-02  1.79828048E-02
  7.16529767E+00 -3.07074192E+00  6.96002425E-02  5.33472705E-01 -4.26028595E-01
  1.08750975E-01 -1.21604996E+00 -9.48983078E-01 -1.47396651E-02 -6.51069950E-02
  1.02185647E+00 -3.37313877E-01  1.14432197E-01  4.11031514E-02  9.05646640E+00
  6.14421706E+00  5.76197026E-01  9.62185489E-02 -1.78327773E-01  8.80150313E-02
 -9.85228928E-01  1.05613392E+00  3.24075125E-05  1.52863525E-04 -2.23277840E-03
 -3.00185917E-04  4.77426880E-01 -1.23307895E-05  1.73507976E-02  9.78641448E+00
  1.16560803E-03  5.71013592E-04 -2.40264333E-03  3.31843799E-01 -2.46374123E-03
  4.09734390E-01  1.47845153E-02  6.53091069E-02 -1.02449351E+00  3.39588230E-01
  1.13917975E-01 -4.11126378E-02 -9.06542519E+00  6.14868106E+00 -5.72582128E-01
 -9.61056685E-02  1.77609458E-01  9.12198154E-02  9.78088010E-01  1.05578342E+00
  1.28648700E-02  5.74352692E-02 -1.04405580E+00 -8.56353008E-02  5.06218364E-02
 -1.80270598E-02 -7.16352284E+00 -3.07182013E+00 -7.19661126E-02 -5.34663109E-01
  4.23308332E-01  1.08983115E-01  1.22333206E+00 -9.52039315E-01 -7.43853398E-05
 -3.04874573E-04  1.82643147E-03 -2.40938702E-05  3.19970740E-01 -5.10160684E-04
 -7.30244509E-04 -8.83989609E-01 -2.67739693E-03  3.13338256E-04  3.38831791E-03
  1.62248292E-02 -2.81792514E-04 -5.24060231E-01  3.59050791E-05  1.48991766E-04
 -1.01008100E-03  3.97241234E-05  2.77179180E-02  4.50414339E-05  5.15039316E-04
 -1.71436178E+00  7.26881830E-04 -1.90240779E-03 -1.52079483E-03 -3.91499468E-01
  6.43531204E-04  1.86685663E-01 -2.20514777E-01 -2.47321391E-01  3.03753918E-02
 -5.16317897E-02 -1.71235824E-01  2.19648846E-01  2.44722015E-01 -3.08960040E-02
 -5.10055858E-02  1.73005280E-01  9.56199541E-04  4.14444242E-03 -6.78106543E-02
 -1.42340226E-01  1.01154296E-01 -1.34150017E-02  1.98701410E-01 -1.12245059E-01
  5.32394648E-02 -9.55939336E-02  1.90676324E-02  4.36155517E-02  1.70641344E-01
  2.14372426E-01 -9.47515156E-04 -4.10761418E-03  6.74493523E-02  1.41833971E-01
  1.01195518E-01  1.21589620E-02 -1.97550673E-01 -1.11860911E-01 -4.67394158E-02
  9.52212574E-02 -1.89607431E-02  4.03038656E-02 -1.69660015E-01  2.14827683E-01
  1.43023699E-01  1.28016852E+00 -1.35054092E+00  8.45210305E-01 -6.93747335E-02
  3.10070291E-02  1.31368469E+00 -4.32693137E-01  1.82266138E-02  5.55252455E-02
 -3.03039601E-02 -1.31881344E+00  4.37813709E-01  1.66065174E-02 -5.78452974E-02
 -1.42270497E-01 -1.27607891E+00  1.35537933E+00  8.47099680E-01  6.96498034E-02
 -3.97637078E-02 -1.77317458E-01  2.75598186E+00 -1.42507465E-01 -1.00789407E-03
 -3.34978329E-02  3.63051750E+00  8.12658514E-02 -2.86141088E-01 -4.42942956E-02
 -5.08390952E-02  3.27726015E-03  4.96592102E-01  1.89895759E-03 -4.04773230E-03
 -2.12591373E-02  4.32993858E-01  2.81803246E-01 -7.77562142E-02 -1.08422607E-02
 -8.12216788E-01  1.26320334E+00 -1.47370111E-02  2.01597471E-01 -7.79277945E-02
  1.54854188E-01  1.95754834E+00  1.80167496E-01  1.17256809E-02  5.87191711E-02
 -1.03679686E+00  2.46584480E-01 -3.92721570E-02  1.12879809E-02  5.81375449E-01
 -1.25089116E+00 -1.13507945E-01 -9.20154448E-02 -1.48778105E-01 -2.12035106E-01
 -1.11854587E+00  3.48967877E-01  2.06161484E-02  1.03359911E-01 -1.84633764E+00
 -8.54077130E-02 -3.24817175E-04  3.07055695E-02  1.25094827E+00 -9.05646227E-02
  6.45169384E-01 -4.79829233E-01 -3.23186838E-02 -6.33374833E-04 -3.44718886E-01
 -1.84783029E-03  1.17154673E-02  5.86709571E-02 -1.03541484E+00  2.46792840E-01
  3.93638483E-02  1.09503361E-02  7.29942693E-01  1.16194886E+00 -1.16510098E-01
 -8.92945462E-02 -1.44249367E-01  2.11785643E-01 -1.12434735E+00 -3.49372613E-01
 -4.11735550E-03 -2.15451313E-02  4.36862219E-01  2.83317055E-01  7.75692044E-02
 -1.10962360E-02 -6.71274755E-01 -1.18037766E+00 -1.58906298E-02  2.00831443E-01
 -7.30128318E-02 -1.54379183E-01  1.95667017E+00 -1.78071488E-01 -1.00923972E-02
 -4.15163593E-02  2.84068546E-01  2.05507715E-01 -3.34368808E-04 -1.09767578E-02
 -1.90680243E+00 -7.10891743E-03 -1.07538680E-01  6.51826476E-01  8.99582417E-02
  6.67296194E-04 -2.02991500E-01  6.80848192E-05  8.77443843E-03  3.11358544E-02
 -8.80817352E-02 -2.23348715E-02 -6.78722394E-04 -1.88294327E-03 -5.04086174E-01
  1.28189383E-02 -2.17845787E-01  5.64408978E-01 -2.18229136E-02 -1.12207826E-03
  1.21283440E+00 -5.15621192E-03  5.61529363E-01  1.05232130E-01 -3.76450892E-02
 -5.15247791E-01  2.08901880E-02  5.60738637E-01  1.07331288E-01 -3.68475703E-02
  5.16317720E-01  2.14973581E-02  1.09418072E-03  5.94472932E-03 -1.07826202E-01
 -1.06448856E-01  8.15930297E-02 -1.09389367E-02  6.86938882E-01 -3.24689453E-01
  7.92869987E-02 -4.02358009E-01 -4.43184040E-03  5.20358608E-02  3.18676015E-01
  8.49251101E-02  1.03774921E-03  5.71591983E-03 -1.05521547E-01 -1.06416623E-01
 -8.13056376E-02 -1.07702154E-02  6.86106456E-01  3.21830805E-01  7.85532827E-02
 -4.03022376E-01 -4.22239645E-03 -5.11280675E-02  3.18986161E-01 -8.56235406E-02
  1.85359591E-01  1.06559119E+00  1.32428779E+00 -7.22665817E-01  5.05675405E-02
 -1.01141647E-01 -1.11611832E+00  6.34251802E-01  2.73590239E-01 -7.62606594E-02
 -1.00726626E-01 -1.11534609E+00  6.23864409E-01 -2.67533032E-01 -7.71989057E-02
  1.84605441E-01  1.07376178E+00  1.31044801E+00  7.12532730E-01  5.12918939E-02
 -4.99447955E-05 -1.95286962E-04  2.23724229E-03 -5.58505040E-04  3.45244961E-01
 -3.91045511E-04 -3.01262721E-03 -2.08438072E+01 -7.82417257E-03 -1.80524477E-03
 -2.97658221E-04  3.23753563E-01 -2.46820698E-03  1.93415259E-01 -1.08794057E-02
 -4.46729423E-02  4.51582170E-01  5.09803514E-01  8.61747031E-02  7.78979821E-03
  1.52832733E+01 -9.75621480E+00  8.36615929E-02 -8.15890019E-01 -2.42613461E-01
  1.17535198E-01  5.98708409E-01 -3.29886523E-01  7.13402901E-03  2.86369528E-02
 -1.83693214E-01  4.16445476E-01 -4.82961053E-02  1.63067119E-02  1.57979436E+01
  9.89808624E+00  1.69234806E-01  8.68345482E-01 -1.39020053E-01 -3.52755492E-02
 -1.08276757E+00  1.14718483E-01  4.94403731E-05  2.33720732E-04 -3.82168747E-03
  3.28132880E-04 -2.52474244E-02  2.88854939E-04 -1.74940129E-02  2.13758934E+01
  4.63472195E-03  9.35834969E-04 -1.72435005E-04  8.30136469E-03  3.05514695E-03
  6.88468664E-01 -7.17171090E-03 -2.87639948E-02  1.83971578E-01 -4.17925523E-01
 -4.85597818E-02 -1.60077049E-02 -1.57791351E+01  9.92258988E+00 -1.65725752E-01
 -8.73010060E-01  1.35797810E-01 -3.18178521E-02  1.08811528E+00  1.09306747E-01
  1.09233465E-02  4.48719470E-02 -4.53388502E-01 -5.10237686E-01  8.65502127E-02
 -7.73771753E-03 -1.52905800E+01 -9.76074147E+00 -8.44516078E-02  8.20483661E-01
  2.42414814E-01  1.15221555E-01 -6.00889058E-01 -3.29178422E-01  4.36420018E-05
  1.80422852E-04 -1.16240889E-03  4.24936062E-04 -3.20392380E-01 -5.19181601E-04
 -6.05405425E-03  3.27096668E+00 -2.91652469E-03  4.50374727E-04  3.39782943E-03
  1.95425884E-02 -1.22673360E-03  8.99138011E-01 -3.62999802E-05 -1.57146700E-04
  1.24213842E-03  7.27750954E-06  3.41566804E-01 -1.56712922E-04 -8.81315456E-03
 -5.10526829E+00 -1.75722135E-03  3.09255791E-03 -4.95055369E-04 -3.33678292E-01
  3.37462533E-03  1.21459683E+00 -3.01771023E-01 -6.61567848E-01  2.93083735E-01
 -6.71517884E-02 -7.39429418E-02  3.05220219E-01  6.74841413E-01 -2.93749674E-01
 -6.78651591E-02  7.32270091E-02 -6.71195803E-03 -2.78452989E-02  3.36532609E-01
  1.28713095E-01 -1.73588061E-01 -9.44786389E-03 -2.11052542E-01  4.59309160E-01
  4.23597574E-02 -4.05560098E-02  1.56060924E-02  2.91781529E-02 -2.04292611E-01
 -1.20263020E-01  6.77333629E-03  2.81017212E-02 -3.39309310E-01 -1.29296851E-01
 -1.73899130E-01  8.64527054E-03  2.13520403E-01  4.61085256E-01 -3.70716900E-02
  3.90952715E-02 -1.54922093E-02  2.61183806E-02  2.05953709E-01 -1.20700863E-01
 -1.74128272E-01  8.01612990E-02 -7.46397705E-01  7.53492118E-01 -1.66664216E-02
  2.36059010E-01  2.08905218E-02 -3.41192595E-01 -5.62172941E-01  1.86699550E-02
 -2.36947574E-01 -2.74429678E-02  3.40692088E-01 -5.63573484E-01 -1.96139681E-02
  1.77113995E-01 -8.23382281E-02  7.44533931E-01  7.55339288E-01  1.75153072E-02
 -8.33341364E-03 -3.39613254E-02  5.41470853E-01 -8.09843946E-01  3.71941835E-04
  2.56562404E-02  5.05182108E+00 -6.99702514E-04  1.17735583E-01  1.91202331E-01
 -9.76783761E-03 -9.85787294E-04  7.88327720E-01  1.89186151E-03  9.00867814E-04
  5.68597985E-03 -1.97802393E-01 -1.34825327E-03  1.13472299E-01  5.83428620E-03
 -2.72390571E+00 -1.00470456E+00  8.19447536E-02 -5.95737117E-01  6.44576548E-02
 -7.58871322E-02  4.34574661E-01 -8.51743461E-01  7.75549374E-05  1.58041324E-03
  5.32804342E-02  2.96165012E-02  1.45134623E-01 -6.33965460E-03 -4.31831848E-02
 -6.10824152E-01  3.23483869E-02  1.18330351E-01  9.99046913E-02  1.66795020E-01
  1.19017499E-02  6.86345811E-01 -1.37255194E-02 -6.36062252E-02  1.05441158E+00
  4.71912542E-01 -3.58256564E-05 -4.22643059E-02 -3.89879124E+00 -1.81921532E-03
 -4.15986326E-01  2.56746103E-01  8.50070329E-02  9.94354504E-05 -6.52531463E-01
 -6.64984851E-04  6.40677684E-05  1.53387188E-03  5.38162765E-02  2.95080532E-02
 -1.44783819E-01 -6.46105107E-03 -4.11760498E-02  6.12653725E-01  3.62248616E-02
  1.18879570E-01  9.72995827E-02 -1.67779911E-01  1.17057786E-02 -6.85736700E-01
  9.24756559E-04  5.80097082E-03 -1.99854686E-01 -1.03441855E-03 -1.12514196E-01
  5.81572004E-03 -2.72570527E+00  1.00646730E+00  7.93856244E-02 -5.96224181E-01
  6.21792278E-02  7.58275819E-02  4.35333898E-01  8.49617767E-01 -3.86374281E-03
 -1.64404600E-02  1.44243286E-01  2.57376764E-01 -7.43826847E-05  1.06799620E-02
 -2.47851850E+00  1.13350766E-03  9.96198761E-02  8.59814595E-01 -9.17693902E-02
  6.60510307E-04 -3.34672785E-01  1.21851254E-04 -1.79003072E-02 -7.22143566E-02
  4.02565364E-01 -1.04125981E-01 -1.13068800E-04  4.36134270E-03 -2.75939515E-01
 -2.92028652E-04 -4.76455219E-03  1.71512902E-01 -3.76071814E-02  3.90657666E-04
 -1.37756186E+00 -1.27792057E-03 -4.48784612E-01  1.09846986E+00  1.08146263E-01
  7.98866928E-01 -6.63107449E-02 -4.48039943E-01  1.10304131E+00  1.08148822E-01
 -7.99242991E-01 -6.70948662E-02  6.58349103E-05  1.99833846E-03 -8.10588634E-02
 -6.42637047E-02  4.11549125E-02  1.20935737E-02  6.32216001E-01 -1.48612448E-01
 -8.17348415E-02 -3.85944039E-01  1.50864835E-03 -4.99504818E-02  3.33869469E-01
  2.52405802E-01  8.64499845E-05  2.08330988E-03 -8.19772830E-02 -6.46933349E-02
 -4.15455153E-02  1.23475379E-02  6.33152220E-01  1.50682643E-01 -8.25861916E-02
 -3.85979846E-01  1.21204204E-03  4.95843902E-02  3.35255780E-01 -2.52202831E-01
  1.17614077E-01 -1.14332958E+00  4.23319564E-03 -6.04282444E-02 -2.79991532E-02
  4.58883336E-01 -8.58835527E-01  6.32761235E-01 -1.06551156E-01  9.00419272E-02
  4.58502444E-01 -8.59225099E-01  6.32517309E-01  1.06240104E-01  9.08007077E-02
  1.17138153E-01 -1.14462910E+00  5.97893841E-03  6.10424393E-02 -2.70372616E-02
 -2.19816342E-03 -9.56022539E-03  1.39040816E-01  5.31775117E-02 -7.75700793E-03
  9.42611932E-02 -3.56912638E-01 -5.40732927E-02 -1.42267203E+00 -8.84999042E-02
  4.45080463E-01 -8.50929483E-03 -3.19572770E-01 -3.55609702E-02  4.06646348E-05
 -4.46667076E-04  3.82280215E-02  9.05538510E-02 -2.71793736E-02 -6.82419388E-02
  1.96721782E-01  2.73943666E-01  6.65141661E-02  9.39078941E-02 -7.54859991E-01
  7.97498720E-02  2.12852564E-02  7.23849309E-02 -1.30161472E-03 -5.29972444E-03
  4.90245990E-02  7.79285398E-02  1.66563657E-02  8.32981988E-02  1.30595669E-01
 -2.32717669E-02  5.60371114E-01 -7.54768590E-02 -4.42648560E-01  1.35181436E-01
 -1.65139384E-01  5.03302567E-02  1.56281047E-03  6.22639939E-03 -7.25495542E-02
  1.03283817E-01 -5.72922826E-03  1.62019582E-02  4.58461892E-01  9.26860066E-02
 -2.72976819E-02  7.02907436E-02  3.50314771E-01  4.66613730E-03  3.94497245E-01
  2.87970726E-02 -1.32389626E-03 -5.54665948E-03  5.51612577E-02  8.03931532E-02
 -3.11328496E-02  8.38356932E-02  3.61661631E-04  6.99346421E-02  5.65987745E-01
 -8.32863413E-02 -4.56665041E-01 -1.28210697E-01 -1.44579597E-01 -8.03687779E-02
 -1.59591707E-04 -1.43740482E-03  5.81000848E-02  8.26218893E-02  7.38126307E-03
 -6.84215396E-02  1.48240349E-01 -3.31773487E-01  6.55825701E-02  9.96027120E-02
 -7.69766546E-01 -8.82011586E-02  3.15040182E-02 -4.44938818E-02  2.34187276E-03
  9.98497960E-03 -7.43047527E-02  6.27706641E-02 -9.59774997E-04  1.99579533E-01
 -1.19580767E-01 -4.79218787E-03  4.32567620E+00 -3.15979254E-02 -1.53074922E+00
 -1.87421437E-03 -3.69671736E-02  1.11158672E-03  3.10537534E-03  1.31272249E-02
 -8.59922577E-02  4.92417604E-02  2.39167279E-03 -1.59820227E-02  2.94307556E-01
 -3.22327189E-02 -1.07367744E-01 -1.08724681E-01  5.61527076E-02  7.70558555E-04
 -1.52612614E-01  2.54225063E-02 -2.25236385E-02 -3.48648316E-01  7.23040541E-02
 -2.60132536E-02  3.73646390E-03 -2.42736325E-02 -3.76092624E-01  6.24573973E-02
  2.83000679E-02  4.87760964E-03  1.21789153E-03  5.30162499E-03 -6.06978556E-02
 -7.04824472E-03 -1.35008580E-02  3.60425386E-01  1.67114960E-02  3.00824048E-02
 -2.36496537E+00 -1.57069275E-02 -3.64590225E-01 -1.27335611E+00 -2.50930329E-02
  4.28595078E-02  1.09834420E-03  4.82745855E-03 -5.65415896E-02 -1.79047766E-03
  1.60170357E-02  3.59871478E-01  3.10159953E-04 -4.87845709E-02 -2.36232364E+00
 -2.15403184E-02 -3.64918660E-01  1.27135052E+00 -3.92852868E-02 -3.70161861E-02
  6.14398494E-02  1.32286591E-02  1.82274028E-02 -7.57423082E-02 -2.11841215E-01
 -1.33999120E-01  2.84434187E-01  9.96466576E-03  1.66771163E-01  1.94780052E-01
 -1.15466923E-01  2.70878528E-01  2.62694883E-02 -1.59400727E-01  1.94709695E-01
  8.19227847E-02  4.28180336E-03  8.16840465E-03  8.56346815E-02 -2.11625344E-01
  8.07516345E-03  2.92121014E-02 -2.18631280E-01  2.57476166E-02 -1.71797475E-02
  5.56176200E-03  3.83828305E+00 -2.14912064E-02 -2.20610792E-01  9.40201578E-01
  4.97982975E-02 -1.02200695E-02  1.79841163E+00 -6.64694755E-02 -1.12163748E-02
 -4.62055477E-02  4.09808261E-01  9.05632189E-02  4.76021394E-02 -9.55483989E-03
 -1.40754569E+00 -2.06067345E+00  8.47459451E-04 -1.05235390E+00 -9.69117302E-02
  3.84751065E-02  1.30488745E+00 -2.78409229E-02  1.58935239E-02  6.76056661E-02
 -7.66474187E-01  1.36515492E-01 -1.71497511E-01  1.28705415E-02 -2.19290302E+00
  2.21549445E+00  2.45855209E-02  1.09810362E+00 -7.13612172E-02 -5.06776228E-02
 -1.00267547E+00 -7.01097747E-01 -5.55241584E-03 -1.78715154E-02  4.66613743E-02
 -5.06366769E-01 -1.45788062E-02  3.25926241E-02  5.55257332E+00  9.53906709E-02
  1.86772486E-01 -9.08279702E-01  1.24952499E-02 -8.81696326E-04 -2.09775468E+00
  5.88192744E-02  1.57123121E-02  6.65131535E-02 -7.44533109E-01  1.39122708E-01
  1.41519351E-01  1.37545766E-02 -2.30144535E+00 -2.20624079E+00  3.82510198E-02
  1.08277433E+00 -8.13002537E-02  5.19301537E-02 -9.71777331E-01  6.29784196E-01
 -1.16575056E-02 -4.83993495E-02  4.54797377E-01  7.62309004E-02 -8.64616660E-02
 -9.54111221E-03 -1.36118895E+00  2.01653847E+00  2.68621089E-03 -1.03842285E+00
 -1.12788465E-01 -4.50040597E-02  1.31491839E+00  8.47033987E-02 -2.07696837E-02
 -8.63401829E-02  5.89613364E-01 -1.66231689E-01 -3.55833695E-03  2.45523533E-02
  1.20942847E+00 -1.15685964E-02  5.39564662E-01  1.35276765E-01 -1.85850004E-01
 -1.48361045E-03  4.17529310E-01  5.78813144E-03  9.71989885E-03  3.79750149E-02
 -2.38569082E-01 -9.13085155E-02  3.95107269E-03  2.36961253E-02  2.67587104E-01
 -6.63166051E-02 -6.77441894E-02 -2.14891377E-01  6.51325321E-02  8.59003755E-04
  5.90897713E-01  3.82357863E-02 -4.21375500E-02 -2.37683980E-01 -2.01859466E-01
 -3.07148259E-01  3.28159592E-02 -4.04022735E-02 -2.64720846E-01 -2.17428128E-01
  3.07710459E-01  3.31667764E-02 -1.39435276E-02 -5.80933964E-02  6.18206043E-01
  9.56658802E-02  6.10724705E-02  4.51767422E-02 -1.12052251E-01 -3.43632569E-02
 -2.95321963E-01  1.37135682E-01 -4.80129721E-02 -1.57648100E-01  7.74967951E-03
 -1.58040767E-01 -1.41361992E-02 -5.88500875E-02  6.24409265E-01  1.05838401E-01
 -5.66682002E-02  4.45385499E-02 -1.46222624E-01  4.76693138E-04 -2.91243290E-01
  1.28470445E-01 -4.69253964E-02  1.55711120E-01 -1.90548112E-02  1.70730609E-01
 -6.24947311E-01  7.14223247E-01  9.08230382E-01  3.17863600E-01 -1.16630194E-02
  4.60689339E-01 -4.46797014E-01  4.66563933E-01 -4.67251971E-01 -1.77419976E-02
  4.98522591E-01 -4.70154605E-01  4.94346598E-01  4.84345518E-01 -1.72863092E-02
 -5.81587360E-01  6.96013695E-01  8.71031563E-01 -3.06147078E-01 -1.27905806E-02
  2.70898600E-04  9.82924677E-04 -7.57223326E-03  2.06657741E-03  5.06940719E-01
  1.72065040E-03  1.22714923E-01 -6.74238708E-01 -4.08774962E-02  3.18096647E-02
  6.73901955E-03  2.59892662E-01  5.82217301E-02  1.88510819E+00 -7.00573492E-03
 -3.40396899E-02  6.56016443E-01 -1.70420353E-01  5.54697304E-01 -2.09810052E-03
  1.49543889E+00 -9.65466427E-02  2.75944526E-03  9.94039179E-02 -2.42933392E-01
  1.15674562E-01  2.50395589E-01 -8.45821725E-01 -8.16694723E-04 -7.98882785E-03
  2.14063849E-01  6.89902318E-02  4.05692126E-01  1.37495169E-02 -6.70054614E-01
  5.13418550E-01  1.40125726E-01 -1.39622642E-01 -2.01477520E-01 -7.11590367E-02
  3.55655922E-01  9.55252676E-01 -1.74746848E-04 -5.46951530E-04  7.97689070E-04
 -1.74426816E-02  3.95470379E-01  1.44482078E-03  1.95743544E-01 -1.54422701E+00
  1.23250845E-02 -3.00695110E-02  1.11755434E-03 -6.61068764E-02 -6.86515431E-02
 -1.54517030E+00  1.86078249E-03  1.24171592E-02 -2.63926030E-01 -5.82194986E-02
  4.16278014E-01 -1.01782560E-02  5.13518506E-01  3.61343572E-01 -1.28156499E-01
  2.13230981E-01  1.82837452E-01 -6.41754146E-02 -4.22314735E-01  1.00200342E+00
  6.24061588E-03  3.08759409E-02 -6.27240833E-01  1.77365929E-01  5.50514318E-01
 -3.14818459E-04 -1.58445772E+00  3.87929326E-02  1.02601473E-02 -1.69568616E-01
  2.09468340E-01  1.02619031E-01 -1.62854908E-01 -8.45538326E-01 -6.85388911E-04
 -2.84575403E-03  1.93580631E-02 -5.62361796E-03  7.19500582E-02  4.43976876E-03
  4.25947079E-02  6.16572496E-01  9.84804382E-02  3.23901988E-03 -3.49166783E-02
  2.90043348E-02  1.47111017E-02 -8.91983397E-02  3.75475003E-04  1.48220804E-03
 -9.40290710E-03 -2.64364472E-03 -9.61923300E-02  6.47814440E-04  1.07947443E-02
  1.54677964E+00 -3.04025329E-03 -8.95128055E-03  1.45177926E-03 -2.56969099E-02
  2.01869213E-02 -1.03943625E+00 -5.69516699E-05 -4.56162314E-01 -2.21415159E-01
 -3.26336541E-02  1.20036695E-02 -2.75244590E-03  4.33985100E-01  2.06938871E-01
 -1.00905563E-02 -8.63867533E-03 -4.01867915E-03 -1.60786405E-02  1.48070405E-01
  1.55534083E-01 -7.02394178E-02  1.48378782E-03 -5.01540626E-01  5.13356578E-01
 -1.62888876E-02 -1.10408938E-01  5.04458217E-03 -4.94393807E-03 -3.87367360E-01
 -1.82782432E-01  3.08650762E-03  1.21955772E-02 -1.06735482E-01 -1.48570323E-01
 -7.41954444E-02  1.50654664E-02  4.91447876E-01  5.14701154E-01 -9.23683814E-02
  1.20066568E-01 -2.17245532E-02  5.35783181E-02  3.86413546E-01 -1.70641339E-01
  5.81177750E-01 -2.75429474E-01 -5.51108046E-01 -1.18339158E-01 -1.32230781E-02
  5.60981326E-01 -4.05566148E-01  3.60057664E-01 -3.14001903E-01  8.50922961E-03
 -5.31008987E-01  3.83073018E-01 -3.29481412E-01 -2.83694653E-01 -6.11084421E-03
 -6.21518005E-01  3.21687681E-01  6.11879730E-01 -1.38692220E-01  7.31717356E-03
 -1.63183536E-03 -1.05703320E-02  2.93483495E-01  1.69671635E-01  1.12312237E-03
 -7.90650637E-04  1.04548150E+00  3.29250274E-04  1.97506920E+00  2.65535801E-01
  1.47356729E+00 -2.79313129E-03 -4.68046562E-01  6.52193596E-03 -9.52853008E-03
 -4.31122689E-02  6.06935011E-01  5.45744887E-01 -1.29933867E-02 -7.54749623E-02
 -4.05704070E-01 -3.32417407E-01 -1.83620522E+00 -3.93064516E-01 -4.96812601E-01
 -1.18832894E+00  8.19549406E-01  2.07769913E-02  2.17198909E-03  8.58279888E-03
 -4.94876190E-02  5.22510737E-01  4.84521885E-02  7.44983225E-02 -1.64888887E+00
  2.04113693E+00  1.84716060E+00  4.66224683E-01 -4.00498848E-01  1.13824690E+00
 -1.63403489E+00 -1.47059575E-01 -1.12786974E-03 -6.50405387E-03  1.07844631E-01
  3.37457042E-01  4.18923536E-04 -3.99371322E-02  6.99255113E+00 -9.30440877E-03
 -2.13429933E+00 -2.46281641E-01  1.26593303E+00  5.30416721E-04  5.95077020E-01
 -4.17702906E-03  2.14375925E-03  8.48566395E-03 -4.89450575E-02  5.20312182E-01
 -4.68049275E-02  7.44919034E-02 -1.63182095E+00 -2.04789872E+00  1.84892403E+00
  4.65055387E-01 -4.03651107E-01 -1.13666834E+00 -1.63361158E+00  1.50830749E-01
 -9.48503262E-03 -4.29063599E-02  6.03728005E-01  5.45012864E-01  1.58434272E-02
 -7.55793346E-02 -4.01401890E-01  3.41154510E-01 -1.83543265E+00 -3.89892898E-01
 -5.00804014E-01  1.18620409E+00  8.14711214E-01 -2.45787384E-02  9.20926392E-04
  5.38778470E-03 -7.10384624E-02  2.72620032E-01 -5.11100036E-04 -5.75171164E-02
 -5.54431286E-02  6.62383235E-03 -5.21581007E-03 -6.10477529E-02  6.77542391E-01
  2.11912610E-04 -5.09570306E-03  2.00820419E-03  2.30275611E-02  9.63808508E-02
 -6.58734726E-01  2.42849471E-01  5.92934204E-05 -7.60254971E-03  2.22902201E+00
  9.84901344E-04 -5.79202297E-02 -9.26332208E-01  3.46238785E-01  6.94756207E-04
 -1.01589461E+00 -3.78460997E-04 -3.73123476E-01 -2.49614739E+00  3.50626139E-01
 -1.98754018E-01  1.90807843E-02 -3.73315798E-01 -2.49449478E+00  3.50253346E-01
  1.99283653E-01  1.99378951E-02 -2.26578600E-03 -7.87565726E-03  5.15528862E-02
  4.72207648E-02 -5.94377479E-02 -8.34097593E-02 -4.53385621E-02  2.66053875E-01
  4.57864356E-01 -2.49782051E-02 -1.29542459E-02  2.15073414E-01 -1.86308752E-01
  1.64489571E-01 -2.21868954E-03 -7.68343602E-03  4.94341043E-02  4.61061856E-02
  5.87148370E-02 -8.34656634E-02 -4.30687084E-02 -2.62867200E-01  4.58290964E-01
 -2.43821469E-02 -1.25914859E-02 -2.15458269E-01 -1.83773287E-01 -1.65900662E-01
 -4.57680641E-02  1.87028354E-01  4.86682327E-01 -8.65472337E-02 -4.37391472E-01
 -3.05397010E-01  1.61506768E+00  4.72850268E-01  5.79128424E-01  4.07788035E-01
 -3.08069347E-01  1.61886459E+00  4.68147374E-01 -5.79659781E-01  4.07350158E-01
 -4.78881576E-02  1.85282412E-01  4.84976594E-01  8.50993153E-02 -4.37750285E-01
  1.27741097E-03  3.44082434E-03  2.51270476E-02  7.34851402E-02  4.14377562E-03
 -9.35450784E-03  5.72247442E-01  2.81230196E-01 -2.46315765E+00  1.21400150E-01
 -2.34372112E+00 -7.14167957E-02 -2.07061725E-01  2.48648200E-04 -6.20125973E-03
 -2.88419447E-02  4.38565210E-01  3.37802103E-01 -5.25336517E-03  1.69551671E-01
 -5.90275817E-01 -2.12905164E-02  2.96631696E+00 -2.19994371E-01  1.15912991E+00
  1.67462823E+00  3.91734536E-01 -6.44756442E-02  8.78763499E-05 -2.94393757E-04
  6.62682305E-02  2.76107246E-01  4.51374513E-02 -1.78272639E-01 -1.50445541E+00
  1.02505543E+00 -3.04803670E+00  2.73999661E-01  1.14075449E+00 -1.79766223E+00
 -1.21498445E+00 -1.08069381E-01  2.94118491E-03  1.14878807E-02 -1.75199287E-01
  1.91227454E-01  7.45415122E-03 -1.31394127E-02  4.25270772E+00 -3.04076968E-01
  2.48516244E+00 -5.61919276E-02 -2.68854147E+00  6.94111767E-02  2.18413160E-02
 -3.97800939E-03  3.38788731E-04  7.79682023E-04  4.70293708E-02  2.71848618E-01
 -3.78622281E-02 -1.76618418E-01 -9.58601724E-01 -1.33568181E+00 -3.04783245E+00
  2.68053999E-01  1.02264394E+00  1.87050730E+00 -1.19786618E+00  1.13729695E-01
 -6.25590592E-03 -2.89942712E-02  4.40728006E-01  3.32700593E-01  6.91319194E-03
  1.68716319E-01 -6.38317428E-02  3.27717377E-01  2.97244485E+00 -2.15730145E-01
  1.03891329E+00 -1.74947324E+00  3.90187001E-01  3.48277363E-02  4.62636413E-03
  2.04202703E-02 -1.59987123E-01  1.58458615E-01 -2.51772520E-03  4.08137847E-02
 -1.01145451E-01 -4.40779736E-03 -1.02254157E+00 -9.11343715E-02 -6.93014246E-01
 -1.19460544E-02 -5.00102051E-02  3.70598009E-03  1.27518999E-02  5.39375157E-02
 -3.86106157E-01  1.67602843E-01  3.49887225E-03  5.58141850E-02  1.03602635E+00
  8.56687089E-02  1.02442735E+00 -6.19618914E-01 -7.01336151E-01  6.18717418E-04
 -6.21183448E-01  4.50646285E-02 -2.49463374E-01 -1.13054030E+00  2.16322874E-01
  5.62176896E-03  3.89449604E-01 -2.77927174E-01 -1.28226994E+00  1.99222062E-01
  2.74689666E-02  4.04720309E-01  2.67902622E-04  2.10122999E-03 -4.28506918E-02
  2.15760273E-02 -4.90522528E-02  4.33560134E-02 -2.68305819E-02  1.83640946E-01
 -1.54214350E-01 -1.70488463E-02  1.12507743E-01 -4.65812960E-02 -1.19269443E-01
  1.33251688E-01  2.72037158E-04  2.13268204E-03 -4.38536834E-02  2.34851222E-02
  5.01456898E-02  3.91417875E-02 -3.84154517E-02 -1.94717758E-01 -1.28018668E-01
 -2.12887754E-02  1.21714431E-01  3.19617049E-02 -1.27150578E-01 -1.31280731E-01
 -1.28920836E-02  1.06333570E-01  2.32973383E-01 -2.95285921E-02  6.99698021E-01
 -1.55335419E-01  8.05442955E-01  4.63972257E-01  4.18302023E-01 -7.92651487E-01
 -1.65052487E-01  8.32556126E-01  3.93956968E-01 -3.91730026E-01 -7.96260873E-01
 -2.03526858E-02  1.11936670E-01  1.97026088E-01 -8.24182675E-04  7.01055632E-01
  7.10449098E-05  2.54714290E-04 -2.08259057E-03  2.20289525E-03 -1.62366785E-01
 -2.88887834E-04  1.01480960E-02 -9.54100024E+00 -7.71702989E-02  3.98337616E-03
 -6.47550091E-02  2.44155548E+00 -8.64959190E-03  1.58440152E-02 -1.97755446E-03
 -7.00362050E-03  1.00101773E-01 -5.75884260E-02 -3.26792106E-02 -7.45685679E-03
  8.99201886E+00 -5.40071254E+00  2.07688791E-01  1.19325923E-01 -1.99455661E+00
  1.33660026E+00  8.74007181E-02  4.89275783E-01  6.00598359E-03  2.60349636E-02
 -4.53882702E-01 -4.76763138E-02 -1.55515557E-01  2.06271994E-02  9.38588353E+00
  5.40783811E+00 -1.37181823E-01 -1.22878497E-01 -1.99840758E+00 -1.31961364E+00
  1.67840996E-01 -1.59829098E-01  8.08402689E-05  2.93536716E-04 -3.96810792E-03
  6.70548668E-03 -2.64409084E-01 -4.51360811E-04  1.29936683E-01  1.03378043E+01
  7.09749519E-02 -8.29854671E-04 -7.73206512E-02 -2.39875939E+00  4.94951643E-03
  2.85000266E-01 -6.05292829E-03 -2.62888397E-02  4.61267623E-01  6.37600970E-02
 -1.58429410E-01 -3.03924386E-02 -9.45299451E+00  5.33722682E+00 -3.08864612E-02
  1.36612516E-01  2.05652991E+00 -1.21549265E+00 -2.37445570E-01 -1.54840230E-01
  1.61174996E-03  5.31073656E-03 -7.42011602E-02  7.79834983E-02 -3.22669602E-02
  1.65426128E-02 -9.00973212E+00 -5.38783644E+00 -3.85448935E-02 -1.30729495E-01
  2.05369683E+00  1.23823806E+00 -6.88670964E-02  4.92144631E-01  1.04103855E-04
  4.64241163E-04 -3.82599415E-03  4.42923972E-03  8.01071335E-02  1.51249989E-03
 -1.12956407E-03  2.19104134E-01 -1.94079323E-02 -3.47289311E-03 -2.22079974E-02
  4.04549837E-01 -1.36045960E-03 -1.39008937E-01  3.78329559E-04  1.60768791E-03
 -1.16418799E-02  5.22281943E-03 -1.18981238E-01  1.48636154E-03  3.50662757E-02
 -3.05091271E+00  2.88516249E-02 -1.98772472E-02 -2.09393903E-02  2.34281237E-02
 -2.23755313E-02 -1.47571481E+00 -5.01302316E-01 -2.61800276E+00 -2.74526150E-01
 -5.70652932E-01  2.77984898E-01  4.83937115E-01  2.53800406E+00  2.87868328E-01
 -5.69852471E-01 -2.55136835E-01 -5.61458177E-04 -2.07238255E-03  1.08785269E-02
  3.87013661E-02 -1.94768419E-02 -7.23901475E-02 -2.05988827E-01  2.00757447E-01
  4.51291723E-01 -6.56368430E-02  1.65090598E-01  2.52917846E-01 -1.42171934E-01
 -3.23617562E-02  5.66297868E-04  2.14488906E-03 -1.27164323E-02 -3.71697235E-02
 -1.65344178E-02  7.60811466E-02  2.02595375E-01  1.89358512E-01 -4.68692553E-01
  6.52046640E-02 -1.60486452E-01  2.59939774E-01  1.34802204E-01 -3.91518468E-02
 -1.39122448E-01  1.33051695E-01 -5.74107504E-01  5.05893441E-01  5.46877952E-02
 -1.90523429E-01  4.04531120E-01 -1.16981046E+00 -4.43428798E-01 -8.46205739E-02
  1.79348314E-01 -3.48664694E-01  1.19255529E+00 -4.69398942E-01  3.98685974E-02
  1.38683694E-01 -1.28358405E-01  5.83694599E-01  5.05345901E-01 -1.61522099E-02
  2.38677005E-02  1.06720015E-01 -1.69745983E+00 -4.46226906E-01 -2.13553950E-05
 -2.45630010E-03  9.35164913E-01 -5.67307766E-03  1.10532223E-01 -2.08645443E-01
  1.61582072E-01  1.96819661E-04  1.19086956E+00 -2.27667300E-04 -1.89671049E-02
 -8.27444091E-02  1.36331389E+00  1.80014351E-01  1.43688148E-01 -1.64844495E-02
 -1.47265033E+00 -7.14150644E-01 -2.09579721E-01  6.84353372E-02 -9.29794049E-02
 -9.29111902E-02 -1.13716189E+00 -1.24807816E+00 -1.69008684E-03 -1.12334979E-02
  4.55781728E-01 -4.25873543E-01 -7.54734595E-02  2.09132452E-02  9.45856896E-01
  2.42956200E+00  1.72901295E-01  8.85638843E-01 -1.22059828E-01  9.14234217E-02
 -1.20717451E+00  5.33802583E-01  2.35181486E-02  1.10055636E-01 -2.15681282E+00
  1.05546938E-01 -3.16716804E-04  1.75652541E-02  1.78849416E+00  6.67633415E-03
  8.05785958E-02 -1.67299112E+00  2.51715622E-01  4.49325432E-03 -4.44449720E-01
  1.45854899E-03 -1.71254036E-03 -1.13208583E-02  4.56858457E-01 -4.24978163E-01
  7.51990880E-02  2.04473799E-02  9.26172293E-01 -2.41977321E+00  1.67797891E-01
  8.86964285E-01 -1.24487216E-01 -8.88848933E-02 -1.20831928E+00 -5.32045207E-01
 -1.89480000E-02 -8.26504507E-02  1.36083658E+00  1.80592674E-01 -1.43291869E-01
 -1.68885621E-02 -1.48880829E+00  7.07056922E-01 -2.11177937E-01  6.62762515E-02
 -9.25767870E-02  9.28522733E-02 -1.13530277E+00  1.24810876E+00  3.14962016E-02
  1.32624145E-01 -9.03252717E-01 -3.84506525E-02  9.57691409E-05 -1.94442746E-03
 -8.93172647E-01  5.28081051E-05  1.08492659E-01 -3.55868422E-01  4.19702396E-02
 -6.25813197E-04 -3.82187727E-01 -1.25449029E-03  1.49060357E-02  5.82266639E-02
 -3.13404375E-01  1.18691151E-01 -3.48577940E-04 -6.53776508E-03  5.07476622E-01
 -8.00988041E-03 -1.23290328E-01  3.47591213E-01  1.60093781E-01 -2.96934371E-03
  6.17851514E-01 -5.32227281E-03  2.29976061E-01 -5.60881628E-01 -4.79072984E-03
 -5.17017476E-01 -3.08794925E-02  2.33205627E-01 -5.43782673E-01 -3.56661983E-03
  5.14090277E-01 -2.95658315E-02  1.15214852E-02  4.91214992E-02 -5.55265377E-01
 -3.82377275E-02 -1.00479069E-01  8.31116747E-06  4.46140680E-02  1.70498797E-01
 -8.02002497E-03 -4.61326443E-02 -1.29464077E-02 -5.35971260E-03 -5.90343635E-02
  2.92441127E-01  1.15432281E-02  4.92159897E-02 -5.56378746E-01 -3.79213575E-02
  1.00804869E-01 -6.43689968E-05  4.38409176E-02 -1.71050236E-01 -7.85501195E-03
 -4.64100482E-02 -1.27877331E-02  4.84791776E-03 -5.98102071E-02 -2.92031211E-01
 -4.82104465E-02  5.78642937E-01 -6.14208430E-01  6.72906488E-01 -4.20947499E-02
  2.93103270E-01  6.28454670E-01  3.05036062E-01  4.83089208E-02  4.37377643E-02
  2.93100395E-01  6.27825471E-01  3.08141806E-01 -4.94434265E-02  4.32699565E-02
 -4.92877714E-02  5.76539222E-01 -6.11430233E-01 -6.71611823E-01 -4.24902880E-02
 -1.08788656E-05 -3.73029938E-05  2.92279714E-04 -3.84961626E-04 -1.23634442E-01
 -2.08225356E-04 -3.26452429E-03  6.55785698E+00  1.07884831E-03 -4.26918324E-05
  1.33054968E-03 -8.50926697E-01 -3.33742341E-03  2.02374479E+00 -2.07341754E-02
 -9.15197529E-02  1.61189181E+00  8.81649573E-04  3.07155031E-01  6.92449181E-03
 -2.45046942E+00  3.06427816E+00 -1.35473383E-01  8.19040118E-01  6.58896500E-01
 -5.62929142E-01 -1.71574398E-02  2.87330073E-01  1.24622237E-02  5.60769233E-02
 -1.01129918E+00 -1.00644255E-01 -3.78016121E-01  3.58563881E-02 -2.66858424E+00
 -1.41594158E+00  6.18967345E-01 -5.93390438E-01  8.00430377E-01  7.20488044E-01
 -8.24125047E-01 -2.29877134E-01 -3.18459286E-05 -1.45641388E-04  2.68349514E-03
 -2.04039647E-03  3.03678998E-02  5.72551243E-05 -4.26490693E-03 -4.87503345E+00
 -1.16683665E-03  1.29715585E-03  2.72191897E-03  1.62681220E+00 -2.92845962E-04
  1.51613310E+00 -1.24607915E-02 -5.60780707E-02  1.01172323E+00  1.00392769E-01
 -3.77710213E-01 -3.57596974E-02  2.65776475E+00 -1.41802158E+00 -6.16505158E-01
  5.94823323E-01 -8.01330771E-01  7.18096691E-01  8.30259166E-01 -2.23221709E-01
  2.08086612E-02  9.18536417E-02 -1.61787556E+00 -1.33692837E-03  3.07727306E-01
 -6.88690206E-03  2.45157396E+00  3.06962799E+00  1.35189443E-01 -8.21587267E-01
 -6.60680502E-01 -5.60740718E-01  1.35955167E-02  2.86204352E-01 -3.53129935E-05
 -1.49149759E-04  1.03002404E-03  1.55040567E-04  2.47332944E-01 -2.08672192E-04
 -3.64811709E-04 -1.16972279E+00  9.66437806E-04  1.07712525E-03  1.27884881E-03
 -2.33386958E-01  9.65071240E-04 -7.75719969E-01 -7.12703996E-07 -3.44953295E-07
 -2.63802603E-05 -1.19134208E-04 -8.62772279E-02 -3.22129575E-05 -6.93375426E-03
 -1.57914962E+00 -2.28482975E-03 -3.07310762E-04  1.04875590E-05 -6.29371869E-01
  2.72861534E-03 -6.77591199E-01 -3.72896526E-01 -1.27904219E+00  1.64832044E-02
 -1.68115180E-01 -1.81250627E-01  3.73814141E-01  1.28852145E+00 -1.88549090E-02
 -1.68792025E-01  1.80061918E-01 -1.85821426E-03 -7.13643638E-03  1.86599673E-02
  1.55710636E-01 -8.61110644E-04  3.36178234E-02 -6.67000179E-01  4.31838601E-01
 -2.33328188E-01 -1.21177673E-01 -8.29939647E-02 -1.13033414E-01 -5.15623551E-01
 -1.98890590E-01  1.84829421E-03  7.08734837E-03 -1.80104162E-02 -1.55771995E-01
 -1.35877405E-03 -3.36916518E-02  6.66913046E-01  4.33827655E-01  2.33364400E-01
  1.21084765E-01  8.31157817E-02 -1.12591147E-01  5.16427053E-01 -1.97136428E-01
 -7.57071519E-02  2.08051047E+00  6.60660043E-01  1.90953998E-01 -6.24633583E-02
 -5.01677187E-01  2.61293278E-01  2.35358167E-01  5.17288268E-01  6.97229629E-02
  5.01229742E-01 -2.57834271E-01 -2.38131223E-01  5.18390032E-01 -6.88389615E-02
  7.60006570E-02 -2.09120003E+00 -6.60653817E-01  1.92345772E-01  6.23601970E-02
  8.26613835E-03  4.24447913E-02 -7.40823453E-01 -7.14016474E-01  1.70570958E-03
 -5.69269028E-03  1.23821704E+00  1.87438943E-01 -4.61139951E-02  7.34246069E-01
  3.85629938E-03  8.07539784E-03 -1.01228882E+00  2.45034026E-02  5.77924716E-03
  2.87739917E-02 -7.74259839E-01 -9.21877764E-02 -1.63505891E-02 -1.25393206E-03
 -2.35451491E+00 -4.39218124E+00  1.76236822E-04 -1.27713743E+00 -2.35559184E-02
  3.13729459E-02 -1.33715967E+00 -1.44004170E+00 -2.25323055E-03 -1.46793252E-02
  5.23958127E-01 -2.18565099E-02 -2.19972378E-02  3.13142716E-03 -3.07605901E+00
  3.52421235E+00 -9.70362743E-02  1.06513779E+00 -4.39110117E-02 -9.94599326E-02
  1.46191094E+00 -2.04768768E+00 -1.44317346E-02 -6.50987902E-02  1.03340864E+00
 -9.45488800E-01  4.09808713E-03  4.13583443E-02  5.53919867E-01 -1.91073669E-01
  3.12900465E-01 -2.46391775E-01 -5.97287606E-02 -2.54167811E-02  3.32887970E-01
 -8.47354867E-03 -2.07889558E-03 -1.39274359E-02  5.12030442E-01 -2.09645020E-02
  2.35513681E-02  4.72568079E-03 -2.73708258E+00 -3.68187160E+00 -7.30599824E-02
  1.06726516E+00 -2.47252697E-02  7.78685014E-02  1.48686820E+00  2.04404457E+00
  6.03667309E-03  3.00034107E-02 -7.96947379E-01 -9.28519479E-02  2.17652636E-02
 -8.70912180E-04 -2.05886682E+00  4.62114430E+00 -5.33299342E-04 -1.28510677E+00
 -1.01221419E-02 -1.68733467E-02 -1.31748866E+00  1.43281341E+00 -1.23012289E-02
 -5.11430322E-02  3.35102786E-01  4.00659865E-01 -9.06902297E-04  3.32881892E-04
 -1.94301700E+00  1.44552387E-03  1.98821521E-02  3.97435306E-01  1.47368933E-03
  4.77957358E-03 -4.64393841E-01 -4.07773416E-03  1.83975519E-02  7.92364718E-02
 -5.70887462E-01  2.40211492E-01  1.02845632E-03  1.26456065E-02 -2.49647588E+00
  6.39528518E-02 -1.99010575E-01 -3.43320294E-01 -1.65541000E-02  1.34418684E-02
  1.28897881E+00  2.29504245E-02  2.82425248E-02  1.44837460E+00 -4.60245828E-01
 -3.87571956E-02 -3.98888707E-02  9.09526990E-03  1.34824834E+00 -4.65613299E-01
  5.82704052E-02 -4.44610660E-02  4.75539783E-03  1.88103232E-02 -2.06703717E-01
 -3.40946846E-02 -2.64408474E-02  6.23597468E-04  2.08582854E-01  6.61805059E-02
 -2.87998846E-03 -1.26755283E-01 -2.05642205E-03 -8.14592307E-04  1.40129980E-01
  1.74748479E-01  4.95223188E-03  1.96348350E-02 -2.15769179E-01 -3.52125514E-02
  2.83866465E-02  1.82924958E-03  2.09311541E-01 -6.95566939E-02 -1.17127814E-02
 -1.29820837E-01 -5.15070858E-03  3.95895279E-03  1.39030815E-01 -1.77497356E-01
  8.76976556E-02 -3.65398023E+00 -9.93615375E-01  1.56303707E-01  9.01551251E-03
 -9.82488978E-02  2.66139881E+00 -9.42010086E-01 -2.15277746E-01 -4.56501954E-02
 -9.14755292E-02  2.63977368E+00 -9.74916763E-01  2.43281157E-01 -4.37812833E-02
  8.99759770E-02 -3.70031889E+00 -1.01904149E+00 -1.59905168E-01  8.61647070E-03
  4.09881056E-05  2.35331208E-04 -3.72218245E-03 -6.94526708E-03 -6.16420837E-02
 -4.28543268E-05  1.04687436E-02 -1.47243285E+01 -6.55680639E-03  9.51404103E-03
 -2.17652214E-03 -7.06994920E-01 -1.16921915E-02 -2.37649203E+00  1.54561876E-02
  7.28660486E-02 -1.37275220E+00 -4.27480900E-02 -3.11899996E-01  7.66453801E-03
  1.09481428E+01 -8.77565629E+00 -1.67701820E-01 -6.11006981E-01  5.26656557E-01
 -5.54618880E-01  3.07418519E-01  4.56446018E-01  7.82555659E-04  2.10404294E-03
  3.54010258E-02  9.73415614E-03  2.36590834E-02  6.88821304E-02  1.26915123E+01
  6.13822009E+00  9.84504664E-01  3.72534735E-01  7.41525971E-01  8.17521531E-01
  1.23675409E+00  1.51324776E-01 -1.80305204E-04 -8.18709255E-04  1.36335326E-02
 -1.08756102E-02 -3.78994590E-01  4.43900227E-04  1.59676003E-02  1.50775428E+01
  5.70036542E-03  6.59294391E-05 -2.07169041E-03  2.05028033E+00  3.50678463E-03
  1.40671259E-01 -8.14673890E-04 -2.32920117E-03 -2.66999790E-02 -8.40567196E-03
  2.37862710E-02 -6.88497677E-02 -1.27601882E+01  6.06759915E+00 -9.85429598E-01
 -3.51326846E-01 -7.42586007E-01  8.23236337E-01 -1.20314545E+00  1.99933197E-01
 -1.53103901E-02 -7.21510081E-02  1.35383966E+00  3.98004326E-02 -3.11418314E-01
 -7.92307200E-03 -1.09950260E+01 -8.67344610E+00  1.69143189E-01  5.81462730E-01
 -5.26930677E-01 -5.57695645E-01 -3.30474151E-01  4.83785258E-01 -1.15751929E-04
 -4.76206907E-04  2.91358959E-03  4.86111539E-03  1.74780760E-01 -6.11074370E-05
 -2.05098929E-02 -7.16398512E-01  9.05451568E-04  3.79688465E-03 -1.05802186E-03
 -3.19759445E-01 -5.45598968E-03  2.08418742E-01  1.90780048E-04  8.26721948E-04
 -6.11321071E-03  2.41572779E-03 -7.01516505E-02  1.16465615E-04 -2.74591540E-02
 -4.94651498E+00 -3.27862181E-03 -5.86804737E-03 -2.35752727E-03 -1.13995717E+00
  1.19599084E-02 -2.03873642E+00 -7.50527284E-01 -4.21612958E+00 -2.64801857E-01
 -8.43703959E-01 -1.88273547E-01  7.49927369E-01  4.24544521E+00  2.53823953E-01
 -8.42923735E-01  1.87084563E-01  1.01826133E-02  4.27972348E-02 -4.85358493E-01
 -2.20169241E-02 -1.25532961E-01  3.85066585E-02 -1.27247296E-01  3.64631635E-01
 -2.93527502E-01 -1.66557682E-01 -1.03822535E-01 -1.27605400E-01 -2.09503373E-01
  1.59898293E-01 -1.00606556E-02 -4.23013312E-02  4.79704878E-01  2.14368897E-02
 -1.24363501E-01 -3.83031181E-02  1.31280192E-01  3.61614589E-01  2.92125076E-01
  1.63790525E-01  1.04202129E-01 -1.25898595E-01  2.11978405E-01  1.55649827E-01
 -8.81646508E-02 -2.06677416E+00 -1.19251265E+00  3.28701328E-01 -8.12863863E-02
  3.24841687E-01 -3.25733475E-01 -1.46237063E+00 -1.11811583E+00  8.47715231E-02
 -3.28362904E-01  3.81446225E-01  1.44064461E+00 -1.11395872E+00 -8.71908847E-02
  8.91711239E-02  1.98887301E+00  1.17190642E+00  3.25419339E-01  8.10326803E-02
  7.47324052E-05  3.33228697E-04 -7.68343406E-03  8.05141755E-04  5.90652010E-01
 -8.09975301E-05  1.94675072E-03  8.89706379E+00 -1.46116977E-03 -8.86152968E-03
 -1.55694656E-03  5.37408169E-02 -3.64072843E-03  1.06936847E+00  2.14515168E-03
  1.01618513E-02 -2.86359675E-01 -1.02091713E-01  3.39721338E-02  6.26637232E-04
 -7.43012219E+00  5.51236966E+00  3.11726774E-02 -4.98060435E-01 -2.69530935E-02
  4.86957859E-02 -2.23007217E+00 -4.22849419E-01 -2.09498050E-02 -9.52423726E-02
  1.74662307E+00 -1.73852483E-01  2.28745273E-01 -9.95152232E-03 -9.40205182E+00
 -2.20992907E+00 -1.21525166E-01  7.62663864E-01 -4.71240532E-02 -7.74673221E-02
  2.73131952E-01 -6.22987348E-01  1.08104680E-04  4.96502263E-04 -8.94263212E-03
  3.61809018E-03 -2.84411363E-01 -8.93546432E-05  4.72913649E-04 -8.13587333E+00
  1.22813337E-03 -3.05553254E-03 -1.90619099E-03 -2.04256488E-01 -1.51270626E-03
 -1.85216085E+00  2.08761504E-02  9.49338724E-02 -1.74118948E+00  1.71847946E-01
  2.28956647E-01  9.86188480E-03  9.42259427E+00 -2.19911269E+00  1.15965056E-01
 -7.63066592E-01  4.82712561E-02 -7.47659410E-02 -2.93394628E-01 -6.41888705E-01
 -2.15235964E-03 -1.02350410E-02  2.90682712E-01  1.07739774E-01  3.51321739E-02
 -3.82648396E-04  7.43270828E+00  5.47442505E+00 -2.48587775E-02  5.09042833E-01
  2.64989038E-02  4.42368721E-02  2.22576939E+00 -4.29620571E-01 -1.08744946E-04
 -4.75628660E-04  3.81299115E-03 -2.41271843E-03  4.26232397E-01 -2.62301576E-04
  1.19568482E-02 -2.16919673E+00 -1.28292687E-03  3.95594736E-03  5.59461726E-04
  3.15947911E-02  4.53200700E-03 -7.41263261E-01  8.50092723E-07 -9.46456618E-06
  2.69102536E-04  3.06295947E-05  1.02685128E-01  4.10595880E-05  8.94393962E-03
  1.84299850E+00  1.37052955E-03  1.00473078E-03 -3.65310392E-04  1.62040678E-01
 -3.43523147E-03  2.31223665E-02  2.69571779E-01  2.68838761E-01 -1.10731590E-02
  1.53302721E-02 -1.88750258E-03 -2.69555097E-01 -2.80188720E-01  1.41853726E-02
  1.65326139E-02  3.14056005E-03  2.41069122E-03  1.13055228E-02 -2.14144728E-01
  1.87699840E-01 -1.32924702E-01 -3.65083286E-03 -9.02803402E-01  9.35714298E-01
  2.86074021E-02 -1.58600496E-01  1.02443773E-02  1.15777693E-02 -8.25792706E-01
  3.37212401E-02 -2.61965244E-03 -1.21985552E-02  2.24526582E-01 -1.86709296E-01
 -1.34998185E-01  3.45928585E-03  8.98789650E-01  9.39536724E-01 -2.75398471E-02
  1.59890842E-01 -9.53915736E-03  1.20671147E-02  8.25954994E-01  4.05153268E-02
 -6.14677763E-01  1.30717662E+00 -9.73231777E-02  7.61858101E-01  1.06427461E-02
 -1.41241439E-01  2.73639173E+00  5.80692287E-02  6.75337809E-01 -8.44182904E-03
  1.42492609E-01 -2.74287004E+00 -4.97488554E-02  6.71079307E-01  8.13019894E-03
  6.16751218E-01 -1.29141372E+00  1.01904427E-01  7.62763510E-01 -9.51680143E-03
 -1.85214387E-02 -8.59825901E-02  1.87329074E+00  1.61249175E-01  1.21279208E-01
  9.50769805E-05 -5.57032826E-01 -3.15895795E+00  4.03389377E-02  1.47853017E+00
  3.46314438E-02 -5.05553946E-02  1.25610576E+00  7.25556467E-01 -6.00332265E-03
 -2.47815107E-02  2.47263318E-01 -4.38097865E-01  2.12728989E-01 -3.64770190E-03
  3.72828442E+00 -2.02315693E+00 -7.59992639E-02 -5.99997549E-01  1.62537149E-02
 -7.19357806E-02  5.60225845E-01  2.66551413E-01  7.91631397E-03  3.37982049E-02
 -6.32426464E-01  1.34123534E-01  1.13233792E-02  1.18246739E-02  1.15587156E+00
  1.59767721E+00  1.69667208E-01 -1.95698204E-01  3.20255628E-02  1.09530341E-01
  6.39642776E-01 -8.26166774E-01 -1.02761307E-02 -4.65926359E-02  8.74756834E-01
 -2.10475232E-01 -1.12496337E-01  5.47646637E-03  5.62604202E-01  2.94413828E+00
 -3.21682996E-02  4.61295814E-01  6.40507262E-02  2.09289622E-01 -6.81077710E-01
 -2.65505359E-01  1.33552996E-02  5.97919759E-02 -1.13739281E+00  2.49467016E-01
  4.53670517E-02 -5.14207599E-03 -3.07330215E+00  2.14836252E+00 -5.15016055E-02
 -4.26974779E-01 -8.81308499E-02  4.53130435E-02  3.27809269E-01  4.90192423E-01
 -4.51256907E-03 -1.66324345E-02  1.10067367E-01 -2.94545753E-01 -9.05612297E-02
 -4.46249496E-03 -1.48464463E+00  1.61315113E-02 -4.17048696E-02 -4.95204478E-01
 -5.88117201E-02 -2.32238217E-02  1.50189562E+00 -6.58130401E-01  3.55125698E-02
  1.52697516E-01 -1.16735577E+00  2.89104193E-01 -1.46348957E-01  4.81232699E-04
 -8.83441355E-01  1.33143326E+00  2.02399485E-02 -1.06701228E+00  5.37325635E-03
 -3.97636731E-02 -8.49876321E-01  8.99954620E-02 -8.33109793E-03 -3.47683234E-02
  2.29502572E-01 -1.55951506E-01  6.03423206E-03  2.76861945E-03 -1.34290037E-01
 -7.79093738E-01 -4.59970569E-02  2.28206094E-02  9.45265734E-03 -1.42133957E-01
  1.03279333E-01 -3.39982037E-01 -6.47973477E-02 -5.41903462E-01 -9.76393678E-02
 -1.20613246E-01 -2.52201490E-02  1.04845604E-01  1.01490729E+00 -3.19422223E-02
 -2.17375892E-01 -1.24250862E-02  1.30154742E-02  5.71503468E-02 -6.60480645E-01
 -5.78175936E-02 -1.99322195E-01  4.33281018E-03  4.46018917E-02  4.73200806E-01
 -3.65254972E-02  2.27949785E-02 -1.44316107E-02 -1.51738137E-02 -5.95221639E-02
  4.62724378E-01  2.66305319E-02  1.14260076E-01 -1.34339397E+00 -5.40689745E-02
  2.93916564E-01 -3.85408784E-03 -1.92413804E-01 -7.88402096E-01  2.97263463E-02
 -1.73559245E-01  9.15009032E-03 -1.20982943E-02 -4.19372419E-01 -5.57633357E-01
 -4.28056636E-01  1.01495432E+00 -2.08218822E-01  5.21010302E-01 -1.76145180E-02
 -6.89474722E-02 -2.13092330E-01 -4.79584396E-01 -3.18657316E-01  2.23970750E-02
 -1.44570425E-02 -1.26606278E+00  2.67875045E-01  1.81707660E-01  8.29937527E-03
 -3.28120293E-01  4.33135879E-01  3.59990574E-01  9.94774074E-03 -6.49096218E-04
 -4.94086755E-03 -2.29525996E-02  5.01018622E-01  4.29532786E-02 -4.40590767E-01
 -1.35297803E-04 -1.42899075E-01  1.19958081E+01  1.64109899E-02  3.96681301E-01
  9.11883202E-03  2.04880420E-01  3.39694870E-01 -2.67885793E+00  1.31499409E-03
  9.39707759E-03 -2.05353616E-01  1.67661554E-01 -1.84688153E-01 -2.33057889E-03
 -9.58990475E+00  3.58830276E+00  5.34482156E-02  4.35342574E-02 -1.54278473E-01
  1.80196431E-01  1.99245346E+00  8.36804720E-01  1.26613963E-02  5.95245147E-02
 -1.15219633E+00  2.62224223E-01 -1.07616042E-01 -3.07919196E-02 -8.34850493E+00
 -7.10983657E+00 -4.03001685E-01 -5.03810645E-01 -2.40713792E-01 -2.88170853E-01
 -4.51456994E-01  4.32504556E-01 -2.74376610E-03 -1.24387809E-02  2.33285981E-01
 -5.59169425E-02  4.14912812E-01  1.41828903E-03  1.46818340E-01 -1.11775219E+01
 -1.06189873E-02  1.21950237E-01  1.84867932E-02 -7.99185527E-01 -1.83157021E-01
  9.66347001E-01 -6.94439255E-03 -3.43782236E-02  6.77129012E-01 -1.59935785E-01
 -9.82564541E-02  3.27214175E-02  7.83602528E+00 -6.96898621E+00  4.33445619E-01
  3.38025779E-01  2.26122724E-01 -3.08602324E-01  7.09115346E-01  7.84505811E-01
 -4.16719270E-03 -2.06511131E-02  3.03771271E-01 -3.64127828E-01 -2.66444793E-01
 -9.49927327E-06  1.01885576E+01  4.13529900E+00 -8.75471602E-02 -3.36977553E-01
  1.43486113E-01  1.95610730E-01 -1.43757083E+00  5.93827708E-01  9.54895814E-03
  4.10541015E-02 -3.13755212E-01  7.74873589E-02  5.53184218E-01 -2.03268471E-04
 -2.35711279E-01 -5.00081255E+00  3.00352234E-03 -2.86379294E-01  1.79333691E-03
  1.42275038E-01 -2.27664260E-01 -3.55687461E-01 -2.23092813E-03 -9.31532232E-03
  6.15939658E-02 -4.18500839E-02 -2.08182471E-02  7.48408954E-04 -3.49008376E-02
  2.95147954E+00 -1.15376707E-02  7.31432627E-03  3.95941763E-03  5.37399729E-01
  2.86258412E-02  1.27456567E+00  3.28310777E-01  2.98532061E+00  1.05444153E-01
  6.45663230E-01  2.01802572E-02 -3.17062108E-01 -2.85904966E+00 -1.39319834E-01
  6.19747434E-01 -2.99310725E-02  3.06554773E-02  1.29297756E-01 -1.54181166E+00
 -3.72479249E-03 -2.45005832E-01 -1.49391701E-02 -4.78961931E-01  7.74324345E-01
  1.23169138E-01 -3.87896930E-01  4.29703230E-02  4.97024167E-02 -7.51147429E-01
  3.14078139E-01 -2.00271491E-02 -8.33374836E-02  1.00431497E+00 -2.58381819E-02
 -1.12317485E-01  1.48748265E-02  4.38881102E-01  4.35217303E-01 -1.22349894E-01
  3.47226469E-01 -4.38440266E-02  5.01982034E-02  6.21798844E-01  4.05336012E-02
  7.41864255E-02 -8.55716424E-01  1.07781486E+00 -9.07455555E-01  3.14523154E-02
  8.55490832E-02 -2.11393566E+00  1.36861388E+00  2.02929742E-01 -2.32082520E-02
 -1.06740747E-01  1.71576527E+00 -1.42424909E+00  3.38359721E-01  3.25571523E-02
 -2.77122911E-01  1.24673978E+00 -1.03759913E+00 -1.04511722E+00 -3.72222701E-02
 -6.89276928E-06 -2.72260682E-05 -6.94726753E-05 -4.31223292E-04  7.20824981E-01
  1.75941015E-04  1.63965699E-03  1.57658835E+01  6.38508153E-03 -6.59551373E-04
  9.94267600E-04  5.49127500E-02 -2.16684521E-03  3.11058406E-01  7.12051355E-03
  3.45103704E-02 -7.20680207E-01 -3.77291378E-01  7.85501564E-02 -5.59067864E-04
 -1.50770548E+01  4.21687215E+00  1.84720811E-02 -3.19488091E-01 -4.35619385E-02
  6.45061995E-02 -1.01384961E+00 -2.33133083E+00  9.72121247E-03  4.79229960E-02
 -8.20226557E-01 -4.44820912E-01 -4.90630419E-01 -1.53199712E-02 -1.25818736E+01
 -7.93435246E+00 -1.87555676E-01  8.01412591E-02 -8.21344691E-02 -1.19115514E-01
  2.66273619E+00 -2.38354229E+00  5.57669030E-06  2.17327373E-05 -3.45889562E-04
 -2.80404081E-04 -7.72608615E-01  3.09334057E-06 -8.19614429E-03 -1.44170790E+01
 -1.13306937E-03 -1.93108444E-04  8.48796953E-04 -3.75052713E-01  5.19897714E-03
  5.15584701E+00 -9.74557661E-03 -4.80372845E-02  8.22363154E-01  4.44451900E-01
 -4.90829877E-01  1.53357989E-02  1.25816827E+01 -7.93602194E+00  1.85934790E-01
 -7.96377480E-02  8.18543859E-02 -1.19597841E-01 -2.66223578E+00 -2.38350268E+00
 -7.09543363E-03 -3.44055318E-02  7.18839691E-01  3.77594752E-01  7.86319113E-02
  3.93422754E-04  1.50788545E+01  4.20994427E+00 -2.36031546E-02  3.19400936E-01
  4.16438915E-02  6.57067243E-02  1.00939911E+00 -2.33269273E+00 -2.22557278E-05
 -9.59669276E-05  7.45216704E-04  2.21996029E-04  5.48318587E-02 -1.40649445E-05
  7.38325579E-04 -1.19253902E+00 -1.05638127E-03  8.49330943E-04  4.92273859E-04
  8.44763227E-02 -1.35174950E-03 -3.28377593E-01  9.12207191E-06  4.12105939E-05
 -3.07469236E-04  2.32263998E-04 -1.34802514E-01 -6.90345946E-05 -1.27620874E-03
 -3.20826522E-03  3.56309386E-04  1.30612349E-04  6.59285575E-04  1.95119799E-01
  1.20872323E-03  1.77946084E+00 -1.82520792E-02  2.31482231E+00  1.33987404E-01
  2.59928331E-01 -7.92129337E-02  1.84066520E-02 -2.31397359E+00 -1.33671470E-01
  2.59610769E-01  7.96666575E-02  7.09258112E-04  2.53540969E-03 -4.38856598E-02
  3.01173405E-02 -1.91426915E-02 -7.49692937E-03 -1.86836831E-01  1.53781006E-01
  6.84921704E-02  1.92842748E-02  2.35797300E-02  2.65961722E-02 -1.43148980E-01
  7.32485157E-03 -7.04757418E-04 -2.52180783E-03  4.38845193E-02 -3.01161902E-02
 -1.91195748E-02  7.35757685E-03  1.84700730E-01  1.52542157E-01 -6.72999321E-02
 -1.96652407E-02 -2.34476719E-02  2.61357684E-02  1.42553691E-01  8.30743026E-03
  3.73725366E-01 -2.18263266E+00 -2.75660403E-02 -7.12845498E-01  1.52001052E-02
  7.05105956E-02 -1.53943256E+00  6.54258391E-02 -3.77969549E-01 -1.12617985E-02
 -7.09151075E-02  1.54221810E+00 -6.59476430E-02 -3.78284837E-01  1.15375833E-02
 -3.73213287E-01  2.17894482E+00  2.62663534E-02 -7.12644404E-01 -1.60468539E-02
 -2.81335046E-05 -1.42663159E-04  2.73061251E-03  2.04384055E-04 -1.11798878E-02
  2.02843506E-04 -1.94338389E-02 -8.36220238E-01  3.93154775E-04  8.90409541E-04
 -1.62757937E-04 -2.33754982E+00 -1.04535123E-02  3.60280659E-03  2.07693801E-04
  9.64342017E-04 -2.00163575E-02 -1.62610529E-03 -1.70637802E-03 -1.21498862E-01
  7.17136046E-01 -2.55474126E-01 -1.08603280E+00 -1.01691821E-02  4.39972200E-01
 -8.24729031E-01 -2.90024249E-02  9.57379346E-02 -1.75977338E-04 -9.42151773E-04
  2.29143067E-02 -3.38370326E-03  2.28072038E-04  2.69695531E-02  7.10787896E-01
  2.87437075E-01  2.19935620E-01  1.39795289E-02  3.23334853E-01  4.77005151E-01
  1.99283729E-02  8.13941553E-02  3.86622071E-06  9.70728139E-06  1.46769166E-04
 -9.25646816E-05  7.24620981E-05  5.01823185E-05  1.21242521E-02  8.44225973E-01
  2.52374432E-04  1.48812854E-04  6.34108462E-04  6.34362272E-01 -1.15369516E-02
 -2.05802743E-02  2.26628524E-04  1.14031332E-03 -2.62152131E-02  1.24208592E-03
  1.70016982E-03 -2.68488844E-02 -7.20030041E-01  2.88731711E-01 -2.19870435E-01
 -1.54772099E-02 -3.23336994E-01  4.76963319E-01 -2.96778020E-02  8.54551197E-02
 -2.00654328E-04 -9.44947440E-04  2.01161894E-02  2.83558051E-03 -1.04644789E-03
  1.21477924E-01 -6.92384325E-01 -2.72173224E-01  1.08628887E+00  9.76786926E-03
 -4.40594477E-01 -8.24290977E-01  1.96324074E-02  8.51312708E-02 -2.84404245E-05
 -1.20933769E-04  7.21564295E-04  8.24242133E-04 -6.51360190E-03  8.52291637E-05
  2.14884504E-03  8.74825280E-02 -2.96457754E-04 -3.86246616E-03 -2.31443099E-03
  3.67327451E+00 -3.80566376E-03 -2.82349844E-03 -5.47273363E-05 -2.41060844E-04
  1.84972896E-03 -1.38183781E-03  5.45276543E-04  9.25479304E-06  1.42394978E-03
 -3.33687619E-01 -4.30389321E-04  7.83333043E-04  1.05771008E-04 -1.58730668E-01
  7.97864312E-04 -1.37837230E-01 -4.85981751E-02 -3.15413538E-01 -2.60431554E-03
 -5.33230812E-02 -4.50205498E-02  4.94383085E-02  3.16401492E-01  1.92271291E-03
 -5.31291320E-02  4.46275917E-02 -3.82406033E-04 -1.57882960E-03  1.92646925E-02
  1.40992987E-03  1.78632118E-03 -2.31604303E-01 -6.42224056E-03 -5.50273551E-04
  2.63354075E+00  4.30414652E-03  8.81217783E-01  9.40644146E-01  2.37140099E-03
 -4.70880869E-03  4.01039065E-04  1.64840257E-03 -1.98356006E-02 -1.43113896E-03
  2.40111647E-03  2.31644841E-01  3.36260748E-03 -5.40662943E-03 -2.63390673E+00
 -5.92883553E-03 -8.82348070E-01  9.39727767E-01 -4.92296451E-03 -4.66278522E-03
 -2.15383004E-02  2.02098485E-02 -3.60007481E-02  4.15368643E-02 -2.20724252E-01
  1.54839542E-02  1.03650171E-02 -5.30894880E-02 -3.49540157E-02  1.22784799E-01
 -1.62011863E-02 -1.88821096E-02  5.53234966E-02 -3.56923809E-02 -1.22644370E-01
  1.88221601E-02 -1.18247386E-02  3.64469748E-02  3.85343784E-02  2.20335513E-01
  9.69614716E-03  4.38386443E-02 -6.39810320E-01  1.32648245E-01  6.19084746E-04
 -1.85178016E-04  6.32515788E+00  8.30386499E-03 -2.78044242E-02  1.24265480E-01
 -3.66805402E-02 -7.41872559E-03  4.32403754E+00  1.76179084E-03 -5.76821628E-03
 -2.23656846E-02  3.08801594E-01 -3.91520948E-01  2.58568161E-01  6.22607450E-03
 -3.18964879E+00 -2.57028200E+00  8.07133044E-02 -7.80195372E-02  4.25146153E-02
  2.13807353E-02  2.13612562E+00 -1.67889640E+00 -4.28289193E-03 -1.58317844E-02
  2.13978106E-01  4.50895180E-01  2.62285935E-01 -7.71699460E-03  2.27661523E+00
 -4.60041431E-01 -9.39206704E-02  1.35381243E-01  5.87058199E-02 -4.15074713E-02
  1.95551512E+00  8.52714482E-01 -4.29783531E-04  6.13689689E-04 -1.22699566E-01
  1.21789617E-02 -5.09955173E-04 -1.27349422E-02 -4.14521593E+00 -8.49013754E-03
  1.51479627E-02 -5.81028997E-02 -1.28474846E-01  1.75250492E-03  4.35312039E+00
 -3.31097194E-03 -4.25752850E-03 -1.57199335E-02  2.12226658E-01  4.51446950E-01
 -2.62376820E-01 -8.04912755E-03  2.29579188E+00  4.60232500E-01 -9.57477954E-02
  1.35047646E-01  5.68036832E-02  4.37932008E-02  1.95454161E+00 -8.58809876E-01
 -5.74774972E-03 -2.22710336E-02  3.07172584E-01 -3.90988626E-01 -2.57962816E-01
  6.76418719E-03 -3.17541901E+00  2.58010009E+00  8.84624081E-02 -7.83656205E-02
  4.06403047E-02 -2.73079936E-02  2.14216402E+00  1.67358912E+00  1.35635381E-02
  5.74859593E-02 -3.71686523E-01 -3.71374396E-01  1.46102645E-04 -7.72019131E-05
 -3.46372815E-01 -1.44073001E-03 -2.39717087E-02 -2.10663445E-02 -7.24640624E-03
  9.92770249E-03  8.65348994E-01  1.39994145E-03  1.89318080E-02  8.28310104E-02
 -6.29571511E-01  4.82233766E-01 -1.61984136E-04 -5.94761371E-03 -2.59095778E-01
  1.82820286E-05  9.64516869E-02 -2.57710584E-01 -3.75713625E-02 -3.01873557E-04
 -2.83972577E-01 -9.25900640E-04 -7.43838154E-02 -5.17180966E-01  1.80868892E-01
 -5.05308355E-02  4.65152848E-02 -7.40803717E-02 -5.13886535E-01  1.81224253E-01
  4.93843402E-02  4.69740765E-02 -3.72510852E-03 -1.40383829E-02  1.22175466E-01
  7.76737464E-03  7.40176024E-02 -9.38958621E-04  5.56416596E-01 -4.08670057E-01
  1.04510929E-02 -9.64645141E-03  5.56825680E-03  3.79897126E-03  2.58304304E-01
  1.57687344E-01 -3.74181476E-03 -1.41088661E-02  1.23097620E-01  7.72820149E-03
 -7.44023169E-02  2.59795220E-04  5.56322910E-01  4.10749471E-01 -3.28904168E-03
 -9.25712342E-03  1.32652765E-03  1.17687012E-03  2.59696581E-01 -1.56573012E-01
  3.88073522E-01 -3.68565320E-01  1.25096020E-01 -4.16428226E-01  9.39891611E-03
  2.27133051E-01  6.21066201E-01 -3.12603545E-01 -3.23158276E-01 -2.17243741E-02
  2.28769643E-01  6.14262090E-01 -3.10645541E-01  3.24711869E-01 -2.24625765E-02
  3.88758497E-01 -3.72719134E-01  1.25779728E-01  4.17809155E-01  1.07973667E-02
 -1.05899510E-05 -4.88943700E-05  4.82214686E-04 -3.61318839E-04  3.71550735E-01
  3.11434702E-04 -3.14139991E-03 -3.78788494E+00  1.46063680E-04 -7.66514468E-05
 -5.11038966E-04 -5.84789996E-02 -3.41701742E-03  2.02272390E-01 -9.76282692E-03
 -4.51322247E-02  9.44449518E-01  1.69422817E-01 -3.06626034E-02 -5.29739397E-03
  3.04209681E+00 -6.92541384E+00 -5.64440812E-02  1.86081406E-01  3.82864738E-03
 -4.12082879E-02  8.25485550E-01 -3.13218552E+00  2.18716860E-03  5.92474303E-03
 -1.53153609E-01  2.48419978E-01  3.00171037E-01  1.23725758E-02  1.38611838E+00
  8.97090393E+00  1.33248781E-01 -1.25875363E-01  1.09418677E-02  5.68389197E-02
 -1.73793022E+00 -3.03843828E+00 -4.24104641E-06 -2.94012668E-05  8.24928472E-04
 -6.83238166E-04 -4.30567564E-01  3.19626624E-05  4.47677340E-04  1.63447818E+00
 -3.44059756E-04  2.02749313E-04  4.00430779E-04  2.04371057E-01 -2.09913021E-03
 -2.96338595E+00 -2.18113689E-03 -5.92179795E-03  1.53719211E-01 -2.48797739E-01
  3.00264746E-01 -1.21688592E-02 -1.38601618E+00  8.96786842E+00 -1.28760974E-01
  1.26167233E-01 -1.21925973E-02  5.71658121E-02  1.73795963E+00 -3.03795916E+00
  9.78712363E-03  4.52238925E-02 -9.45687941E-01 -1.69228484E-01 -3.02257227E-02
  5.57535366E-03 -3.04236082E+00 -6.92230105E+00  5.34553544E-02 -1.86668124E-01
 -5.37562342E-03 -3.96918575E-02 -8.31737473E-01 -3.13145438E+00 -2.67586151E-05
 -1.12098530E-04  7.99968991E-04  1.68602013E-04  1.13752497E-01 -6.04783642E-05
  2.19643718E-03  9.17883326E-01  6.50824584E-04  2.96934766E-04 -1.46234860E-03
  4.88310121E-02 -4.39805208E-03  1.55080273E+00 -6.02417116E-06 -2.38940115E-05
  1.67844620E-04 -6.89079853E-05  8.66254212E-02 -2.79814884E-05 -9.27166012E-04
 -2.98823753E-01 -8.63229300E-04 -2.71744457E-05 -4.41399156E-04 -1.37144109E-01
  3.62169101E-05 -1.50976213E+00 -5.62958565E-02 -2.22159522E+00 -1.39281398E-01
 -4.89407995E-01  1.07063766E-01  5.66951971E-02  2.22273548E+00  1.38537844E-01
 -4.89049595E-01 -1.07956882E-01  1.25616852E-02  5.20242263E-02 -5.83858844E-01
 -1.17954786E-01 -1.53340125E-01 -2.07205675E-03  7.12192364E-01  1.44729423E-01
  3.12336724E-02 -2.45829700E-01  9.98476614E-03  1.11654012E-02  2.07605915E-01
  3.20083745E-01 -1.25510514E-02 -5.19836183E-02  5.83559808E-01  1.18235292E-01
 -1.52970432E-01  2.37768597E-03 -7.16070847E-01  1.41784383E-01 -3.25996725E-02
  2.45847059E-01 -1.04680643E-02  1.20935835E-02 -2.09473185E-01  3.21145518E-01
  5.57364653E-01 -2.39074449E-01 -9.16428949E-01  1.08827033E-01 -1.40469770E-02
 -7.19175645E-01  2.04375387E+00 -8.60701211E-01  4.42859828E-01 -4.88926989E-03
  7.19025884E-01 -2.04166901E+00  8.59894018E-01  4.42515999E-01  4.54249616E-03
 -5.57041523E-01  2.34823226E-01  9.14713247E-01  1.08591344E-01  1.42954937E-02
 -1.03010744E-02 -4.43742807E-02  1.74403603E-01 -4.51456696E-01 -5.46485038E-04
 -1.74053716E-04  5.11613747E+00 -9.19854577E-03 -5.95491636E-03 -6.69298406E-01
 -3.63677923E-03 -1.35301698E-03  2.75400413E+00  1.18188418E-04  2.03567215E-03
  3.31760297E-03  3.75256672E-02 -4.11559615E-02  1.52427102E-02  4.57576180E-04
 -2.79998013E+00 -1.02966011E+00  4.02362401E-03  3.66081692E-02  2.51637578E-03
  4.35847959E-03  1.23930980E+00 -1.15997511E+00  2.89047966E-04  1.69511153E-03
  1.98084947E-02  1.29076704E-01  9.00615554E-02 -7.99503937E-04  1.53751680E-01
  4.22262417E-01 -4.65270589E-03  1.59750616E-01  3.67348043E-03 -7.98372700E-03
  1.36903876E-02  8.79407056E-02  7.30038477E-04  3.11896539E-03 -6.58651531E-02
 -2.23561848E-02  4.51599071E-04 -3.38071250E-04  3.20799058E-01  8.99828661E-03
  1.38101469E-03 -1.24467980E-01 -1.93173238E-02  8.31819180E-05  3.99716511E-01
 -6.40798727E-07  2.85629456E-04  1.68036004E-03  2.00388038E-02  1.28678787E-01
 -9.02334267E-02 -8.69994886E-04  1.38858709E-01 -4.24032342E-01 -5.38343279E-03
  1.59364054E-01  3.98528773E-03  8.12719751E-03  1.32905772E-02 -8.26094220E-02
  2.03967972E-03  3.31912472E-03  3.78024997E-02 -4.14096114E-02 -1.48873708E-02
  5.11070900E-04 -2.81446670E+00  1.03156374E+00  7.01561637E-03  3.71427470E-02
  2.63459283E-03 -5.97572984E-03  1.23874893E+00  1.16509969E+00 -5.65693403E-03
 -2.19761113E-02  2.05908752E-01 -3.19768958E-01 -4.03115749E-04  1.88137823E-04
  4.63073815E+00  4.05674036E-03 -2.34728211E-03  5.18157470E-01 -1.95726853E-03
 -1.86558182E-03 -4.27815962E+00 -4.50258161E-03  3.05090733E-03  1.25213940E-02
 -9.04747970E-02  5.47256418E-02  2.23405056E-06 -3.06338676E-04  2.01348327E-01
 -1.25536772E-03  3.45828851E-02 -5.16740583E-02  3.80940778E-03 -6.96729734E-05
  1.52924648E-02  2.74958498E-04  6.43686708E-03 -2.79565578E-01  3.86327183E-02
 -1.02625020E-01  1.59677992E-02  6.56059090E-03 -2.79444546E-01  3.85670084E-02
  1.02708498E-01  1.60933000E-02  4.71409982E-03  2.25098923E-02 -2.12797938E-01
  1.82867899E-01 -1.62193069E-01  1.09714139E-05 -3.14038517E+00  1.57948946E+00
 -8.66492791E-04 -3.20350001E-02  5.82252662E-04 -4.62280337E-04 -1.01873789E+00
 -1.08970362E+00  4.72311815E-03  2.25463416E-02 -2.13309158E-01  1.82560401E-01
  1.62542636E-01 -2.31147955E-04 -3.13862897E+00 -1.58407135E+00  1.11466629E-03
 -3.23183885E-02 -4.26559730E-04 -4.60139501E-04 -1.02101219E+00  1.08686947E+00
  2.07073581E-01 -1.62335392E-02  4.47303880E-01 -3.90800501E-01  1.48380354E-03
  7.75580174E-02  1.30987360E-01  6.32255786E-02  1.82833841E-02 -7.00924332E-03
  7.66256569E-02  1.33184365E-01  6.26224290E-02 -1.91821461E-02 -7.20471675E-03
  2.08024315E-01 -1.77893161E-02  4.45044165E-01  3.90826854E-01  1.31149105E-03
 -2.09241385E-05 -8.45469633E-05  1.28408926E-03 -2.44825092E-04 -1.16400282E-01
  1.77062829E-04 -4.85735476E-03 -2.44913840E+00 -1.31590290E-04  5.84495154E-05
 -4.27359639E-04  6.36874005E-03 -3.93904441E-03  5.27422702E+00 -5.29916978E-03
 -2.82449470E-02  5.16565042E-01 -3.82314239E-01  4.95860596E-01  9.62050800E-04
  4.44670989E-01  5.72897276E+00  1.36442350E-02 -8.13581586E-02  3.89457479E-03
  6.75862824E-03 -2.24340995E+00  1.14801215E+00 -1.16012023E-03 -8.30600367E-03
  2.90127766E-01 -2.96860674E-01 -1.81762135E-01 -4.25357293E-03 -1.89837718E+00
 -3.76039552E+00 -4.32198398E-02  3.89190214E-02  1.83322858E-03 -1.36418431E-02
  1.08349103E+00  1.27210727E+00  8.57827691E-06  4.35774844E-05 -8.66229705E-04
  1.71441065E-04  1.27911680E-01  4.22121890E-06 -5.32447095E-03 -1.46761128E+00
  5.05762665E-04  2.09767626E-04 -5.20703646E-04 -6.35308797E-02  2.50253911E-03
  1.38782041E+00  1.14769020E-03  8.24881028E-03 -2.88908052E-01  2.96580739E-01
 -1.81584289E-01  3.98805449E-03  1.90155702E+00 -3.74907390E+00  4.00101242E-02
 -3.94232927E-02 -6.33060302E-04 -1.31175252E-02 -1.08148668E+00  1.26758255E+00
  5.31461449E-03  2.83215341E-02 -5.18031656E-01  3.82828851E-01  4.95945034E-01
 -6.87875561E-04 -4.34781365E-01  5.71767908E+00 -9.95735186E-03  8.12799470E-02
 -2.87932060E-03  3.69084753E-03  2.23920355E+00  1.13938940E+00  1.19922027E-05
  4.36245434E-05 -2.71738483E-04 -2.68317100E-04  1.95884871E-01 -1.13902688E-04
 -7.92706014E-04  4.30435851E+00 -4.10960303E-04 -1.30931197E-04 -1.74979633E-03
 -6.61682608E-03 -4.27127187E-03  4.15553160E+00  1.75193962E-06  9.85362498E-06
 -1.02184612E-04  1.16166742E-04 -4.83591897E-02  1.74494777E-05 -8.11023894E-04
  4.74030463E-02  3.11189044E-04  1.06882677E-04  6.26589342E-05  3.88461364E-02
  2.65424931E-04  6.07122760E-01  2.51508908E-02  7.84941176E-01  6.91134117E-02
  1.75411746E-01 -4.60537662E-02 -2.51813967E-02 -7.83662300E-01 -6.89681726E-02
  1.74944057E-01  4.63492121E-02  1.59100233E-02  6.80833877E-02 -7.76598267E-01
 -1.57537514E-01 -2.67442144E-01  2.38173409E-04  1.75008504E+00  8.55389076E-02
 -4.09554831E-03 -3.15076189E-01 -1.40818428E-03 -1.50415813E-03  5.61538475E-01
  6.60129916E-01 -1.59093805E-02 -6.80908024E-02  7.76887580E-01  1.57717239E-01
 -2.67219026E-01  6.18687601E-05 -1.75042635E+00  8.30313102E-02  3.57175426E-03
  3.15254846E-01  3.92290708E-04 -1.23200996E-03 -5.62994986E-01  6.58825663E-01
 -3.29131230E-01  1.29866124E+00 -1.77313353E-01  5.18337351E-01  2.40682657E-03
  2.17116337E-01  8.23760226E-02  2.36306381E-01  4.91313568E-02  3.85517500E-03
 -2.16703782E-01 -8.40015138E-02 -2.35701367E-01  4.91766626E-02 -3.89975719E-03
  3.28058433E-01 -1.29844345E+00  1.76036802E-01  5.17358911E-01 -8.77822821E-04
 -1.82258853E-02 -8.14825841E-02  1.43229421E+00  6.15443123E-02 -4.57726368E-04
  1.48909429E-03 -1.04135777E+01 -1.34564781E-02 -1.63313283E-02 -2.62916349E-01
 -2.90558584E-02  2.30877251E-03 -5.41145744E+00 -1.58436486E-03  1.22121237E-02
  5.85308763E-02 -1.13857323E+00 -1.10771709E-02  6.21752824E-02  6.09362370E-03
  6.30744692E+00  1.07229739E+01  6.62622310E-02  3.97520544E-01  2.57278976E-02
  1.13744852E-02 -2.42960836E+00  5.42518807E+00 -1.43119534E-02 -6.48653463E-02
  1.17382429E+00  5.25493833E-02 -3.98236266E-02 -6.95917897E-03  6.64080837E+00
 -1.09854179E+01 -6.87434567E-02 -3.91151687E-01  4.70806253E-02 -2.26398806E-02
  2.77044020E+00  5.51882943E+00  1.54139515E-02  7.22846217E-02 -1.38517895E+00
  1.93220989E-01  4.46203676E-04 -2.63905764E-02 -1.08617454E+01  1.80938313E-02
 -3.34848191E-02  2.34927263E-01 -1.11316283E-01  4.31207111E-04  6.39816296E+00
 -5.72697141E-03 -1.43105484E-02 -6.48694326E-02  1.17436553E+00  5.18078888E-02
  3.99803417E-02 -6.82895112E-03  6.61476743E+00  1.09964066E+01 -6.61855204E-02
 -3.90469862E-01  4.49478469E-02  2.37029361E-02  2.76986631E+00 -5.51874141E+00
  1.22020602E-02  5.84752645E-02 -1.13710369E+00 -1.16233511E-02 -6.27560803E-02
  6.27541049E-03  6.27621406E+00 -1.07417492E+01  5.91750278E-02  3.97331672E-01
  2.39148940E-02 -8.38980694E-03 -2.43738308E+00 -5.42078356E+00 -9.47910949E-03
 -4.15568179E-02  2.92019934E-01  3.23853269E-01  9.99763509E-05 -3.37984493E-04
 -1.51010428E-01 -5.22421751E-04 -1.42960930E-02 -4.48268187E-02 -6.74189757E-03
 -5.21391701E-04 -2.72145600E-02 -1.37399699E-03  1.34944265E-02  6.17873068E-02
 -5.32407642E-01  5.09544615E-01 -6.05148401E-05 -1.82403285E-02 -6.68353046E-01
 -7.77956217E-04  5.81398706E-02 -9.01759005E-02 -9.21260228E-02 -1.85509456E-05
 -4.58112103E-01 -4.85904037E-04 -2.03427628E-02 -1.60229036E-01  2.93575069E-01
  2.19041563E-01  3.33806357E-02 -2.00776977E-02 -1.58139037E-01  2.93888904E-01
 -2.19650568E-01  3.34577421E-02  1.62677440E-03  5.18316256E-03 -3.47236959E-02
 -3.75514943E-02 -4.60222329E-03 -5.97230909E-05 -2.18808142E-02 -1.57691156E-02
  7.82507317E-04  3.19720659E-02  2.39589368E-03 -1.31037734E-04 -8.23521559E-02
 -4.18968038E-02  1.64662438E-03  5.26090976E-03 -3.55961603E-02 -3.77108917E-02
  4.87899702E-03 -1.20462699E-04 -2.08559888E-02  1.51171616E-02  1.38699021E-03
  3.16440594E-02  2.46360912E-03 -5.36150198E-05 -8.25342151E-02  4.13894033E-02
 -7.67818346E-01  2.26246145E+00  5.23797987E-01  5.01406337E-01  2.46749020E-03
  7.61654971E-01 -2.10783360E+00  5.06470631E-01 -5.25767846E-01 -2.70033513E-03
  7.61746127E-01 -2.10611406E+00  5.07927268E-01  5.24521526E-01 -2.62424230E-03
 -7.67785367E-01  2.26339278E+00  5.24319047E-01 -5.01418392E-01  1.85384571E-03
 -1.25412245E+00  1.31574656E+00 -5.47413789E-01  4.70783280E-02  9.85682103E-07
 -4.29284773E-05 -3.26143346E-01  5.02752911E-03 -6.18629409E-03 -3.42490636E-02
  8.93817116E-04 -4.62661404E-05 -3.61707127E-02 -5.23032100E-05 -1.43049987E+00
  1.49991970E+00 -5.51913563E-01  3.12180555E-02  1.60200703E-02 -1.08109730E-03
 -3.42490973E-02  3.85697523E-01  2.47344117E-03  1.32716679E-01 -2.00896724E-03
  1.86232933E-03 -3.58162961E-02 -7.17176127E-02 -1.52024212E+00  1.59396922E+00
 -5.87720878E-01 -4.47485942E-02  2.24249150E-02  1.35969028E-03 -2.06310630E-01
 -1.57993874E-01 -2.94970153E-02  7.61846942E-02 -1.26312995E-02 -1.43581627E-02
 -6.41618637E-03 -5.99534314E-02 -1.27264671E+00  1.33581880E+00 -5.62300385E-01
 -8.56897647E-02  3.87831191E-05  3.24941214E-03 -1.11988329E+00 -4.54649758E-03
  8.30972879E-02  1.06290884E-01  4.56613816E-04  4.62149352E-05 -2.92664596E-01
  1.33814399E-04 -1.52022520E+00  1.59395313E+00 -5.87791262E-01 -4.47718801E-02
 -2.24009099E-02  1.36616195E-03 -1.97907565E-01  1.53747025E-01 -2.92957029E-02
  7.61842270E-02 -1.27591940E-02  1.43533662E-02 -6.04975742E-03  5.98282072E-02
 -1.43047926E+00  1.49990061E+00 -5.51986288E-01  3.11596818E-02 -1.60180180E-02
 -1.11790013E-03 -2.63104995E-02 -3.81142308E-01  1.96020960E-03  1.32669307E-01
 -1.99682834E-03 -2.21547620E-03 -3.57521899E-02  7.14824214E-02 -3.15930972E-02
  2.90567042E-02  1.32227297E-02  3.81264817E-03  4.23676517E-05 -2.58718562E-05
  4.45079577E-02 -6.31533742E-04  2.21850445E-03  1.10526539E-02  8.25420257E-05
  1.11652111E-04  3.98735256E-02 -1.17619220E-04 -2.19158592E-02  2.00810455E-02
  1.79683630E-04 -2.19927375E-02  6.52517152E-06  8.70834900E-03 -9.78749196E-01
  1.00901803E-03 -1.41330133E-01  1.35581726E-01 -4.22260955E-02 -2.31633182E-04
  2.14087974E-01 -6.61128332E-05 -1.71191701E-02  1.00486983E+00 -1.32215803E-01
  1.46296394E-01 -2.17669046E-02 -1.71763226E-02  1.00424783E+00 -1.32363881E-01
 -1.45939566E-01 -2.18483376E-02 -3.22592825E-02  2.65903500E-02  3.86760284E-02
  2.01162718E-03  9.40699746E-03 -6.36025524E-06 -1.28265803E-02 -4.38213947E-02
 -2.86590951E-04  1.58399992E-02 -7.93711360E-05 -2.85261687E-04 -9.22708191E-03
 -1.88608336E-02 -3.22803135E-02  2.66067817E-02  3.87434444E-02  2.02543845E-03
 -9.40297932E-03  5.19164857E-06 -1.27815453E-02  4.38004098E-02 -4.00026627E-04
  1.58006760E-02 -1.44223395E-04  3.08760320E-04 -9.20866589E-03  1.89631683E-02
 -2.30537439E-02  6.00762853E-01  6.83596708E-02  1.13028034E-02 -2.47942201E-03
 -2.44837418E-02  2.85463444E-01 -3.77874501E-03  4.30471375E-02 -3.41659168E-03
 -2.44596377E-02  2.85387249E-01 -4.57135357E-03 -4.25896989E-02 -3.40906681E-03
 -2.30697057E-02  6.00492411E-01  6.75803418E-02 -1.16651452E-02 -2.41772555E-03
  1.11617331E-04 -1.20943355E-04  1.03167965E-04 -2.28668264E-06 -8.99877492E-02
 -3.14179798E-05 -5.83882791E-05 -8.23811101E-01 -8.00758445E-05 -4.11736188E-06
 -1.34143976E-04 -1.60714538E-04 -2.58503688E-04 -4.72652358E-01 -1.77182748E+00
  1.90641088E+00 -1.27371340E+00  1.96360290E-02 -7.96957305E-02  2.99023196E-04
 -1.66700999E-01 -7.53946311E-01  7.38262509E-04 -1.07309478E-01 -8.18855749E-05
  8.41820647E-04  1.93252023E-01  1.42214754E-01 -1.83112379E+00  1.97013441E+00
 -1.30520452E+00 -1.53117931E-02 -8.00346213E-02 -4.84498053E-04 -4.59356241E-01
 -1.10978947E+00 -2.93919959E-03 -1.03891286E-01 -1.46820922E-04 -1.43297981E-03
  1.80143220E-01 -1.60086399E-01 -1.69915423E-04  1.82885506E-04 -1.36087156E-04
 -1.79885603E-05 -8.81667311E-02 -6.74664943E-07 -3.66467520E-04 -1.61357848E+00
 -1.28779617E-04 -6.49083468E-05 -1.35525216E-05 -9.69734774E-03  2.31501892E-04
  4.79555769E-01  1.83108224E+00 -1.97009022E+00  1.30513120E+00  1.52798778E-02
 -8.00254589E-02  4.66952425E-04  4.59368955E-01 -1.11021964E+00  2.90645027E-03
  1.03934924E-01  1.46357916E-04 -1.44942639E-03 -1.80333616E-01 -1.59868655E-01
  1.77197248E+00 -1.90656768E+00  1.27376006E+00 -1.95988109E-02 -7.96662378E-02
 -3.70685409E-04  1.66320918E-01 -7.54052259E-01 -1.54468061E-03  1.07311083E-01
  1.68457282E-04  8.02608050E-04 -1.93032134E-01  1.42279584E-01 -1.56101587E-05
  1.39887310E-05  2.50878245E-05  2.88045242E-05 -1.78231349E-02  6.25667103E-06
  3.18701921E-05 -3.17940316E-02 -7.51402471E-05  2.82074467E-05  2.49912222E-05
  2.61836096E-04  7.52274962E-05 -3.61024687E-02  1.34376988E-05 -1.28813358E-05
 -7.69840695E-06 -7.56094731E-06 -2.36368655E-02 -4.99163104E-06  1.23543255E-04
  2.04212342E-01  1.35855386E-04  1.06456624E-05  5.57923619E-05  1.90058523E-02
 -1.06298244E-05  2.85366899E-02  3.11185467E-03  1.93605562E-01  2.67433203E-02
  5.09113454E-02 -1.55992396E-03 -3.13452756E-03 -1.93726023E-01 -2.66883565E-02
  5.09177523E-02  1.58522159E-03 -6.59738818E-03  5.45796541E-03  1.46045555E-02
  6.32206155E-03 -2.96740592E-03  1.90655900E-05 -5.21743806E-02  1.63441640E-02
  7.33947750E-05  1.76337277E-02 -7.01747815E-06  8.67793731E-05 -1.97040065E-02
  4.00097953E-03  6.60404237E-03 -5.46426327E-03 -1.45959296E-02 -6.31603044E-03
 -2.96452573E-03 -2.67610457E-05  5.21017670E-02  1.62634209E-02 -4.52737339E-06
 -1.76416044E-02  4.50209775E-05  9.77549393E-05  1.97179393E-02  4.02252941E-03
  5.67375599E-02 -7.98581550E-01 -9.27160762E-02 -1.96539909E-01  1.16245017E-03
  6.14259344E-02 -8.33992342E-01  1.40049870E-01 -1.80421278E-01  5.24725435E-04
 -6.14637978E-02  8.33979802E-01 -1.40063290E-01 -1.80381427E-01 -6.29486519E-04
 -5.68006553E-02  7.98804160E-01  9.25826226E-02 -1.96665123E-01 -1.45298756E-03
  1.92570835E+00 -2.07787354E+00  1.50106769E+00  8.23739084E-03 -2.50536656E-05
 -2.10894408E-04  3.79673884E-01 -2.11646112E-03  5.21653689E-03  1.03947445E-01
  1.38968677E-03 -1.95668182E-05  1.22954430E-01 -4.26509884E-05  1.18017770E+00
 -1.27306190E+00  8.78592321E-01  7.98944960E-02 -5.47110471E-03 -6.01604153E-04
  8.99877390E-01  8.64871798E-02 -1.41679888E-02  5.91469174E-02 -4.61242996E-03
  7.54194439E-04  3.62147703E-01  9.03768580E-02 -1.01679034E+00  1.09719616E+00
 -7.74084869E-01  8.31473048E-02  1.16990787E-02  1.75858275E-04  8.80849583E-01
  7.46941271E-02  4.67283893E-03 -5.08280042E-02 -9.44943765E-03 -1.11498832E-02
 -3.85169446E-01  1.21456797E-01 -2.12380988E+00  2.29154500E+00 -1.60084517E+00
  1.97469899E-02  1.34884325E-05  5.63425349E-04  7.52722705E-01  1.90476750E-03
  1.39990246E-02 -1.28330697E-01 -1.26594636E-02  6.99283020E-05 -9.71321504E-02
 -5.11279429E-05 -1.01768082E+00  1.09815578E+00 -7.74641243E-01  8.31760167E-02
 -1.16930775E-02  1.46515988E-04  8.77185918E-01 -7.29491813E-02  4.54856694E-03
 -5.07529699E-02 -9.42090915E-03  1.12998034E-02 -3.85442055E-01 -1.21115148E-01
  1.18065397E+00 -1.27357485E+00  8.78797814E-01  7.99385555E-02  5.42437935E-03
 -6.55340265E-04  8.96188001E-01 -8.85686694E-02 -1.46191463E-02  5.90612328E-02
 -4.76443695E-03 -8.96031892E-04  3.62380624E-01 -9.05046641E-02  6.17943852E-02
 -5.94748179E-02 -1.34445713E-02 -2.18864465E-02 -2.82678994E-05  1.86624009E-04
  8.10213347E-02  1.29936479E-04 -1.21068836E-03 -4.63571074E-02 -1.44390911E-04
  1.92852777E-05 -1.65404777E-01 -6.48603014E-05 -5.84346161E-02  5.58847335E-02
  5.07794733E-03 -4.18269530E-02  1.62772355E-05  5.55982913E-03  2.73107057E-01
 -1.87363147E-04  1.60154947E-06  6.15718105E-02 -6.75994696E-03 -1.01331606E-04
  1.47698227E-01 -7.74842848E-05  2.78048988E-02 -1.42876085E-01  2.03784658E-02
 -1.56162289E-01  2.32538977E-02  2.78073811E-02 -1.42846077E-01  2.05229102E-02
  1.56113701E-01  2.34087861E-02  1.94484523E-02 -1.59220112E-02 -4.62206019E-02
 -1.21288543E-02 -1.65310623E-02 -6.84657094E-06  2.43127200E-04  8.24928975E-02
  2.07590505E-04 -3.58363283E-02 -6.96726054E-05  1.24421253E-04  8.35318679E-03
 -3.97348156E-03  1.94611314E-02 -1.59338781E-02 -4.62082138E-02 -1.21487621E-02
  1.65170234E-02 -3.85441105E-05  1.61801305E-04 -8.26394709E-02  1.98634738E-04
 -3.58731655E-02 -7.97095990E-05 -1.13265941E-04  8.30969997E-03  3.97326103E-03
 -3.22543044E-02  5.94207758E-01  1.19972429E-01  6.66685924E-02  1.40939197E-04
  2.77396352E-02 -4.81591131E-01  8.77743318E-02 -6.20645643E-02 -1.13550824E-02
  2.77068681E-02 -4.81567974E-01  8.81242894E-02  6.18488413E-02 -1.13529168E-02
 -3.22371348E-02  5.94292407E-01  1.20271086E-01 -6.65670219E-02 -1.42800902E-04
 -8.03958683E-05  8.74874256E-05 -1.00445436E-04 -1.78995327E-06 -5.37700652E-02
 -2.56120731E-05  3.18208782E-04  4.51075988E-01  1.24078302E-04  2.27826934E-05
  2.55058897E-05 -1.17155884E-03  2.03013935E-05 -3.44807500E-01 -1.86553424E+00
  2.02876431E+00 -1.43047848E+00 -7.74992848E-02 -6.34338219E-02  3.69032503E-04
 -1.06819274E+00  8.20408320E-01  3.99687090E-03 -4.25464375E-02  2.61608962E-03
 -2.40112443E-04 -2.82892912E-01  1.17529832E-01  1.80464165E+00 -1.96239987E+00
  1.36955137E+00 -7.80460601E-02  5.83340153E-02 -4.78167564E-04 -1.07683700E+00
 -8.90663076E-01 -3.92219406E-03  3.19232320E-02  4.23143936E-03  2.27152001E-03
  2.95548129E-01  1.12619453E-01  1.28126454E-03 -1.39304942E-03  9.59613992E-04
  1.64416416E-05  5.23126797E-02 -2.59607296E-07 -3.40057953E-04 -5.11939721E-01
  1.68348855E-05 -5.06234198E-05 -1.11365590E-04  1.15046525E-03 -1.67724017E-04
 -3.06760733E-01 -1.80536261E+00  1.96318215E+00 -1.37000492E+00  7.80267690E-02
  5.83912716E-02  4.51392372E-04  1.07621243E+00 -8.91199639E-01  3.44898063E-03
 -3.18228350E-02 -4.08315902E-03  2.31358782E-03 -2.95268473E-01  1.13048047E-01
  1.86523624E+00 -2.02843780E+00  1.43007650E+00  7.74222339E-02 -6.34582538E-02
 -4.35709083E-04  1.06800212E+00  8.20491254E-01 -4.08029107E-03  4.24229585E-02
 -2.69834506E-03 -4.44993943E-04  2.83146364E-01  1.17522572E-01  1.51010345E-05
 -1.49975263E-05  3.36100505E-06  3.11405728E-05 -1.13415704E-02  1.36761306E-05
 -7.33171245E-05 -2.10751147E-01 -3.66835258E-05  1.12142925E-05  8.96574976E-05
  4.25840062E-04  1.23234698E-04 -6.26848310E-02  3.48195161E-05 -3.41668864E-05
  1.20840662E-05  2.40919133E-05  1.06799090E-02  5.60305582E-06  1.64063434E-04
  2.78986426E-01  1.59707377E-04  3.35825504E-05  3.16684730E-05  8.00690109E-03
 -1.04721084E-04  3.52541355E-02  1.41542206E-02  1.70916375E-01 -2.86565380E-03
  1.19026733E-01 -1.06999995E-02 -1.41623025E-02 -1.71064211E-01  2.96685690E-03
  1.18960356E-01  1.07551297E-02 -8.11878451E-03  7.23630646E-03  4.01206181E-03
  3.65687453E-03  8.26916437E-03 -1.04074059E-05 -3.95814487E-02 -4.99608010E-02
  3.02854759E-04  2.47376800E-02  6.43566830E-05  5.74019833E-05 -1.83647349E-02
 -1.13734281E-02  8.10347029E-03 -7.22343622E-03 -3.97890973E-03 -3.64717240E-03
  8.27946594E-03  9.02066121E-06  3.95880750E-02 -4.99795874E-02 -1.94209637E-04
 -2.47074747E-02 -5.35720623E-05 -1.21474368E-05  1.83742226E-02 -1.14715211E-02
 -1.43705513E-02 -6.56678404E-02  9.09700072E-03 -4.78496718E-03  1.78537053E-04
  1.61719023E-02  8.97562554E-03  3.58881243E-02 -3.85143288E-03  4.13205579E-03
 -1.61911857E-02 -8.69315051E-03 -3.60581513E-02 -3.77716361E-03 -4.13267628E-03
  1.43832958E-02  6.54918506E-02 -9.03912104E-03 -4.71754757E-03 -1.70612108E-04
 -2.28689550E+00  2.49107870E+00 -1.82855501E+00 -3.21053941E-02  1.26705281E-05
 -2.44647253E-04 -3.68446678E-01  9.68189786E-04  1.86896943E-03 -2.77487275E-02
 -8.49743396E-05  5.04741985E-05  1.10682048E-01 -3.49924095E-04  8.36548874E-01
 -9.10672923E-01  6.40630101E-01 -2.12133749E-02  6.78852358E-02 -2.43124401E-04
 -2.46144226E-01  2.79257583E-01 -6.80827459E-03  3.92529396E-02 -2.11321017E-03
  7.87328758E-04 -3.19678840E-01 -1.89938154E-01  1.06076330E+00 -1.15480107E+00
  8.24110619E-01  2.91492635E-03  6.85108751E-02 -2.69431584E-04  1.63856725E-01
  3.72597326E-02 -3.57941706E-03  2.13960356E-02 -5.66597973E-03 -1.13716225E-02
 -2.09733819E-01  2.07438292E-01 -2.16043315E+00  2.35304446E+00 -1.68725347E+00
  2.31769847E-02 -1.28320398E-06  1.46676395E-03 -1.59792954E-01 -3.21452333E-04
  1.24604731E-02  3.31209453E-02 -1.99449647E-02 -1.94107852E-05  1.46337974E-01
 -1.14830061E-04  1.05974652E+00 -1.15369378E+00  8.23227077E-01  2.92932438E-03
 -6.85094618E-02 -2.79858983E-04  1.64867762E-01 -3.82064364E-02 -3.76490542E-03
  2.13028890E-02 -5.54408153E-03  1.13276982E-02 -2.10088730E-01 -2.07157148E-01
  8.37493434E-01 -9.11702201E-01  6.41360163E-01 -2.12005407E-02 -6.79223617E-02
 -2.83410646E-04 -2.44759989E-01 -2.78113623E-01 -6.89537929E-03  3.92176785E-02
 -1.67204704E-03 -5.15939499E-04 -3.19447542E-01  1.90243750E-01 -1.72755456E-02
  1.79428358E-02 -3.34789253E-02 -2.88379965E-03  1.39516832E-05  9.84079905E-05
  2.24890337E-02 -4.58674052E-04 -1.04918389E-03 -8.59119556E-02 -3.12355211E-04
  1.38549171E-04  2.10346681E-01 -4.43535863E-05  1.43111000E-04  8.54376471E-04
 -5.18302150E-02 -1.07340544E-02  8.46476847E-07  5.26523692E-03 -3.52480019E-01
  1.60571583E-04 -4.20339957E-02 -3.88193273E-02 -3.64099496E-02 -1.18253924E-04
  1.61106990E-01 -8.26488481E-05 -4.72332392E-03  2.62076987E-01 -2.62506384E-02
  1.11061726E-02  1.40399641E-02 -4.71489235E-03  2.62097639E-01 -2.62789176E-02
 -1.10149717E-02  1.40993411E-02 -1.52531081E-02  1.31139365E-02  2.42939775E-02
  3.47821683E-03  6.35474576E-03  8.18393710E-06  3.51653615E-02 -6.96410585E-02
  1.17549934E-04  4.48248944E-02 -1.47807055E-05  1.30443462E-04  7.34687327E-03
  1.17285063E-02 -1.52656515E-02  1.31255852E-02  2.42992030E-02  3.49270156E-03
 -6.35079309E-03  2.55061448E-05  3.52930760E-02  6.98166561E-02 -1.02972216E-04
  4.48215450E-02 -4.38460118E-05 -5.47232934E-05  7.42969382E-03 -1.16873981E-02
 -2.14967353E-03  7.23707289E-02 -1.76595304E-01  9.95726292E-02  2.23495311E-04
  1.14351702E-03  4.01601843E-02  1.57297192E-01  9.65173721E-02 -8.74766579E-03
  1.09579360E-03  3.99374881E-02  1.57246608E-01 -9.65667391E-02 -8.74791165E-03
 -2.15387158E-03  7.20548640E-02 -1.76689352E-01 -9.94892923E-02  2.04393789E-04
  1.65938445E+00 -1.82158464E+00  1.34515615E+00  4.88640927E-02 -7.67684074E-05
  1.18821637E-04 -1.36244460E+00 -2.49048555E-03 -2.36324036E-03 -3.40892752E-01
 -1.68601511E-03  5.40037924E-04 -9.11679223E-01  3.92867349E-04 -1.53802544E+00
  1.68775178E+00 -1.24560845E+00 -3.25639149E-02 -8.31373888E-02  2.65478479E-04
  9.62962684E-01  1.80673002E+00  1.45861177E-03  3.10908999E-01 -1.21528467E-03
  1.65909559E-03 -3.31707694E-01  8.24288531E-01  1.41533098E+00 -1.55317501E+00
  1.13064872E+00 -3.53422373E-02  6.51902845E-02 -8.28003606E-04  1.03320157E+00
 -2.05774554E+00 -6.16076311E-03 -3.24868094E-01 -9.70140222E-04 -7.36033038E-03
  3.76357712E-01  7.85118442E-01 -1.55970504E+00  1.71184860E+00 -1.27490839E+00
  4.71125754E-02  3.05004239E-05 -1.38044338E-03 -1.98632923E+00  3.09839267E-03
  4.35247126E-04  3.59833712E-01 -2.03553471E-02  1.61334421E-04  8.64056315E-01
 -5.28472240E-04  1.41456181E+00 -1.55233018E+00  1.12997487E+00 -3.53002352E-02
 -6.52010235E-02 -7.73858194E-04  1.02937041E+00  2.05896807E+00 -5.95702614E-03
 -3.24805402E-01 -1.46919918E-03  7.71166641E-03  3.75524329E-01 -7.85136231E-01
 -1.53732572E+00  1.68698093E+00 -1.24485888E+00 -3.24145931E-02  8.31377385E-02
  3.34899823E-04  9.58046182E-01 -1.80861401E+00  3.56208640E-04  3.10877633E-01
 -1.41685348E-03 -1.41509052E-03 -3.32088064E-01 -8.23821026E-01 -8.61166406E-03
  6.77420059E-03  4.77576815E-02  1.49812235E-02  2.16167395E-05 -9.39724016E-06
 -5.55901649E-02  3.53231978E-04 -4.84440254E-04  1.23707603E-01 -4.73875769E-04
 -1.82767718E-04 -1.16595421E-01  1.32180802E-04 -3.46288804E-02  3.57955159E-02
 -4.69308757E-02  1.67960380E-02 -3.42407721E-06  1.70554042E-03 -5.02511475E-01
  4.30149097E-05 -4.31630172E-02 -4.85756418E-02 -4.53459646E-02 -9.56040143E-05
  6.10613426E-02 -1.83579053E-05 -3.87034832E-03  3.43309862E-01 -7.07346579E-03
  1.23604974E-01  5.74184180E-03 -3.83204530E-03  3.43272227E-01 -7.07862316E-03
 -1.23563563E-01  5.76761885E-03  1.51069076E-02 -1.37379245E-02 -4.21618309E-03
 -3.49921238E-03  7.08525258E-03 -1.85747042E-05 -2.97786109E-02 -9.23213242E-03
 -9.91405929E-05 -2.36362608E-02  9.88265247E-05 -1.37021316E-04 -9.61460018E-03
 -3.15998135E-02  1.51189945E-02 -1.37500068E-02 -4.20058601E-03 -3.49724358E-03
 -7.07478287E-03 -2.53550490E-05 -2.99604939E-02  8.96266725E-03  1.76856936E-04
 -2.36348509E-02  1.36219962E-04  6.54731036E-05 -9.77682066E-03  3.15973970E-02
 -3.55543968E-02  4.55166297E-01  1.05506165E-01  2.83455194E-02 -6.78779719E-04
  5.42098687E-02 -7.00915521E-01  1.27841527E-01 -6.43041886E-02 -2.68498321E-03
  5.41755752E-02 -7.00745398E-01  1.28130622E-01  6.40030589E-02 -2.52889060E-03
 -3.55250449E-02  4.55042907E-01  1.05632264E-01 -2.82532361E-02 -8.66718688E-04
 -4.95188417E-02  5.72807577E-02 -8.16654656E-02 -4.91160366E-03  2.15023301E-06
  2.34707409E-04 -1.25426398E-02 -4.80684789E-04 -2.39557147E-04  9.98654592E-03
 -1.21759158E-03 -3.98807031E-05 -2.11227010E-02  8.61641423E-06  6.50844018E-03
 -8.12359935E-03  2.56264883E-02  1.48942519E-02  9.86523763E-03  9.50112194E-04
 -8.01551174E-02  5.40267880E-02  8.72632788E-03 -5.85674577E-02  3.55720610E-03
 -6.16411865E-04 -1.31129804E-02  5.31284257E-02  1.81471353E-02 -2.23678818E-02
  1.10913466E-01  4.34560066E-02 -2.09296474E-03 -4.21453331E-04  3.49900733E-02
 -6.83217266E-02 -8.19201004E-03  1.48251672E-01  8.67448561E-03  9.48719737E-04
  6.96988448E-02  1.69014427E-01  7.58797993E-02 -8.58242409E-02 -1.02816222E-01
  1.85649493E-02 -2.53310815E-06  3.73227627E-04  1.70322353E-01  2.42276586E-04
  5.58904158E-03 -1.87345438E-01 -5.06846413E-03 -3.14877280E-07  5.93312037E-01
 -3.79163170E-04  1.81474919E-02 -2.23676221E-02  1.10885394E-01  4.34454849E-02
  2.06956594E-03 -4.28425206E-04  3.44060011E-02  6.84794574E-02 -8.10876633E-03
  1.48231467E-01  8.61788101E-03 -9.72036022E-04  6.95874655E-02 -1.69025608E-01
  6.55403943E-03 -8.17664228E-03  2.57258176E-02  1.48905817E-02 -9.86961037E-03
  9.34020587E-04 -8.09299875E-02 -5.42506099E-02  8.79131722E-03 -5.85181591E-02
  3.44534130E-03  6.68654472E-04 -1.31391568E-02 -5.30382517E-02 -7.64259706E-02
  8.20827670E-02 -2.29835452E-02  5.15176222E-03  1.00118411E-06 -3.11650927E-05
 -1.15733331E-02  6.62365483E-05 -7.52543453E-04  6.47453428E-04 -8.32514617E-05
 -1.64079107E-05  1.25816617E-02  8.06091170E-06 -3.62992940E+00  3.89833234E+00
 -1.08775064E+00  9.88508744E-02 -2.30242367E-05 -7.69598567E-03 -1.19653419E-01
  8.93799942E-05 -7.85703859E-03 -1.07317060E-01  1.08688016E-02  2.28434622E-05
  5.38775127E-02 -2.21785351E-05  4.29344059E-02 -9.15099565E-02 -4.46235896E-02
  4.81824173E-02 -3.32036706E-03  4.29365386E-02 -9.16993923E-02 -4.46092673E-02
 -4.81068916E-02 -3.32623641E-03  4.96231881E-03 -5.00609154E-03  1.30785454E-03
  1.60988278E-03  8.28329404E-04 -5.72914578E-06  1.70604710E-03  1.80447637E-03
  1.65819918E-04  3.37444109E-04  1.08057758E-04  6.30337234E-05 -4.02309901E-03
  6.50001393E-03  4.97753775E-03 -5.02076634E-03  1.29380523E-03  1.60566949E-03
 -8.27315434E-04 -3.77037250E-06  1.74696103E-03 -1.76966227E-03  1.85394741E-04
  3.38913339E-04  1.17424512E-04 -7.02193165E-05 -3.99417470E-03 -6.51357526E-03
 -3.44007349E-03 -9.01350022E-02  1.85525841E-02 -3.50733263E-03 -9.24876903E-05
  3.62357423E-02  2.13781314E-01  5.17733706E-02 -9.64445601E-03  1.80916096E-03
  3.61945519E-02  2.13942677E-01  5.19484379E-02  9.45495859E-03  1.76028751E-03
 -3.41984773E-03 -9.01341058E-02  1.86775578E-02  3.58213880E-03 -1.10798094E-04
  7.56442792E-02 -8.53931664E-02  3.41150822E-03 -7.47775439E-03  2.99489334E-05
 -3.82660368E-06  1.40774406E-01 -7.07857978E-04  7.94951157E-04 -5.52703516E-02
  4.38417527E-04 -4.10363524E-05  5.69613588E-01  4.36194651E-04  4.63563755E-02
 -5.52523148E-02  1.45768425E-01 -3.07549813E-02  1.06341224E-02 -9.66900226E-05
 -1.73623001E-01 -2.84462311E-01 -2.00228860E-03  6.30497464E-02 -2.29814101E-04
 -7.70672294E-05  1.16973131E-01 -2.02078257E-01 -1.39129050E-02  1.62054026E-02
 -2.51474638E-02 -3.89454352E-03  8.75219057E-03  3.06071682E-05 -5.23001744E-02
  2.65063332E-01  2.51792940E-03 -2.08525565E-02 -6.79521646E-04  9.75930268E-05
 -5.13295213E-02 -1.01936024E-01 -1.55853077E-02  1.79276051E-02 -2.16338857E-02
  1.92897940E-03  5.72788699E-06  3.29666921E-04  2.83794976E-01  4.69980168E-04
 -2.07995370E-03 -1.58617614E-02  6.02995724E-04  7.52906666E-06 -9.02965873E-02
  7.20598157E-05 -1.39655888E-02  1.62689438E-02 -2.53537660E-02 -3.81201263E-03
 -8.75898894E-03  1.98497017E-05 -5.30942395E-02 -2.64591798E-01  2.32387032E-03
 -2.08723594E-02 -6.16827620E-04 -8.92830719E-05 -5.13970865E-02  1.02146899E-01
  4.63578759E-02 -5.52496661E-02  1.45548245E-01 -3.07249519E-02 -1.05013360E-02
 -1.05914382E-04 -1.75136349E-01  2.84972302E-01 -1.85860783E-03  6.29790983E-02
 -3.06208789E-05 -1.35701162E-08  1.17838082E-01  2.02133292E-01 -3.67138496E+00
  3.97335725E+00 -1.30009516E+00  6.08004916E-03  3.41898254E-05  3.85242653E-05
 -1.54510179E-01  9.15523304E-05  6.40442374E-05 -1.39697303E-01  1.77219986E-04
 -9.36745148E-05 -1.84850864E-02  2.40759996E-05  7.57924098E-02 -8.21309098E-02
  2.92500823E-02 -8.43718155E-03  9.20910673E-07  3.89297855E-04  9.94400063E-02
 -1.13035040E-04  8.39441243E-03  2.66450847E-04  4.62912460E-03  2.46826128E-06
  4.72107971E-03  3.09000135E-06  1.38148531E-03 -6.94973680E-02  2.88455966E-03
 -3.06565477E-02  2.37390932E-03  1.38401140E-03 -6.94298446E-02  2.91170553E-03
  3.06131907E-02  2.38801066E-03 -1.17586598E-01  1.19042320E-01 -1.10240718E-01
  1.14811174E-02  1.01537547E-02  4.26300907E-07  8.75359335E-02  1.28608808E-01
 -2.16179207E-05 -7.94228059E-02 -1.04450173E-04 -3.19269541E-05 -6.63923542E-02
  1.62036664E-01 -1.17663369E-01  1.19119293E-01 -1.10267949E-01  1.14923937E-02
 -1.01885881E-02  1.59714919E-05  8.76668087E-02 -1.28317365E-01  6.39156983E-05
 -7.94235970E-02  5.11108949E-05 -2.10111310E-04 -6.60427187E-02 -1.62095905E-01
  1.94015486E-02  1.30025801E-01 -7.07761406E-02  2.06491317E-02 -6.24940351E-06
 -1.34985991E-02  2.63827999E-02 -3.30012946E-02  3.78793952E-03 -8.50348129E-04
 -1.35035385E-02  2.60595821E-02 -3.28792977E-02 -3.75848327E-03 -8.42253132E-04
  1.94823508E-02  1.29320061E-01 -7.04339452E-02 -2.02965993E-02 -1.56959964E-04
  8.87950869E-02 -1.08158908E-01  2.55266234E-01 -3.20583446E-02  4.23046127E-05
 -2.50528226E-05 -1.92218494E+00 -1.63858188E-03 -5.80986209E-04 -2.89719361E-02
 -1.36293933E-04  3.01478507E-04  1.19549160E-02  4.58370270E-05  2.36882684E-02
 -2.82300850E-02  5.81385569E-02 -2.37338712E-02  3.65668884E-03 -1.00671797E-04
  2.61435923E-01  7.20522917E-01  7.62768484E-04  5.01719108E-02 -2.50012669E-05
  2.14658766E-04 -1.39638894E-01  5.33801024E-02  2.66029218E-02 -3.20443803E-02
  4.56171942E-02 -1.57091232E-02  6.70494538E-03  2.73197521E-04 -1.95785233E-01
 -1.97284820E-01 -5.73254567E-03 -3.98301820E-02 -1.66294328E-03 -1.81344509E-03
  5.85919868E-02  1.42451462E-02  1.01025043E-02 -1.17187043E-02  1.79498186E-02
 -1.39090763E-02  3.08273691E-06  7.75163143E-04 -2.45017176E-01  1.56188820E-03
  1.54536584E-02  4.63059134E-02  1.72832560E-03 -6.26948736E-06  2.57695462E-03
 -2.69473877E-05  2.66228828E-02 -3.20680550E-02  4.56329920E-02 -1.57065368E-02
 -6.70458573E-03  2.79780560E-04 -1.98067425E-01  1.99241255E-01 -5.49446934E-03
 -3.98709397E-02 -1.77437593E-03  1.79122627E-03  5.86947520E-02 -1.42771068E-02
  2.36817292E-02 -2.82207282E-02  5.80806043E-02 -2.37589476E-02 -3.65728584E-03
 -1.28124518E-04  2.58770998E-01 -7.22730909E-01 -7.31850995E-05  5.02346731E-02
 -6.99781978E-06 -6.64593718E-05 -1.39624510E-01 -5.33122808E-02  2.11411267E-01
 -2.39217322E-01  6.66679394E-02 -3.94072042E-03  1.95247302E-05 -2.79830238E-05
 -1.16015537E+00 -5.68309551E-04  2.06354924E-04 -2.39569958E-01  5.33101466E-05
 -3.02893883E-04 -2.64907672E-01 -3.11826440E-04 -1.39319797E-02  1.60234707E-02
 -1.33752669E-02  3.68343996E-03  1.94546237E-06  1.12169008E-03 -2.10708259E-01
 -1.63867839E-04 -2.56473732E-02  1.15760122E-02 -6.31480114E-03 -4.26288200E-05
  3.82388068E-02 -3.25562059E-05 -2.94714125E-03  1.76002979E-01 -2.33619514E-02
  3.53601292E-02 -5.16059610E-03 -2.93374491E-03  1.76258094E-01 -2.34094095E-02
 -3.53948892E-02 -5.20822494E-03 -2.55320067E+00  2.71940269E+00 -1.20650649E+00
 -7.89136158E-03 -2.01028093E-02  6.12347365E-06 -1.48416652E-01 -2.88369374E-01
  7.56573435E-05  3.61824324E-02 -4.61556275E-06 -7.74400482E-07  3.89251796E-02
  7.71125532E-03 -2.55333509E+00  2.71954637E+00 -1.20658654E+00 -7.89556352E-03
  2.01150138E-02 -2.02755407E-05 -1.48805848E-01  2.88098543E-01 -2.95205098E-04
  3.61774508E-02 -1.16270800E-05  1.37624254E-04  3.88598466E-02 -7.64602660E-03
 -2.75291596E-02  4.15079943E-01  2.06624405E-02  8.46212354E-05 -6.09488139E-04
 -1.64476766E-02  8.27242354E-02 -2.33004773E-03  3.43583639E-02  2.39606895E-04
 -1.64295254E-02  8.23981619E-02 -2.21472230E-03 -3.43851791E-02  2.64403866E-04
 -2.75974555E-02  4.15882301E-01  2.08150074E-02 -2.29256494E-04 -7.85609273E-04
 -2.96216680E-05  3.43998524E-05 -2.08805198E-05 -4.25111159E-06 -2.25451622E-02
  2.19315971E-06  2.66244413E-04  1.44002699E+00  5.40022789E-04 -4.37182005E-05
 -5.02919583E-05  3.82772859E-04  2.58660883E-05  6.63776290E-03  1.78277412E-02
 -2.16143581E-02  4.82911709E-02 -9.18235762E-03 -3.78558707E-03  1.29015330E-04
 -1.31609737E+00  6.06666117E-01 -1.14317434E-04  2.40267442E-02  1.09136076E-04
  1.87595726E-04 -1.96335137E-02 -1.43575057E-02 -1.39067054E-03  1.64508021E-03
 -1.20617326E-03 -6.40935810E-03 -3.45313358E-03 -1.47229153E-04 -1.30453139E+00
 -6.52488694E-01  9.63885261E-04 -1.76049323E-02  6.79696370E-04  3.69871881E-04
  5.09871928E-03 -2.44482726E-02 -9.95038149E-06  1.16302163E-05 -7.59357800E-06
 -1.25407752E-05  2.97643982E-03 -6.84270980E-06 -3.18284891E-04 -1.54149666E+00
 -2.61460770E-05 -1.82865871E-05  1.63718802E-05 -1.01143489E-03 -5.83368677E-05
  3.09026989E-02  1.37856147E-03 -1.63205983E-03  1.26459856E-03  6.36766025E-03
 -3.44587523E-03  1.53718792E-04  1.30402356E+00 -6.53312102E-01 -1.48603778E-03
  1.76054579E-02 -5.37015819E-04  3.06183821E-04 -5.13534680E-03 -2.43580781E-02
 -1.78372188E-02  2.16232892E-02 -4.81699447E-02  9.15072218E-03 -3.76333488E-03
 -1.34990921E-04  1.31624867E+00  6.06543614E-01  2.38222705E-04 -2.39423747E-02
 -1.20693831E-04  2.03834833E-04  1.94604374E-02 -1.42693846E-02 -6.34507198E-05
  7.31006623E-05 -4.58511183E-05  3.86512363E-06 -6.85384757E-03  1.09050327E-05
  5.70325014E-04 -1.07704732E+00  3.13335548E-04 -7.20172071E-06 -2.89521213E-04
  2.24725038E-04 -5.09616401E-04  4.55972314E-01  1.47827125E-05 -1.70559058E-05
  1.44860114E-05 -7.26848114E-06 -4.19403810E-03  4.29156885E-06  3.70308681E-05
  2.20566598E-01  1.23099293E-05  2.10556694E-05  2.67953136E-05  8.08992353E-03
  4.75936696E-05  6.33732127E-03  7.24289024E-03  1.05895577E-01 -3.99556549E-03
  2.65017234E-02 -6.79214719E-03 -7.20571153E-03 -1.05925001E-01  4.02421947E-03
  2.64997269E-02  6.82977324E-03 -2.57176659E+00  2.74875344E+00 -1.32459874E+00
 -1.23279751E-02 -3.39696450E-02  1.02110529E-05 -1.00665510E-01 -2.54867460E-01
  1.86465031E-04 -3.22193794E-02  4.33931392E-05 -9.76428049E-06  7.55640034E-04
  2.48855824E-03  2.57162689E+00 -2.74860556E+00  1.32456738E+00  1.23638059E-02
 -3.39374672E-02  1.01721632E-05  1.00951517E-01 -2.54847749E-01  2.30002802E-04
  3.22186470E-02  1.10541800E-05  2.38150741E-05 -7.40744425E-04  2.42360186E-03
  1.06069151E-02 -7.84037922E-02  3.11902136E-02 -6.48130401E-02  2.32612651E-04
 -9.83986032E-03  5.77990478E-02  8.79614056E-02  6.72021419E-02  6.89839727E-04
  9.83515254E-03 -5.74513817E-02 -8.79758559E-02  6.71877008E-02 -6.34891393E-04
 -1.05184833E-02  7.79580360E-02 -3.12913192E-02 -6.46243837E-02 -2.74954235E-04
Total SCF Density                          R   N=       14535
  1.86459036E-01  4.47683741E-01  1.08286757E+00 -5.53820675E-02 -2.11372941E-01
  7.91450547E-01 -6.02799592E-03 -2.03179921E-02  5.33506314E-02  4.53230538E-01
  3.94306588E-07  2.04997502E-06 -1.14971016E-05 -8.19144720E-06  5.85285424E-01
  6.35044525E-06  2.41196574E-05 -7.49112934E-05  9.12006130E-05  5.15177214E-07
  5.74088201E-01  4.02513208E-03  1.32642918E-02 -2.56896329E-02  4.14055304E-02
  9.42949700E-05  9.07883423E-04  4.13474619E-01  7.39639166E-05  2.67888958E-04
 -7.36185680E-04 -1.03813482E-04 -2.14658796E-01 -4.60953117E-04 -2.30792554E-03
  3.33715423E+00 -8.74001497E-05 -3.14896049E-04  9.36412399E-04  5.37191065E-04
 -6.20622910E-05 -4.69723578E-04  8.77448145E-04  5.17557316E-04  1.32818096E-03
  9.09290358E-03  3.16759896E-02 -9.16423080E-02  2.58793952E-02  3.74825137E-08
 -4.54928669E-04  6.06269197E-02 -4.70935130E-05 -1.48425596E-04  3.17155287E-02
 -4.68898747E-06 -1.41676594E-05  2.00080385E-05 -3.18031539E-05  2.12986536E-05
  9.18304292E-03 -1.22579853E-05  1.52997166E-04 -8.65251810E-04 -2.02410798E-06
  7.11649345E-03 -3.73781801E-06 -1.39118944E-05  4.67375641E-05  4.57416151E-05
 -5.55277940E-06 -2.12057116E-05  7.17515370E-05  3.19306961E-05  9.01017676E-07
  7.15268679E-06  7.30953826E-06  1.95839559E-02  1.35886859E-03  6.46085417E-03
 -2.04657132E-02 -1.91817823E-01  8.72156853E-05  1.71710421E-04  1.04244074E-01
  1.26662116E-04 -4.02939246E-04  9.11028818E-03  2.68791737E-05 -2.33189700E-05
  1.76649813E-01 -8.49453477E-06 -3.09308940E-05  9.09090300E-05 -4.90076425E-05
  1.07811502E-01  9.37417107E-06  3.18212279E-05 -3.02135654E-01 -3.93241338E-05
 -3.05852649E-05 -8.97332181E-07 -5.92146776E-05  1.22387423E-05  7.14719813E-02
  1.61158289E-03  5.65206287E-03 -1.34440934E-02 -1.19089663E-02  2.44168443E-02
 -9.04224592E-07  7.36856532E-03 -1.56608808E-02 -1.03387158E-04  6.88173595E-03
  1.36175553E-06  4.64609729E-06  1.62745066E-02  1.30342213E-02  1.86612968E-01
  5.68927877E-03  1.94282744E-02 -4.37019010E-02 -4.05577340E-02  8.47622891E-02
  6.75118925E-06  2.16851527E-02 -5.49563928E-02 -3.87164268E-04  2.27417477E-02
  1.32518785E-06  1.36752821E-05  5.37335582E-02  4.27647138E-02  4.48487418E-01
  1.08622959E+00 -1.50587178E-02 -4.86172092E-02  8.91025559E-02  1.10849958E-01
 -2.77747346E-01 -8.30350353E-05 -4.14236896E-02  1.45585585E-01  1.31838084E-03
 -6.04409674E-02  1.17855136E-06 -3.04073343E-05 -1.45083452E-01 -1.17051152E-01
 -5.95631974E-02 -2.25877545E-01  8.40795923E-01  1.58003655E-02  5.50387690E-02
 -1.80349377E-01 -6.06912113E-02  1.98203610E-01 -2.56656043E-04  8.61347975E-02
  7.35101601E-02  7.14560815E-05  5.34864134E-03 -1.62142873E-05  7.54989498E-05
  1.09576453E-01 -2.36850248E-02  5.98696204E-04  2.32608387E-03 -2.08701694E-02
  5.72630015E-01 -2.42495143E-02 -8.38864365E-02  2.71750662E-01  1.79921306E-01
 -3.04765377E-01  2.86363690E-04  8.24590238E-02  1.35829397E-01  2.29178216E-04
  1.30790613E-03 -1.59232845E-05  4.51707464E-05  1.30034417E-02 -6.36589439E-02
  3.55693182E-03  1.21663594E-02 -5.10855514E-02  2.13695881E-02  5.70266463E-01
  1.98918438E-05  7.03903225E-05 -2.35745634E-04 -1.58592637E-04  2.79001784E-04
  2.58152068E-01 -3.52740090E-05  1.03842770E-03  6.03960005E-03  3.22120509E-06
  1.55408221E-02 -6.55268543E-02  2.06953470E-04  1.14705924E-04 -1.60715293E-05
 -5.70199294E-05  1.26544369E-04 -2.01927409E-04 -1.27887360E-04  4.37130442E-01
 -1.15347242E-02 -4.57503898E-02  1.69986838E-01  1.75971883E-01  6.12913297E-02
 -1.24101559E-03  2.15307429E-02 -2.23644396E+00  5.36751771E-04 -1.92426257E-02
 -9.15698863E-05  6.65445182E-05 -1.23719928E-01  1.59859074E-01 -1.12859305E-02
 -4.29146195E-02  1.74717258E-01 -1.10882499E-01  6.18926273E-03  3.63469891E-05
  1.73831483E+00  4.02638039E-03  1.21064827E-02 -3.25815606E-02  2.35287470E-02
 -5.26759861E-02 -6.65324203E-04 -1.44316198E-01  1.91883327E+00  3.26188140E-04
 -1.94619240E-02 -1.38242383E-05 -2.53671536E-04 -8.72855577E-02 -1.45288217E-01
 -2.63748203E-02 -8.67408657E-02  2.27380141E-01 -3.03924143E-02 -9.56010790E-02
  8.94086684E-04 -1.30148385E+00  1.36014082E+00  1.43681517E-04  5.08901242E-04
 -1.43932850E-03 -6.71545872E-04  3.15559639E-04  7.80807379E-02 -1.11700116E-03
 -1.35921199E-03  7.08245570E-04  3.79580040E-04  3.32213081E-03 -9.38929014E-03
  7.35853012E-04  1.86293058E-04  1.93196450E-04  7.18662359E-04 -2.47434200E-03
 -2.96951377E-04 -2.03944379E-04  8.46092729E-02 -1.27297300E-05 -1.44882758E-03
  1.91850017E-02  5.70199142E-03  1.90755238E-02 -4.96125126E-02 -2.43662686E-02
  7.69614044E-03  6.19743057E-05 -7.82715692E-03  6.22264810E-02 -2.90121798E-04
  9.41411343E-03 -7.34550014E-05  6.65049816E-05  2.01731202E-02  2.90701261E-03
  8.46864333E-03  2.98186969E-02 -9.09854256E-02 -2.24359335E-03  1.91943557E-05
 -7.26976386E-04 -7.78559233E-02  3.23386594E-02  1.46675788E-04  2.34215508E-02
 -9.23235953E-08  2.98031229E-06  5.84334025E-06 -3.79066151E-05 -1.53920299E-04
 -4.79522180E-02 -1.67763548E-04  3.20008452E-04  2.24433552E-03  1.49510924E-04
 -1.60107593E-04 -8.79332653E-03  1.47107608E-04 -1.82467007E-05  1.87206667E-05
  7.18782959E-05 -2.70145263E-04 -1.12068687E-04  2.04103514E-04  2.81555647E-02
  1.61798533E-04  5.13659752E-05  1.08660565E-03 -1.04791203E-04  1.30160139E-02
  2.28673834E-05  7.92623733E-05 -2.21448288E-04 -1.04260393E-04  2.16701601E-05
  6.61714887E-02  1.56563427E-04  6.08775900E-04 -3.33004588E-04 -1.28536084E-05
  6.92155687E-04  1.40376643E-03  1.33727575E-04 -5.50785214E-05  1.16836928E-05
  4.89584635E-05 -2.05423297E-04  1.07658528E-04  2.71969566E-07  2.39523055E-02
 -7.15483704E-04  3.21874919E-04  8.17873123E-03  9.43745635E-05 -6.60268884E-03
  7.92626224E-03  8.64756757E-03  2.88702929E-02 -8.15404274E-02 -6.53129783E-02
 -2.08541348E-02 -1.02929263E-04  7.17217654E-02  1.68424986E-01  6.91710855E-05
  1.30376940E-02  6.02998442E-05  4.07571277E-05  5.71016006E-02 -2.84722570E-02
  7.86458947E-04  1.53743740E-03 -2.50227854E-04  1.15599376E-01  6.98323409E-03
  2.92039296E-04 -1.41757373E-01  4.14901900E-02  6.51412473E-05 -1.70772765E-03
  8.86390078E-05  5.16183737E-05  6.10691725E-02  1.38196416E-02  4.50490023E-02
 -1.27612685E-01  1.88268369E-02  7.03473638E-02 -5.07975790E-05 -7.61656434E-02
 -2.41635208E-02 -1.01169976E-04  1.74831812E-03 -7.55988894E-06 -6.69661245E-05
 -5.27582464E-02  1.55090522E-02 -3.92677402E-03 -1.11973646E-02  2.36033047E-02
 -1.46748080E-02 -1.30598072E-01  1.20640188E-04 -1.88300630E-03  7.97985314E-02
  3.80596242E-06  4.04080903E-03 -1.10627490E-04 -1.91268954E-05 -1.80541894E-02
  7.69285333E-02 -4.93435901E-04 -1.71136977E-03  6.84913972E-03  2.00982383E-03
 -2.84360025E-03 -2.05171121E-05 -1.25549221E-02 -9.96843823E-03 -5.98911697E-05
 -1.07605819E-03 -2.15051888E-05  2.39390923E-06 -5.19788976E-03  5.33968482E-03
  1.62534797E-03  5.75850857E-03 -1.42892740E-02 -2.90745906E-02 -4.40145571E-05
 -3.11300750E-05  4.14844129E-03  1.23920449E-02  9.00771580E-05  7.74292214E-03
  2.30700901E-05 -9.68922930E-06 -1.67208132E-02  4.42461068E-03  1.86499683E-01
 -1.65924908E-03 -6.07482741E-03  2.60244755E-02  7.72898360E-03 -1.01604427E-02
 -4.20084351E-05 -3.94986133E-02 -3.92933676E-02 -2.06555194E-04 -3.09309011E-03
 -6.84360308E-05  9.53825560E-06 -1.63828270E-02  1.80256584E-02  5.75462724E-03
  1.97510654E-02 -4.54929989E-02 -1.00522159E-01 -1.36960495E-04 -1.20008164E-04
  1.80731025E-02  3.51127512E-02  2.80205301E-04  2.61729653E-02  5.79690203E-05
 -2.57154918E-05 -5.50553103E-02  1.41331973E-02  4.48088766E-01  1.08478922E+00
  5.75718412E-03  2.27877211E-02 -1.01239074E-01 -3.92136462E-02  4.59033326E-02
 -8.19975657E-04  9.37745516E-02  1.55259865E-01  5.31392906E-04  7.28666103E-03
  2.06188672E-04 -4.14240097E-05  4.98207479E-02 -4.87133548E-02 -1.43562461E-02
 -4.58452888E-02  7.63910276E-02  3.18155379E-01  2.49709442E-03  7.99259521E-04
 -9.24824999E-02 -6.45559411E-02 -2.32075031E-04 -7.19092741E-02  2.33609712E-04
 -5.63815288E-05  1.53087435E-01 -4.04226967E-02 -5.80109866E-02 -2.19987999E-01
  8.14504523E-01 -5.36419421E-03 -1.94235105E-02  8.50019553E-02  2.20145246E-02
 -3.38655760E-02  1.19888930E-04 -1.85134038E-02 -1.09674965E-01 -3.56216466E-04
  2.81571266E-02  7.88523216E-05 -9.04059952E-05 -3.00884683E-02  5.81914219E-02
  2.86494574E-02  9.91335777E-02 -3.16626532E-01 -4.05707792E-01  1.58795856E-03
  3.90157447E-04  2.34568922E-02 -1.18446573E-01  1.08442077E-03  8.11232011E-03
  2.43120326E-04 -3.52259764E-05 -4.92326909E-02 -8.47282301E-03 -7.94854053E-04
 -3.00838369E-03  2.20266868E-02  5.52155875E-01  1.95387795E-03  7.28087887E-03
 -3.03540542E-02 -1.36178241E-02  1.87503376E-02  1.07795799E-05 -3.72769136E-02
  3.34386756E-02 -1.31064635E-05 -4.35022331E-03  9.49351111E-05 -1.78333683E-04
 -7.39493902E-03 -6.31361648E-03 -6.26901779E-05 -1.87526081E-04  1.78504230E-03
 -2.06542320E-04  2.65955716E-02  7.41180716E-04 -6.30390301E-02  1.52288433E-01
 -5.91618250E-06  1.69376311E-03 -6.83916116E-05 -3.36751224E-05 -1.12865412E-03
  1.02087206E-01  3.32455696E-03  1.14279973E-02 -4.78942350E-02 -1.78376511E-02
  5.44460649E-01  4.36538073E-06  2.04870812E-05 -1.36518053E-04 -5.95008551E-05
 -1.26808370E-04 -7.16016776E-02 -7.65748234E-04  1.49992964E-03  1.50219933E-02
  2.24412045E-04  1.17258987E-02 -6.54437841E-02  7.73472255E-05 -9.24095296E-06
 -1.15855998E-05 -4.70153021E-05  1.50894624E-04  5.94630765E-04  4.66224359E-04
  3.40478187E-01  1.02805130E-03  1.65902387E-03  4.54479093E-02 -6.90172544E-04
  7.15201831E-02 -1.66482668E-02  3.28526797E-04 -2.79514751E-05  2.28712728E-05
  5.38475287E-05  8.65927891E-04 -3.60680673E-04 -2.10735874E-04  5.01575723E-01
 -3.18740394E-03 -1.67672192E-02  8.98067514E-02  8.65787648E-02  5.53975485E-02
  2.88142536E-03  8.06217173E-02 -1.96766809E+00  3.13560379E-04 -3.82007866E-03
 -5.89683241E-04 -3.76351948E-06 -3.90991057E-02  1.26931390E-01 -2.69537361E-03
 -1.54548835E-02  1.12158869E-01  7.37901640E-03  2.83960400E-02 -3.61753748E-03
  1.49915174E+00 -1.13752107E+00 -2.23902275E-03 -4.38692520E-02 -1.48293487E-03
  1.46643348E-04 -1.01518349E-01 -1.22762171E-02  1.03856579E-02  3.66490643E-02
 -1.24360678E-01 -7.90047801E-02 -3.28643891E-02 -4.70423589E-03  1.42652076E+00
 -1.51282535E-02 -4.77523447E-02  1.18397907E-01  3.47044351E-03 -4.63425976E-02
 -3.21492224E-03  1.26798284E-01 -1.36918994E+00  3.89712314E-06  2.87414513E-03
  4.18329662E-04  3.30370689E-04  5.97982106E-02  5.09245306E-02  4.84314313E-03
  5.25066295E-03  5.67857332E-02  1.19636569E-01  1.55627920E-01  2.93491034E-03
  1.01905499E+00 -9.97639616E-01  3.08491610E-03 -7.08257773E-02  1.48565268E-03
 -8.13059997E-04  1.40746831E-02 -9.94897293E-02 -3.04637670E-02 -1.03109867E-01
  3.05639745E-01  6.04406200E-03 -1.13953642E-01  3.35676200E-03  8.69300687E-01
  9.28993102E-01 -3.34366174E-04 -1.20517887E-03  3.52039555E-03  1.84098775E-03
 -1.58481535E-05 -1.77089368E-02  3.71446124E-03  2.64445024E-03  2.88814946E-03
 -7.75613965E-04  7.82583948E-04 -1.02240496E-02 -1.41029712E-03 -1.08442681E-04
 -3.83391859E-04 -1.41832760E-03  4.70535814E-03  6.83447217E-04  8.23023608E-04
  4.48806636E-02  3.32659143E-04  1.97988765E-03  2.41134649E-03 -8.24963480E-04
  1.11209014E-02 -3.24452889E-03  1.67795118E-04 -3.71918213E-04 -2.21442134E-04
 -7.88249110E-04  1.75667871E-03 -1.60324390E-03 -1.40090133E-04  8.08911260E-02
  3.00190301E-03 -5.33513590E-03  2.34919561E-02 -5.60697327E-05  5.36659604E-04
 -2.16632297E-03 -1.19051797E-02  1.80767842E-02 -7.71060217E-04 -8.26757781E-03
 -3.74199425E-02 -2.89388754E-04  3.36930454E-03  4.36818653E-05  1.39791408E-05
  1.54554265E-02  1.20243991E-02  6.84383096E-03  2.28545824E-02 -6.06417691E-02
 -5.84494612E-03  3.95253902E-03  5.00994912E-04  2.30778271E-03 -1.54191516E-02
  8.95161747E-04  1.38003717E-02  3.47836329E-04 -9.02141496E-05 -1.17599505E-02
 -6.34781896E-04  7.58184844E-03  2.65759691E-02 -7.91920439E-02 -2.53885676E-03
  1.08777419E-03  7.33911707E-04  1.49006089E-02 -1.67509394E-02 -1.93693508E-03
  1.83112113E-02 -6.60685895E-05 -2.39931918E-04  7.41135622E-04  5.13804232E-04
  2.92787965E-05 -4.40827509E-02  8.55142328E-04  9.10480998E-04  5.80908081E-04
 -1.92069575E-05 -1.38506166E-03  8.51474887E-03 -2.05825517E-04 -1.52148178E-05
 -7.39300121E-05 -2.51576832E-04  6.77794959E-04 -1.72776251E-05  1.90074997E-04
 -5.13670245E-02 -1.23934054E-04  2.24863867E-04 -1.11985086E-02 -1.89391456E-04
 -3.50721377E-05 -4.73656554E-03  1.23388171E-04 -1.79402688E-04 -4.38338380E-05
 -1.96717438E-04  8.99025384E-04  1.34212153E-04 -1.62046308E-04 -2.15387255E-02
 -2.78640875E-04 -1.69284768E-04 -9.84777485E-04 -1.39778229E-04  8.08858589E-03
 -6.16820428E-05 -2.23589432E-04  6.24056909E-04  3.85142378E-04  5.99187826E-05
 -1.86528718E-02  1.12329222E-03  8.43643610E-04  1.43945188E-03 -1.20228451E-04
  1.07535837E-04  4.19941561E-04 -2.01744842E-04 -3.05246637E-05 -8.31092648E-05
 -2.95893145E-04  9.05152043E-04  2.83008167E-04  1.42406105E-04 -4.20356604E-03
 -4.69913492E-04  3.37258102E-04 -3.55163280E-03 -1.89614580E-04  3.40284670E-03
 -2.50655755E-03  1.57347442E-04 -1.64019773E-04 -6.37060005E-05 -2.50116333E-04
  7.61892295E-04 -2.52645020E-04 -1.41547107E-04  2.00391061E-02  2.66029026E-04
 -1.89197309E-03  9.16526163E-03 -5.21088493E-04  3.16729978E-03  5.43352857E-03
 -2.04953081E-03 -7.45314964E-03  1.84133371E-02  2.40241091E-02 -2.21689889E-02
  4.45001248E-04 -2.11411105E-02  6.66671687E-02  2.65754133E-04 -1.61722937E-02
 -1.27525354E-04 -5.50854192E-05 -2.63842046E-02 -2.22802636E-02 -1.65551151E-02
 -5.44001244E-02  1.50530267E-01  4.81457870E-02 -2.17542008E-03 -5.10019024E-04
  1.38079084E-02  8.44284178E-02 -1.03040831E-03 -1.03325660E-02 -3.32875088E-04
  9.28632696E-05 -4.97614967E-04  8.28883223E-03  2.34975261E-04 -4.63720087E-04
  6.24366790E-03 -1.07159599E-01  7.39103176E-03 -6.32637217E-04  4.12940391E-02
 -2.63531427E-02  1.36023710E-03 -5.34793635E-03  2.53753008E-05  6.32607201E-05
  5.10529669E-02  6.84269100E-03  2.21926656E-02 -6.57326491E-02 -1.36517244E-02
  4.79705092E-02  1.43263403E-04 -5.26616079E-02  1.02270216E-02  2.06328056E-04
 -7.04794316E-03 -6.43748371E-05 -2.05396776E-05 -3.55503916E-02  5.74474083E-03
 -5.71561094E-03 -1.89457976E-02  5.58343442E-02 -6.04252216E-03 -1.03715566E-01
 -4.69671216E-04 -1.80736509E-02  9.54062177E-02 -8.32901796E-04 -3.84898487E-03
 -3.52128249E-04 -1.39769975E-05 -7.11667638E-03  6.28285718E-02  2.82111255E-03
  7.25180146E-03 -1.30119023E-02 -1.82308849E-02  1.23925417E-01 -6.19386162E-04
 -7.36233088E-03 -9.01134095E-02  1.03015606E-03 -7.14712590E-03 -2.10523140E-05
  1.15793292E-04  1.79209614E-02  7.26519504E-02 -4.45509467E-04 -1.52329205E-03
  5.19473228E-03  3.07412328E-03 -1.31803517E-06 -9.08957038E-05  6.65654268E-03
  8.10588458E-05 -9.55871074E-05 -3.16394950E-04  4.37550928E-06 -2.00820053E-06
  4.16280525E-03 -3.28716820E-06 -4.57255446E-04 -1.59104401E-03  6.16991811E-03
  4.86759092E-03  2.30271906E-03  1.06632205E-04  5.94087526E-03 -7.09235345E-03
  3.06620668E-04  7.91246699E-04  1.24248456E-04  2.36954801E-06 -1.60200207E-03
 -8.28338386E-03  1.48710028E-03  5.23507425E-03 -1.33969617E-02 -1.47503291E-02
 -2.34401776E-02  1.13170397E-04  6.48800189E-03  9.05918696E-03 -3.76987469E-04
  5.40602812E-03  8.83921842E-05  3.69580765E-05  6.23792194E-03 -1.49486734E-02
  1.86592905E-01 -1.45830253E-03 -5.28491513E-03  1.95731445E-02  1.14656470E-02
 -4.90293192E-06 -2.89246172E-04  2.00892240E-02  2.74885884E-04 -3.20456241E-04
 -1.69909514E-03  1.60904670E-05 -5.61161178E-06  1.28006811E-02 -1.11623446E-05
 -1.58606136E-03 -5.77344444E-03  2.36760115E-02  1.76463222E-02  8.33271275E-03
  3.73801776E-04  2.57106019E-02 -1.90210425E-02  9.90450880E-04  3.59837251E-03
  3.98034645E-04  2.65059585E-05 -5.96964874E-03 -2.73918534E-02  5.23793075E-03
  1.78971678E-02 -4.29523400E-02 -5.12710832E-02 -8.10685510E-02  3.92408870E-04
  2.78239205E-02  2.81693883E-02 -1.34275731E-03  1.79634944E-02  2.31812599E-04
  9.53044959E-06  2.06917971E-02 -4.93116000E-02  4.48079400E-01  1.08400782E+00
  3.79208348E-03  1.53850788E-02 -6.31072559E-02 -4.72598565E-02  1.59187700E-05
  1.15882875E-03 -5.79336558E-02 -7.26066706E-04  8.37876401E-04  8.21033214E-03
 -1.26776068E-04  1.02743337E-05 -3.18731071E-02  3.20446879E-05  6.20076435E-03
  2.37875368E-02 -9.85248512E-02 -8.13839136E-02 -3.16702904E-02 -1.63288768E-03
 -1.13136450E-01  3.63006455E-02 -2.75066321E-03 -1.16184365E-02 -1.23005616E-03
 -1.07875827E-04  1.34029739E-02  8.05611149E-02 -1.27287798E-02 -4.07508686E-02
  7.57763311E-02  1.68431996E-01  2.64538191E-01 -2.19520927E-03 -1.12388183E-01
 -8.69030542E-02  4.22388410E-03 -4.90007797E-02 -4.19501488E-04  5.39633676E-04
 -5.78138969E-02  1.39604470E-01 -5.67136521E-02 -2.14858882E-01  7.96715768E-01
 -2.97943055E-03 -1.12216532E-02  4.47710677E-02  3.70368603E-02 -2.70460050E-05
  4.95783259E-04 -2.50109070E-02 -1.71839758E-04  6.99119352E-04 -1.25261856E-02
 -4.53319207E-04  1.60140349E-05 -2.22103872E-02 -5.47042088E-06 -3.20060034E-03
 -1.18009848E-02  5.18773516E-02  3.83996678E-02  1.68077375E-02 -1.64024505E-03
  5.82054133E-02  3.88272657E-02 -2.80555274E-03  1.49027768E-02 -7.61439095E-04
  7.53600918E-05 -2.99514950E-02 -1.49505966E-02  1.29295704E-02  4.41328757E-02
 -1.24931646E-01 -8.53750431E-02 -1.81404527E-01  2.21883899E-04  1.88011625E-01
 -8.58703049E-02  2.90721746E-03  2.05553297E-02 -1.89390143E-04 -3.15872186E-04
  8.63653458E-02  2.29071620E-02  4.16489737E-03  1.41709759E-02 -4.50016203E-02
  5.26049913E-01 -1.04875988E-07 -3.12788153E-07  1.73399854E-06  4.38470874E-06
 -4.95797468E-02 -2.92822903E-05  4.16926521E-06 -9.23493136E-03  4.94833655E-06
  4.46802327E-06  1.46352920E-06  7.55776008E-05 -6.33445362E-06 -1.40866362E-02
 -2.79605179E-03 -1.00166780E-02  4.68329560E-02  3.58684646E-02  2.08062745E-02
 -2.47664189E-04 -1.55303061E-02 -6.55008425E-02 -4.84454878E-05  1.85893047E-02
  2.16676251E-05 -1.01715502E-04 -2.06015967E-02 -4.98055767E-02  2.42274926E-02
  8.40806724E-02 -2.73247359E-01 -1.98785329E-01 -3.01855040E-01  8.13350851E-04
 -2.85608977E-02 -2.53761463E-02  5.16679397E-04  9.51769922E-03 -3.61184233E-04
  2.82719267E-04 -2.61592046E-02 -6.98151947E-02  2.70108180E-07  1.35109635E-06
 -1.12453942E-05  3.07640238E-05  5.97838302E-01  3.69033526E-06  2.92626407E-05
 -3.66651145E-04 -1.32294782E-04  5.50583700E-05 -1.52479154E-01  2.02585812E-04
  1.03065810E-04  1.56687151E-02 -3.90878631E-04  5.33482951E-03  8.16516620E-06
 -6.53531877E-04  9.29589115E-06  3.43370887E-05  1.43516378E-04 -5.23695100E-04
 -1.08024986E-04 -2.38895478E-04  2.08720299E-02 -2.08322713E-03  3.45936808E-03
 -1.93023906E-02  9.43098027E-04  3.94577946E-02 -2.19757505E-02 -7.21359586E-04
  6.53783445E-04 -4.06615497E-05 -1.07633860E-04 -8.89815468E-04  6.05975046E-04
  4.72700295E-04  2.49782255E-01  8.99187803E-03 -1.84187611E-02  8.34333998E-02
 -2.92771525E-03  2.40607390E-02  4.66684768E-02  1.32702624E-03  1.72009444E-03
 -4.73542462E-04 -1.57888832E-03  4.47261630E-03  4.71628077E-03  1.95303997E-05
  4.25675416E-01 -2.49779623E-02 -8.59109752E-02  2.50099307E-01  7.08775219E-02
  2.12927280E-06 -1.26465543E-02  2.31748629E-01 -1.87575988E-03  1.44220691E-03
 -1.20373678E-02  1.37896528E-03  6.07611294E-05  4.02564254E-03  4.41239920E-05
 -8.79374848E-03 -3.88841244E-02  1.59303871E-01  1.32217830E-02  8.96921140E-02
  1.26182512E-02  1.15326382E-01 -1.38749300E-01  5.58444081E-03 -6.83083011E-02
  5.09076518E-03 -2.17247564E-03  3.69880928E-02 -8.78910451E-02 -2.24017760E-02
 -7.44341478E-02  2.06435492E-01  5.77867767E-03 -7.73116271E-02  1.75760116E-02
 -2.84285710E-02  2.46334772E-01 -8.03458252E-03 -1.96621388E-02  7.47994930E-04
 -3.89114013E-03 -1.55240706E-02 -6.35591608E-02  1.18002737E-02  3.83686271E-02
 -1.40717787E-01 -1.38444633E-01  3.90445016E-05 -4.46129846E-02  5.46337057E-01
 -5.68091942E-05 -2.07142799E-04  5.78467130E-04  1.79847053E-04  2.84446456E-02
  3.60187197E-04  2.19607781E-03 -2.26491639E+00 -3.74183745E-04  9.43604522E-05
 -1.32993470E-04 -1.24456007E-04 -1.60756150E-04  1.11593239E-01 -5.73159908E-03
 -2.76138151E-02  1.55070717E-01  7.93677689E-02 -8.62348678E-03 -2.33405648E-04
  1.63742733E+00 -1.33337336E+00  9.31165003E-04 -7.85126542E-02 -1.44936206E-04
 -3.34657202E-04 -5.76794597E-02  4.66217783E-03 -1.25368025E-02 -4.78224051E-02
  1.71354290E-01 -3.68033306E-02  7.84673110E-02 -7.46258166E-04  1.49264151E+00
  1.15055889E+00 -2.43250748E-03 -6.24531270E-03 -7.13556585E-04 -9.37870269E-04
  1.63693091E-02  7.60046970E-03 -8.11409212E-05 -2.72767029E-04  7.25629148E-04
  1.54782273E-04 -1.60651097E-01 -7.83631311E-05  1.68881223E-03  1.87825315E+00
  7.92772355E-04  2.87242653E-03 -8.70435276E-03 -5.04111717E-03  4.93331457E-06
 -2.79802889E-02 -8.69869745E-03  3.43184869E-04  2.10485081E-03  1.72182757E-03
  2.71057540E-03 -3.93374155E-06  3.36877557E-03 -9.01376877E-06  9.69795766E-04
  3.49676364E-03 -1.11385416E-02 -1.35465368E-03 -2.18809454E-03  2.04243320E-02
 -5.69408049E-03  7.91573287E-05  5.87833641E-03  1.87231642E-03  9.65975805E-03
 -4.24583678E-03  2.39068797E-05  1.28376289E-03  4.52962080E-04  1.70923205E-03
 -4.30087273E-03  3.41303083E-03  2.02427396E-03  4.86741953E-02 -1.28734252E-02
  7.44562554E-03 -7.95493985E-03  4.09724016E-03 -9.36192200E-06 -4.43226653E-03
 -3.73085136E-03 -1.91337171E-03  5.13724181E-04  1.96243690E-03 -7.36614476E-03
 -8.39964086E-03 -2.74089798E-05 -1.54501440E-02  1.85038034E-02 -2.99334151E-04
  3.45360617E-02  6.26221593E-04  1.66418527E-03  1.39043384E-03 -7.94603016E-05
 -6.76178413E-06 -1.19942672E-03 -3.50377029E-02  4.17744223E-04 -2.07235468E-04
 -2.14762760E-04  3.01689997E-05 -1.24481032E-06 -6.01882071E-03 -1.06146051E-05
  8.32991328E-04  3.84116234E-03 -1.42545067E-02 -3.30080151E-02 -7.66487658E-03
  4.31521401E-04  1.01723199E-02  2.57420377E-02  4.49928252E-04  1.32977849E-02
  4.32861550E-04 -7.99838876E-05 -1.77154586E-02  3.42426293E-03  8.07003944E-03
  2.69509015E-02 -7.31721645E-02  6.35817872E-04 -3.30236126E-03  2.03020452E-03
  1.94557983E-02 -3.11249172E-02 -1.05719845E-03  1.04464128E-02 -1.91075903E-04
 -3.32520103E-04  3.47297573E-03 -1.27202958E-02  9.54654521E-03  3.34467154E-02
 -9.54309960E-02 -2.08906444E-02 -2.14708341E-06  2.01703438E-03 -6.34545934E-02
 -3.71630624E-04  3.15390513E-03  3.67938432E-02  1.32719233E-04  4.80256219E-04
 -1.55394904E-03 -9.92356621E-04 -1.43221814E-05  3.09279775E-02  3.72720159E-04
 -9.41156519E-05 -2.97997807E-03  2.17957268E-04 -1.94462132E-03  7.86220846E-07
  8.27262978E-04 -6.02886398E-06  1.77123981E-04  6.26164529E-04 -1.97997611E-03
 -4.77672240E-04 -3.71376268E-04 -1.85434305E-02 -2.92949264E-03 -6.91378077E-04
 -3.62172684E-03  3.89784436E-04 -1.03412923E-02  4.67175547E-03  2.31070160E-04
  4.64821407E-05 -1.69524396E-04 -5.35286852E-04  9.28545032E-04  1.54164757E-03
  1.33020444E-03 -5.52268459E-02  1.73822837E-04 -4.23315873E-03  1.39474526E-03
 -5.62419663E-04 -1.34078694E-03  1.08997029E-03 -9.17802584E-04 -4.21433510E-04
  2.66984254E-04  7.62466873E-04 -1.24044080E-03 -6.36595143E-03  5.21820424E-06
 -1.12785619E-02 -1.50834937E-02  1.02259456E-04 -2.69436484E-02 -3.04933345E-04
  2.39163114E-02  1.35793872E-06  4.29205169E-06 -1.22120796E-05  7.81123636E-06
  1.67659698E-04 -9.42304712E-06  9.72342840E-07 -5.88211675E-04  2.32989299E-06
  6.30143418E-06  3.97484051E-06  1.68708501E-02  7.47336575E-06  3.17111685E-05
  5.15730188E-05  1.55884112E-04 -2.53028157E-04  2.26603735E-04 -8.91278653E-05
 -6.27918946E-02  3.57915248E-04 -8.41314896E-04 -9.19493999E-03  2.18219941E-04
 -8.40616479E-03  8.50798862E-04 -1.21056980E-04 -2.89069844E-04  2.19080952E-04
  7.22895425E-04 -2.02163297E-03 -9.84458545E-04 -1.40995593E-03 -6.19402462E-02
 -8.39723811E-04  5.51691602E-04 -9.86124147E-03  1.54672529E-04  8.09324381E-03
  5.01597297E-04 -3.64655588E-04 -3.75937260E-04 -2.29226517E-06 -7.27763378E-06
  1.62873931E-05  2.23497290E-06  2.01332380E-03  9.94089399E-06  1.17163632E-05
 -1.29316975E-03  4.08251453E-06 -3.47132513E-06 -2.39573135E-06  1.60745924E-02
  1.57061137E-03  3.42369440E-03 -3.19149204E-03  3.23639445E-02 -1.51945482E-05
 -1.66756568E-03 -2.98942889E-02 -2.22829978E-04  3.62551302E-04 -1.56151973E-02
 -9.22959882E-05  2.05233530E-05 -3.28968510E-02 -5.54464859E-06 -8.38178476E-03
 -2.79709175E-02  8.75172073E-02  3.81379577E-02 -3.51911392E-03  2.82693849E-04
  4.95296906E-02  6.67536229E-02 -5.05053959E-04  6.37378465E-03  2.08866949E-04
 -2.77437430E-04 -2.14432733E-02  2.58662372E-02  1.32835745E-02  4.32433693E-02
 -1.17480697E-01 -1.16834608E-01  1.05930917E-02  1.59740811E-03  1.07425579E-01
 -7.47616293E-02 -1.91855176E-04  1.28773128E-02  1.58080268E-05 -5.65505815E-04
  5.43247752E-02  4.48710226E-02 -2.19703717E-03 -6.32316450E-03  1.12150487E-02
  2.13764655E-01 -1.33275975E-04 -3.51177142E-03 -6.22657631E-02  3.01152874E-04
 -2.42275674E-04 -1.05303554E-02 -4.19159200E-03 -3.27830622E-06  1.60258985E-01
 -7.30648971E-07 -1.44425133E-06  2.19317172E-06 -1.98629113E-05  1.25802852E-02
 -2.02463023E-05 -1.49917349E-05  1.05491268E-01  1.53285782E-05  4.92495780E-06
  2.73618328E-07 -2.58544319E-04  1.38116343E-05 -2.13516589E-02 -4.77484764E-03
 -1.59018204E-02  3.89774803E-02  5.43759780E-02  7.03852039E-03  8.80484504E-04
 -5.05988650E-02  7.28961306E-02 -5.14425001E-06 -1.00685351E-02  1.23701648E-04
  1.07194306E-04  2.37179219E-02  6.56654740E-03 -1.42975895E-02 -4.74169386E-02
  1.34332387E-01 -8.59312977E-03  6.43233036E-02  5.67430278E-04 -1.61040420E-02
  4.23730310E-03 -4.22819767E-04 -1.04281786E-02  1.40463554E-04 -4.58190276E-04
  2.17227744E-02  1.65970510E-02  1.94499093E-06  5.99230863E-06 -1.11067743E-05
 -1.65915771E-04 -1.18920716E-01 -5.54571227E-06  4.35325288E-05  3.36828172E-02
  3.20704207E-05  1.10629011E-05 -1.02609839E-05 -2.65589918E-03 -5.46660670E-05
  7.10046033E-02 -4.93277459E-04 -1.71083650E-03  6.84799649E-03  2.01013110E-03
  2.84088201E-03 -2.39715307E-05 -1.25559150E-02  1.00787237E-02 -5.82638196E-05
 -1.07582275E-03 -2.47770116E-05  5.37942832E-06 -5.20152261E-03 -5.34103780E-03
 -3.86344077E-04 -1.21614746E-03  2.90432033E-03  1.40022881E-03  2.64825080E-03
  2.07656343E-05  6.70329595E-03  1.48203640E-02  1.13162063E-04  1.13790387E-03
  2.88240398E-05  2.66283082E-05 -1.09610679E-03  2.30231658E-03 -4.92176092E-04
 -1.69693770E-03  6.73467272E-03  4.99085249E-04  4.77950869E-03  3.49350101E-05
  1.79432190E-02 -4.40906309E-03 -3.74807942E-04 -5.61240560E-04 -1.49741760E-05
 -1.31747645E-04  7.42496518E-03  2.98935886E-03  1.48723427E-03  5.23831820E-03
 -1.27283995E-02  1.29162044E-02 -2.42366760E-02 -4.08586678E-05 -2.23898384E-02
  1.24486823E-02  4.58243597E-04  8.07086069E-03 -1.70815766E-04 -2.21754414E-04
  1.33009532E-02  1.42824393E-02  1.86499574E-01 -1.65870290E-03 -6.07294442E-03
  2.60199915E-02  7.72967304E-03  1.01512349E-02 -5.45857235E-05 -3.95016220E-02
  3.96872730E-02 -1.99452703E-04 -3.09247523E-03 -7.87700620E-05  1.55965902E-05
 -1.63943082E-02 -1.80317020E-02 -1.22258302E-03 -4.22397263E-03  1.24068130E-02
  5.26005176E-03  9.90863967E-03  5.89344479E-05  2.09743959E-02  5.31930604E-02
  3.74791345E-04  3.69057539E-03  9.11019575E-05  9.39695270E-05 -3.13496551E-03
  6.21402882E-03 -1.69692485E-03 -6.19517887E-03  2.62611042E-02  1.68044284E-03
  1.75003899E-02  9.76856646E-05  5.96159333E-02 -9.54037255E-03 -1.31842428E-03
 -1.14091762E-03 -7.54688928E-05 -4.64158291E-04  2.48743791E-02  9.41069339E-03
  5.23549861E-03  1.78984093E-02 -4.07493442E-02  4.40864459E-02 -8.41121046E-02
 -1.07994681E-04 -7.43926629E-02  4.75029960E-02  1.72873079E-03  2.69543455E-02
 -5.40626794E-04 -7.32102754E-04  4.33024593E-02  4.73672731E-02  4.48088416E-01
  1.08478814E+00  5.75636016E-03  2.27842532E-02 -1.01229008E-01 -3.92036647E-02
 -4.58802435E-02 -7.68840860E-04  9.37927012E-02 -1.56364084E-01  4.96544848E-04
  7.28808043E-03  2.27195043E-04 -3.71116355E-05  4.98393054E-02  4.87393607E-02
  3.02256051E-03  1.26971938E-02 -4.70609603E-02 -2.05805648E-02 -3.88152661E-02
  2.27664546E-04 -5.43780795E-02 -1.79900992E-01 -6.66805506E-04 -7.96406090E-03
  3.68882500E-05 -3.93519090E-04  5.86694652E-03 -1.20281020E-02  6.73516073E-03
  2.62629453E-02 -1.12651041E-01 -1.22227447E-02 -7.75354087E-02  6.99618099E-04
 -1.67973651E-01 -3.46713872E-03  3.39048210E-03  2.07873932E-03  3.49770776E-04
  1.27229690E-03 -7.03199656E-02 -2.95597230E-02 -1.33973318E-02 -4.29532526E-02
  7.57608397E-02 -1.24777738E-01  2.73348085E-01 -9.00690518E-04  2.06324829E-01
 -1.70491199E-01 -4.37223055E-03 -7.31916613E-02  9.53238058E-04  2.04648328E-03
 -1.17655597E-01 -1.34200666E-01 -5.80153438E-02 -2.20002639E-01  8.14590592E-01
 -5.36688346E-03 -1.94331195E-02  8.50377336E-02  2.20268650E-02  3.38651416E-02
  1.09375184E-04 -1.84971407E-02  1.10444584E-01 -3.23761003E-04  2.81591654E-02
  6.87139423E-05  1.08027251E-04 -3.01194479E-02 -5.82315263E-02 -1.32842486E-03
 -4.99261610E-03  1.88874501E-02 -1.37713339E-02  3.21052942E-02 -2.15364302E-04
 -7.39199564E-02  4.52224539E-02  6.52529378E-04 -7.15523505E-03  5.07956642E-05
 -3.95494395E-05  4.65441170E-03 -2.06045927E-02  4.96548405E-04  1.67115739E-03
 -1.21817410E-02 -2.92087970E-03 -9.19903451E-03 -1.33920416E-04 -8.60056576E-02
  3.66823527E-02 -1.23882884E-03 -8.82112422E-03 -4.66974337E-04 -6.41685266E-05
 -2.94191363E-02 -1.42777731E-02 -1.47439761E-02 -5.12492310E-02  1.68357297E-01
 -8.51919705E-02  1.98746397E-01  6.91553254E-04  5.82366764E-03  3.62142037E-02
  3.43074246E-03  6.26522192E-04  1.53004308E-03  9.91582499E-04 -1.16816315E-01
  8.74708977E-03 -8.00554889E-04 -3.02750519E-03  2.20667443E-02  5.52122316E-01
 -1.95325311E-03 -7.27830352E-03  3.03351436E-02  1.36136526E-02  1.87547059E-02
  1.22172162E-05  3.73034697E-02  3.37032741E-02  2.41787539E-05  4.34494631E-03
 -9.23673073E-05 -2.09685953E-04  7.41123584E-03 -6.31709140E-03 -2.64098542E-03
 -9.87179375E-03  3.88476390E-02  3.17890540E-02  1.91437991E-02  3.06312007E-04
  7.95849805E-03  3.06611715E-02 -3.52943043E-04 -7.67716454E-03  4.96808918E-06
  1.07179444E-04  8.52041282E-03 -1.11845353E-02 -4.77809732E-03 -1.74951223E-02
  7.75120177E-02  9.21693187E-03  5.54171089E-02 -1.04509541E-04  4.79314784E-02
  1.38682570E-02  7.69084500E-05  2.06460742E-02  1.76804278E-04 -4.51054123E-04
  5.61957492E-02 -3.16615926E-03  2.34432473E-02  8.10787245E-02 -2.64569089E-01
  1.81250321E-01 -3.02003646E-01 -5.56692180E-04  7.72892544E-02  7.81508814E-02
 -1.97594411E-03  3.30322108E-03 -1.33498183E-03 -1.42371154E-03 -1.04844359E-02
  6.43324043E-02 -3.32556166E-03 -1.14318326E-02  4.79146804E-02  1.78320840E-02
  5.44467500E-01  6.05099173E-06  2.64652665E-05 -1.59368533E-04 -2.61536257E-05
  1.70691843E-04 -7.16271124E-02 -6.94224879E-04 -1.11127446E-03  1.50326653E-02
  2.79171397E-04  1.17555909E-02  6.54540383E-02  1.83311979E-04  5.09867831E-05
  7.46279128E-07 -2.05902138E-06  2.74305671E-05  4.15916221E-04 -3.13062324E-04
 -1.49104647E-01  2.44339643E-03 -1.01134316E-03 -2.63801487E-02 -3.28170961E-04
  5.97551136E-03 -1.01172652E-02  3.29352476E-04  2.87668919E-05  3.17906748E-05
  8.62797462E-05  7.49794222E-04 -1.36405761E-04  1.12857611E-04  1.86565308E-02
 -3.73536690E-03  5.97170382E-03  3.68799664E-03  9.57049346E-04  4.16666149E-02
  2.37021156E-02 -9.33124144E-04 -2.86927509E-04  1.22043294E-04  4.23692909E-04
 -2.30712084E-03  2.95965776E-04 -9.09300277E-04  2.49799883E-01  1.76890163E-02
  3.04753637E-04  4.86682999E-02  2.03333808E-03 -5.52026176E-02  6.19678665E-02
  1.61231544E-03 -5.01654646E-04  2.70857039E-05  6.90676913E-05  7.99272755E-04
 -3.75321671E-04  2.53530862E-04  5.01569313E-01 -3.07883776E-03 -1.63730399E-02
  8.86984725E-02  8.61694417E-02 -5.54597037E-02  2.23900700E-03  7.66040962E-02
  1.96596512E+00  9.50274571E-04 -3.98760234E-03 -3.91938917E-04  1.19989563E-04
 -3.88670404E-02 -1.26937142E-01 -1.28803824E-02 -3.97236769E-02  7.92917543E-02
 -4.15809039E-02  4.89197879E-02 -2.98298873E-03 -1.26536262E+00  1.21991389E+00
 -3.87595431E-03  5.42819805E-02 -1.21667141E-03  7.61803632E-04  4.25027437E-02
 -1.25236769E-02  1.80299831E-02  5.99246985E-02 -1.68805218E-01 -8.54999219E-02
 -4.81761534E-02 -3.43623805E-03 -1.06246725E+00 -9.78241617E-01  6.82559544E-03
 -1.82037114E-03  8.86852517E-04  1.79728967E-03  7.10184603E-02  1.20605970E-02
  6.62198675E-03  2.82733010E-02 -1.13536821E-01  1.87736718E-01  2.85223877E-02
  9.18903060E-03 -3.17107295E-02 -1.49082746E+00 -1.23756385E-02  2.01571213E-02
  2.80927832E-05  8.28033120E-04  1.06956739E-01  1.59614632E-02  1.04796690E-02
  3.69845924E-02 -1.25275039E-01 -7.83378684E-02  3.30858532E-02 -4.34161689E-03
  1.42340073E+00  1.50652961E-02  4.75279482E-02 -1.17803493E-01 -3.32338114E-03
 -4.63089278E-02  3.52609420E-03 -1.24587454E-01 -1.36888106E+00 -4.55380621E-04
 -2.76348696E-03 -6.06574182E-04  3.28133508E-04 -5.99578888E-02  5.09592053E-02
 -4.75479460E-03 -1.78938824E-02  8.40226803E-02  1.72736516E-02 -1.19766697E-02
 -6.06986428E-03  1.02348521E+00 -7.70828295E-01 -1.99414528E-03 -1.86510425E-02
 -1.88227633E-03  3.66751356E-04 -5.65109608E-02  3.77516914E-02  4.36833621E-03
  9.39341560E-03  3.87249284E-03 -3.69570574E-02  1.41161225E-02 -6.20356859E-03
  9.78729276E-01  6.19014119E-01  2.11535797E-03 -6.19215087E-03 -5.14082240E-04
  1.18530476E-03  2.50630247E-02  3.03502239E-02 -9.11973972E-03 -2.83755115E-02
  8.74609267E-02  8.59857540E-02 -2.55504255E-02  1.82839719E-02 -2.44558997E-01
  1.15030800E+00 -7.78746285E-03  3.07931440E-02  4.36063500E-03  5.35045923E-04
  7.50209684E-02  4.17156563E-03  3.04264726E-02  1.02979324E-01 -3.05330442E-01
 -6.35267087E-03 -1.14025087E-01 -3.74154591E-03 -8.67947950E-01  9.28727338E-01
 -3.26583044E-04 -1.17844375E-03  3.43900867E-03  1.81193691E-03  1.03671731E-05
 -1.77247119E-02  3.68775936E-03 -3.93008958E-03  2.88928301E-03 -7.60164041E-04
  7.92092905E-04  1.02335401E-02 -1.40651618E-03  1.86588375E-04 -4.46567473E-04
 -1.60712040E-03  5.08680833E-03  8.99524703E-04  6.76350403E-04 -3.35893478E-02
  5.10124219E-03 -2.20627208E-03 -9.15785150E-03 -1.04939803E-03  6.23907235E-04
 -2.33345790E-03  1.17529480E-04 -3.68657017E-04 -3.72566808E-04 -1.30927162E-03
  3.35368975E-03 -1.22252464E-03 -1.09899768E-04  3.70716733E-03  7.66455633E-03
 -1.52255882E-03  1.10696585E-02 -2.02878089E-03  9.13760776E-03  9.75678426E-03
  1.41356966E-03  1.10343508E-03 -3.76757791E-04 -1.34224719E-03  4.22963380E-03
  2.91158336E-03 -4.95807904E-04  8.34522892E-02 -8.08264835E-03  3.42426073E-03
 -7.94478859E-03 -1.04299215E-03  1.39050531E-03  9.86557854E-03 -1.78467482E-04
  3.86686577E-04 -2.15442619E-04 -7.68391169E-04  1.69957345E-03 -1.61448468E-03
  5.96346265E-05  8.09269521E-02  2.17820953E-03  5.99991396E-03  2.34985919E-02
 -5.46735791E-05  5.40602755E-04 -2.17009438E-03 -1.18982499E-02 -1.80629443E-02
 -7.51892741E-04 -8.26688862E-03  3.77760133E-02 -2.82231674E-04  3.37313082E-03
  4.08794241E-05 -2.39640890E-05  1.54455201E-02 -1.20314551E-02  4.17851023E-04
  9.81741148E-04  1.88258038E-03  7.99749842E-03  9.67121196E-03  7.02819176E-04
 -2.12269318E-02  1.89259487E-02  9.22853712E-04  4.98952516E-03  3.97864780E-04
 -5.92568023E-05  4.38520931E-03 -8.53264849E-03 -5.59613794E-04 -1.13481770E-03
  2.05733944E-03 -8.82754764E-03 -2.06473250E-02  9.39469105E-04 -2.13042497E-03
  6.04876964E-03 -2.04266244E-03  6.59614540E-03 -1.22670555E-04 -5.46328531E-04
  5.75736746E-03 -1.00056238E-02  5.40782708E-03  1.79700159E-02 -4.90214203E-02
  2.05606955E-02 -9.52483367E-03 -2.94225985E-03 -1.96426417E-02  5.86918132E-03
  4.10758804E-03  1.04509767E-02 -5.66293181E-04 -1.57746942E-04  1.29001980E-02
  1.04119994E-02  7.58252845E-03  2.65783498E-02 -7.92045155E-02 -2.54542324E-03
 -1.08352747E-03  7.52001614E-04  1.52477339E-02  1.66021290E-02 -1.93821066E-03
  1.83128164E-02 -7.09570523E-05 -2.55960927E-04  7.91639835E-04  5.15665162E-04
 -1.51288872E-07 -4.40573200E-02  8.91920103E-04 -7.05385565E-04  5.78142024E-04
 -1.91773344E-05 -1.38975266E-03 -8.51073577E-03 -1.90145490E-04  1.60599093E-06
 -7.86983746E-05 -2.94620034E-04  1.04295227E-03  2.28040799E-04  3.40827086E-04
  1.27523647E-02  1.09800803E-03 -5.75423520E-04 -1.77423594E-03 -2.71247134E-04
  8.54364190E-03 -5.56035480E-03  4.00639444E-05 -2.21881784E-04 -1.62507510E-05
 -7.99972997E-05  3.67966020E-04 -4.73706006E-04 -1.84797361E-04  4.16423686E-02
  7.57558403E-04  4.48295776E-04  9.12883816E-03 -1.18640143E-04 -1.92024900E-04
  2.68404216E-03  7.62905387E-05 -1.10124510E-04  9.25488135E-05  2.45345444E-04
 -4.55945024E-04 -1.95034140E-04  3.47991188E-04  2.40233265E-02  7.69201337E-04
  5.83310091E-04 -6.48403248E-06 -1.89504868E-04 -1.34340404E-03 -8.09081179E-03
 -5.50075123E-06 -1.27788112E-04 -4.40579383E-05 -1.96734586E-04  8.99080143E-04
  1.79142251E-04  2.13944175E-04 -2.15497700E-02 -1.52905404E-04  5.04348857E-05
 -9.91431188E-04 -1.36682436E-04  8.08169916E-03  6.59591666E-05  2.37098201E-04
 -6.58479531E-04 -3.84707857E-04  3.91643042E-05  1.86722790E-02 -1.15974712E-03
  7.98520088E-04 -1.43961059E-03  1.20545018E-04 -1.07363624E-04  4.20141833E-04
  1.90469820E-04 -3.29752250E-05  9.37018490E-05  3.40413372E-04 -1.10265562E-03
 -2.37272097E-04 -2.38777511E-04  4.09416517E-04 -7.01605280E-04  5.44000415E-04
  2.98040381E-03  2.85005664E-04 -3.91238561E-03  2.51204957E-03 -1.22614470E-04
  7.10635075E-05  1.30824584E-04  4.60242061E-04 -1.25750612E-03  6.95263991E-05
 -4.28751228E-04 -2.37203520E-02 -1.78717654E-03  1.20117066E-03 -9.76132807E-03
  5.41008082E-04 -2.68899757E-03 -5.38684542E-03 -1.86149601E-04 -2.44029065E-04
 -4.08445471E-05 -2.20223811E-05 -5.06966700E-04  3.04041788E-04  2.83257746E-04
 -4.66859712E-02  3.86359246E-03 -9.02122031E-04  4.43267731E-03  3.31877040E-04
 -1.08860250E-03  5.03033788E-04  5.54419570E-04 -4.54495060E-04  6.27802530E-05
  2.46530124E-04 -7.47300035E-04  2.77648467E-04 -1.30349645E-04 -2.00420176E-02
 -3.22336543E-04 -1.85434890E-03 -9.16827774E-03  5.19886988E-04 -3.16623031E-03
  5.43789018E-03 -2.04966949E-03 -7.45155369E-03  1.84020931E-02  2.40324782E-02
  2.21476338E-02  4.46387862E-04 -2.11006078E-02 -6.70043760E-02  2.46889942E-04
 -1.61563172E-02 -1.21721967E-04  7.17472662E-05 -2.63324778E-02  2.23011826E-02
 -1.13292190E-03 -3.25859060E-03  6.98844185E-03 -2.45600317E-03 -1.02999275E-02
 -9.28732954E-04  7.32151714E-02 -2.42049253E-02 -9.16210013E-04  4.13397792E-03
 -3.74663094E-04  4.90655835E-05 -2.38550079E-02  3.76481093E-03  7.42717290E-03
  2.48833508E-02 -7.03480040E-02 -2.94399315E-02 -5.62235185E-02 -9.41894345E-04
  7.12838611E-02 -2.48980445E-02  1.43165456E-03  5.77521499E-03  7.45854073E-05
  1.84874918E-04  1.72913014E-02  7.29133306E-04  6.25505589E-03  2.07487741E-02
 -5.79698226E-02  8.63548550E-02  2.61010907E-02  1.32178882E-03 -1.55607273E-02
 -1.60492784E-02 -3.74462645E-03  3.50693725E-03 -9.12321859E-04  3.61470999E-04
  5.42758129E-02 -2.17781529E-02  2.43131461E-04 -4.32965365E-04  6.14877751E-03
 -1.07164264E-01 -7.35081761E-03 -6.36636422E-04  4.10376811E-02  2.64845823E-02
  1.37822564E-03 -5.31553422E-03  6.70793235E-06 -7.00540692E-05  5.10288291E-02
 -6.84394675E-03 -2.21972251E-02  6.57477091E-02  1.36121020E-02  4.79620305E-02
 -9.99892539E-05  5.26934291E-02  1.05663026E-02 -2.10509112E-04  7.04500068E-03
  7.22576042E-05 -2.85319019E-05  3.55797170E-02  5.70580800E-03  3.73949253E-03
  1.14228660E-02 -2.81342666E-02  1.44680724E-02  1.16186400E-02  5.85424428E-04
 -1.29311948E-02 -6.64647665E-03  7.13120669E-04 -3.56025459E-03  2.82653822E-04
  5.25755531E-05  3.37973852E-03 -2.39322519E-02 -2.99799267E-03 -9.43939637E-03
  2.96331347E-02  1.42993899E-02 -3.11970795E-03  2.64173246E-04 -1.23436135E-02
  3.02568184E-02 -1.12059700E-03  9.98805587E-03  9.96489106E-05 -2.52562071E-04
 -7.84507593E-04 -3.02846795E-02  1.49375030E-02  4.92739952E-02 -1.39498883E-01
 -2.30324350E-02 -6.98077224E-02 -1.71692656E-03  6.36093607E-02  7.30768238E-03
  1.94032687E-03  1.27009794E-02  4.08024060E-04 -3.72003695E-04 -4.48796444E-02
  1.66620781E-02 -2.82388882E-03 -7.26217974E-03  1.30445432E-02  1.82832051E-02
  1.23876124E-01  7.22278930E-04  7.52667243E-03 -9.02220205E-02 -1.06776155E-03
  7.14129424E-03  5.06688004E-05  1.08870592E-04 -1.79042599E-02  7.26310352E-02
  1.61174338E-03  5.65257816E-03 -1.34449636E-02 -1.19136649E-02 -2.44141039E-02
 -9.19977444E-06  7.35267844E-03  1.58598477E-02 -1.00112301E-04  6.88164476E-03
 -5.74896683E-06 -1.83206108E-05  1.62598621E-02 -1.30503007E-02 -4.85551538E-04
 -1.69461847E-03  7.15594274E-03 -7.39965050E-04  4.83535339E-03 -9.39042561E-06
 -2.46756773E-02  4.51767827E-03  1.47622903E-04  1.03361999E-04  3.68949169E-05
  1.70745193E-05  7.19651954E-03 -4.64060906E-03 -3.86432614E-04 -1.22294758E-03
  3.02410582E-03 -1.32643785E-03  2.64355749E-03 -2.06582709E-06 -1.30378674E-02
  4.67484531E-03 -4.51935897E-04  4.16539238E-04 -8.02441018E-05 -9.52528859E-05
 -1.13691382E-03 -3.73894169E-03 -4.57336008E-04 -1.58636616E-03  6.20158668E-03
 -3.19867085E-03  2.79570212E-03  3.41310584E-05 -8.79633445E-03  5.55286945E-03
  9.74017705E-04  8.33027553E-04  1.75778411E-04 -5.33364470E-05 -8.37230700E-03
  4.78496777E-03  1.62475453E-03  5.75246943E-03 -1.43518657E-02  2.86489293E-02
  5.84699209E-05 -1.72375793E-05 -2.53139851E-03 -4.91882352E-03 -3.89525822E-04
  6.84181397E-03 -6.43986890E-05  8.46793069E-05 -1.65436159E-02  5.71829095E-03
  1.86612733E-01  5.68984183E-03  1.94300598E-02 -4.37047300E-02 -4.05751187E-02
 -8.47532715E-02 -2.16271241E-05  2.16311940E-02  5.56592113E-02 -3.75963865E-04
  2.27418042E-02 -2.30693760E-05 -5.85372945E-05  5.36849812E-02 -4.28183065E-02
 -1.69456971E-03 -6.21100281E-03  2.76501996E-02 -2.62079563E-03  1.75753871E-02
 -4.07573619E-05 -8.04760544E-02  2.01098869E-02  5.34085078E-04  1.29616166E-03
  1.21516467E-04  6.35843752E-05  2.38534821E-02 -1.51082969E-02 -1.21642993E-03
 -4.22514048E-03  1.27023975E-02 -4.98537544E-03  9.88095576E-03 -1.21894700E-05
 -4.02825026E-02  1.76084027E-02 -1.62547086E-03  9.77190439E-04 -2.98534097E-04
 -3.45263809E-04 -3.27220194E-03 -1.14217380E-02 -1.59130178E-03 -5.77441491E-03
  2.37904041E-02 -1.17946437E-02  1.00162428E-02  1.42986002E-04 -3.88865467E-02
  2.69861301E-02  3.51194695E-03  3.84175491E-03  6.22308471E-04 -1.61190057E-04
 -2.79403178E-02  1.59357855E-02  5.75644104E-03  1.97437958E-02 -4.58319074E-02
  9.91332944E-02  1.73018176E-04 -6.63671406E-05 -1.48741543E-02 -5.51974018E-03
 -1.43593083E-03  2.28479073E-02 -2.20610620E-04  3.01777410E-04 -5.43615954E-02
  1.89534348E-02  4.48486573E-01  1.08622678E+00 -1.50610330E-02 -4.86245411E-02
  8.91125868E-02  1.10945975E-01  2.77737375E-01  2.39830681E-06 -4.12981214E-02
 -1.47676171E-01  1.29558398E-03 -6.04539072E-02  8.06011532E-05  1.52050913E-04
 -1.44969652E-01  1.17200775E-01  7.15418057E-03  2.76446952E-02 -1.21821209E-01
  1.84905152E-02 -7.72411064E-02  1.77965514E-04  1.90882777E-01 -7.07899130E-02
 -1.69052415E-03 -5.29374164E-03 -3.23294977E-04 -1.93963223E-04 -6.23298108E-02
  4.45442499E-02  2.90491251E-03  1.24089878E-02 -4.70725601E-02  1.88611254E-02
 -3.88863970E-02  6.41663867E-05  8.09696035E-02 -8.31683797E-02  5.12577145E-03
  1.89118128E-03  1.04756425E-03  1.11449590E-03  7.02883058E-03  2.81394495E-02
  6.16907801E-03  2.36732827E-02 -9.85210941E-02  5.18652864E-02 -4.68387196E-02
 -5.28130868E-04  1.59276095E-01 -1.53234001E-01 -1.11843604E-02 -1.42671573E-02
 -1.97641109E-03  2.62086774E-04  8.74558279E-02 -3.90927141E-02 -1.42870055E-02
 -4.54865969E-02  7.64019959E-02 -3.16678342E-01 -1.74557900E-03  2.11650710E-04
  1.10405244E-01 -5.59977399E-02  4.73065516E-03 -6.06312856E-02  5.94139540E-04
 -9.26924051E-04  1.50440569E-01 -5.58597487E-02 -5.95705013E-02 -2.25901713E-01
  8.40939514E-01  1.58109074E-02  5.50745686E-02 -1.80464826E-01 -6.07851997E-02
 -1.98297916E-01 -2.42901595E-04  8.60095719E-02 -7.38244151E-02  5.51138891E-05
  5.33999845E-03 -1.78480234E-05 -1.37591381E-04  1.09539461E-01  2.36421613E-02
 -7.41298522E-04 -2.62547334E-03  1.85103461E-02 -1.58636883E-03  8.69454616E-03
 -1.00623977E-05 -5.69776703E-02 -8.01792498E-02 -4.56823593E-04  7.09592857E-03
  2.70511473E-05 -2.76407712E-05  2.61778398E-02 -8.23069455E-03  1.40058517E-03
  5.26093113E-03 -2.05789088E-02 -1.37978750E-02 -3.17933158E-02  3.29950406E-04
 -4.13880624E-02 -1.71781022E-02  8.94494270E-04  7.99570018E-03  2.30230615E-04
  2.40445367E-04 -2.45135609E-03 -1.44566153E-02  4.86756272E-03  1.76465643E-02
 -8.13859235E-02  3.83748880E-02 -3.58817592E-02 -1.16628477E-04  1.31215378E-02
 -7.91572182E-02 -1.35317746E-03 -3.29948276E-02 -4.87782462E-04 -1.83596808E-04
  3.81034805E-02 -5.44165291E-02 -2.90655721E-02 -1.00491943E-01  3.18092751E-01
 -4.05711433E-01  3.08075920E-04  8.38689564E-04  7.06117070E-03 -1.19478398E-01
  6.82732052E-04 -5.84838624E-03 -4.78860128E-05 -2.96179695E-04  4.81692416E-02
  5.98289040E-03  5.92845327E-04  2.30448457E-03 -2.07534134E-02  5.72555243E-01
  2.42450251E-02  8.38707367E-02 -2.71699285E-01 -1.79910155E-01 -3.04618726E-01
 -6.10550500E-04 -8.25117311E-02  1.36049355E-01 -1.20983091E-04 -1.30092513E-03
 -5.88074418E-06  5.93199428E-06 -1.31150130E-02 -6.36173834E-02 -4.83601564E-03
 -1.75776986E-02  7.72414432E-02 -8.68745345E-03  5.34828587E-02 -9.00221795E-05
 -9.03201038E-02  2.97946476E-02  8.18947651E-05  2.34855354E-02  5.95225561E-05
 -1.41639436E-05  5.51555774E-02  6.44489832E-03 -2.64821267E-03 -9.90875253E-03
  3.88233265E-02 -3.20713984E-02  1.91725394E-02  3.98714958E-04 -4.90771596E-02
 -1.20879669E-02 -6.65222594E-04 -9.67737505E-03 -3.29382410E-04 -2.33139079E-04
  1.03217214E-02  1.16363640E-02 -2.30487272E-03 -8.34035968E-03  3.17094378E-02
 -1.68054721E-02  2.08171628E-02  1.83694740E-04 -8.96792928E-02 -8.78246753E-03
  2.15581874E-03  7.68175184E-03  4.06590525E-04 -1.23887302E-04  3.51843094E-03
  7.05692966E-03  5.69726745E-05  1.82000448E-04 -2.64084761E-03 -1.42273584E-03
  2.65501139E-02 -7.14806263E-04 -2.80805639E-02  1.55523430E-01 -7.46478364E-04
 -3.95881398E-03 -2.26509999E-04  1.71045777E-04  2.11059759E-03 -1.03710734E-01
 -3.55597676E-03 -1.21627458E-02  5.10712907E-02 -2.13649137E-02  5.70258287E-01
  2.91298299E-05  1.02399332E-04 -3.45176719E-04 -2.07460497E-04 -5.73700652E-04
  2.58176257E-01 -1.27657900E-04 -1.15381125E-03  6.04920601E-03  5.01784095E-05
  1.55750569E-02  6.55186221E-02  2.33565296E-04 -1.66440368E-04 -1.25529059E-05
 -5.20647608E-05  2.22631500E-04 -7.69551162E-06  1.91173906E-04 -5.99412495E-02
  1.43622685E-03 -2.35222038E-03  1.14854627E-02 -2.66426030E-04 -3.83795748E-02
  3.01086222E-02  4.09040863E-04 -2.67931609E-04  2.20621107E-05  6.29071850E-05
  2.13765166E-04 -1.84385758E-04 -2.64673736E-04 -1.49116417E-01 -2.82956133E-03
  6.15293485E-03 -3.35979739E-02  6.86672129E-04  1.27489452E-02 -4.14771580E-04
 -9.31438508E-04 -6.00332265E-04  1.03574520E-04  3.62870205E-04 -1.58949613E-03
 -1.66951751E-03  2.92100314E-04  2.08681121E-02  1.26292311E-02  3.84091739E-04
  2.04187960E-02  4.58418128E-04 -1.85123936E-02  6.27998470E-02  2.71500218E-04
 -8.50281424E-04 -1.68115741E-05 -7.01136254E-05  6.31480266E-04  5.63740458E-04
 -8.38108278E-04  3.40451645E-01 -3.80570543E-03 -2.79746856E-03  4.48952122E-02
  5.35168153E-04 -5.13600493E-02  4.21956167E-03 -5.40818966E-04  4.55125057E-04
 -1.91996539E-05 -6.77151895E-05  1.70559635E-04 -2.25112041E-04  2.37787317E-04
  4.37157897E-01 -1.14270372E-02 -4.53569531E-02  1.68877626E-01  1.75736175E-01
 -6.15832374E-02 -1.89021436E-03  1.75265597E-02  2.23711929E+00  1.27430018E-03
 -1.93971114E-02  1.33157083E-04  4.65897167E-05 -1.23549827E-01 -1.60032022E-01
 -2.45381780E-02 -7.99901070E-02  1.89410468E-01 -5.71916793E-02  9.02733604E-02
  1.29967951E-03 -1.39206418E+00  1.38919700E+00 -1.96195075E-03  2.56953645E-02
  5.12749473E-04  9.29480126E-05  4.41204338E-02 -5.84441391E-03  6.77188512E-03
  2.12193254E-02 -5.50240950E-02 -7.33959825E-02 -8.20320173E-03  2.77735616E-03
 -1.26685079E+00 -1.02397460E+00  4.17886754E-03 -2.09708757E-02  1.24637817E-03
  7.19475664E-04  7.30126746E-02  1.26693388E-02  6.07420619E-03  2.61564394E-02
 -1.14284251E-01  5.78947903E-02  1.55025723E-02 -1.91397341E-03  1.12179019E-01
 -1.63741501E+00 -5.15920919E-03  1.08360998E-02 -3.08489951E-03 -3.64311794E-04
  4.90773155E-02  5.05957733E-02  4.23096053E-03  1.83720039E-02 -9.33124848E-02
  2.40966108E-02  6.33011392E-02  1.37378155E-03  1.49751362E+00 -1.01889353E+00
 -6.08562202E-04  2.64404260E-03  1.11802018E-05  4.27349745E-04  1.34829143E-02
  1.82931149E-02 -1.11109010E-02 -4.22998470E-02  1.72913242E-01 -1.11053090E-01
 -5.84571688E-03 -8.25988198E-05  1.73862313E+00 -3.95221925E-03 -1.18407167E-02
  3.18891205E-02 -2.38524659E-02 -5.26390770E-02  1.25330887E-04  1.41993662E-01
  1.91648284E+00  3.12442187E-04  1.93647133E-02  2.15833320E-04 -2.70192910E-04
  8.75229893E-02 -1.45189417E-01 -4.41573878E-03 -1.97526808E-02  6.97699491E-02
  8.01006297E-02  2.95738995E-02  2.26183278E-03 -1.38700690E+00  1.13479698E+00
 -2.17110683E-04  1.69372835E-02  4.19663527E-04  4.07910578E-04  1.25885979E-01
 -4.04808142E-02 -1.47884752E-02 -5.30756722E-02  1.79563382E-01 -4.48144841E-02
  3.05454648E-02  1.26223294E-03 -1.21923606E+00 -7.69795264E-01  1.42188676E-03
 -1.87942130E-02  6.86719382E-04  5.58068656E-04  2.39699989E-02 -6.75856397E-03
  7.14119787E-03  1.91837609E-02 -3.66984340E-02 -3.91036531E-02 -6.54569057E-02
 -3.32291015E-03  1.36918354E-01 -1.33152971E+00  3.56664189E-04 -2.54128380E-02
  5.47114017E-04 -8.38081649E-04 -6.69694879E-02  7.29199876E-02 -1.23584433E-02
 -3.49944580E-02  6.42608556E-02  1.18781708E-01  1.52287604E-01 -1.34867964E-03
  1.13484283E+00 -9.96433499E-01 -2.82580879E-03  1.55325872E-02 -4.77942364E-05
  3.04579744E-04 -8.45717303E-02  9.55021955E-02  2.64575005E-02  8.70383209E-02
 -2.28316940E-01  3.02618216E-02 -9.54088926E-02 -1.12118714E-03  1.30009821E+00
  1.35743811E+00  1.40436228E-04  5.00010450E-04 -1.42667421E-03 -6.81018729E-04
 -4.05095283E-04  7.81689526E-02 -1.12187537E-03  2.34944737E-03  7.10601307E-04
  3.84816294E-04  3.31874848E-03  9.38162921E-03  7.96943834E-04 -2.88984037E-04
  1.41253675E-04  5.06255327E-04 -1.58087266E-03 -3.81571493E-04 -7.76591227E-05
  1.14898970E-02 -2.71156896E-03  8.02180831E-04  8.37411183E-03  2.25771555E-04
 -8.70687914E-03  8.96489771E-03  2.35200189E-04  1.20892702E-05  9.73348750E-05
  3.17335467E-04 -4.76516231E-04  6.17258803E-04  3.84828490E-04 -2.64276401E-02
 -4.55943689E-03  1.63134703E-03 -9.16651929E-03  8.94309388E-04 -1.78178871E-03
 -2.98243623E-03 -9.02802072E-04 -7.05060398E-04  3.02958071E-04  9.72668851E-04
 -2.67515750E-03 -2.85319452E-03  2.95773831E-05 -1.93437876E-02  5.64125709E-03
 -1.57820698E-03  5.86727651E-03  4.18254620E-04 -3.60441671E-03  9.19671091E-03
 -5.61527662E-04  5.92880361E-05  8.27669664E-05  2.56860358E-04 -1.65059907E-04
  1.20818088E-03  4.33027636E-05  4.54090137E-02 -1.75681208E-03 -3.60112844E-03
  2.40758265E-03  9.13226498E-04 -1.12011079E-02  3.55960588E-03 -1.10401074E-03
  8.90031318E-04  2.16005711E-04  7.97589307E-04 -2.72081440E-03 -2.29201305E-04
  5.76520584E-05  8.46401562E-02  5.91719143E-04  2.16330728E-03  1.92075278E-02
  5.69960849E-03  1.90678267E-02 -4.95993804E-02 -2.43719954E-02 -7.70849504E-03
  3.02156939E-05 -7.84051911E-03 -6.15104124E-02 -3.13302494E-04  9.40690641E-03
 -9.27948295E-05 -8.62475227E-05  2.01459142E-02 -2.95131100E-03  9.93797589E-05
  1.28252839E-03 -5.25377854E-03  7.09075945E-03 -2.34870418E-02 -2.98011001E-04
  2.51287609E-02 -1.66279317E-02  2.29544054E-04  7.31529482E-03 -4.62205131E-05
  7.67597886E-05  2.67969612E-03  6.40147700E-03  1.13568645E-03  3.68249787E-03
 -7.93686744E-03 -7.16397610E-03  7.67953897E-03 -3.44018272E-04  5.37226349E-02
  1.83400168E-02 -1.03853588E-03  4.98208961E-03 -2.71167108E-04 -2.87972985E-04
  4.12810730E-03  3.55641988E-03  7.89402827E-04  3.59129903E-03 -1.15936463E-02
  1.48877218E-02 -1.85907699E-02  9.26847855E-04 -6.82815024E-02  7.79175930E-02
  1.86896689E-03  1.32907924E-02  3.93937503E-04 -2.25695059E-04  6.38863875E-03
  1.00640001E-02  7.73967349E-03  2.61617531E-02 -7.18812553E-02  8.10813640E-03
 -1.70087856E-03 -7.31738530E-04 -4.33198268E-02  7.05512680E-02 -7.95427794E-04
  1.37992754E-02 -1.83073857E-04  1.93288924E-04 -1.03055852E-02  3.83386919E-03
  8.46707032E-03  2.98134798E-02 -9.09877561E-02 -2.22861054E-03 -1.11725467E-05
 -7.70181598E-04 -7.73498861E-02 -3.19715150E-02  1.24796094E-04  2.34006991E-02
 -1.20408305E-05 -3.65433672E-05  1.21355792E-04 -3.09247965E-05  2.26190570E-04
 -4.79952990E-02 -1.77643855E-04 -1.77450777E-04  2.24519654E-03  1.46989174E-04
 -1.57432226E-04  8.79643803E-03  1.85113699E-04  2.92609598E-05  3.99386522E-05
  1.31330634E-04 -3.53098568E-04  3.56137638E-05 -1.90747880E-05 -3.83956906E-02
  3.87186775E-04 -3.12699823E-04 -8.70131059E-03 -4.74246335E-05  4.11346542E-03
 -5.77075129E-03  5.45065961E-05 -8.50428049E-05  3.02210819E-05  9.56943496E-05
  2.93000730E-05  6.29741134E-05  6.57161520E-06  5.97211401E-03 -1.32476415E-03
  1.81188511E-03  6.20317273E-04  4.09493816E-04  8.55054720E-03  3.90900840E-03
 -3.71235376E-04 -2.96382018E-04  1.28535607E-04  4.13077872E-04 -1.27488505E-03
 -7.37336212E-04 -6.04748620E-05  3.94627205E-02  5.09492691E-03  1.53362202E-05
  9.66075660E-03  4.44650953E-04 -1.03385311E-02  8.41066732E-03  2.01610385E-04
 -9.80704584E-05  3.04625627E-05  8.25374093E-05  1.65929740E-04  2.79180244E-04
  1.04953648E-04  7.15151046E-02 -1.35866186E-03 -1.60537664E-03  1.11247017E-02
  3.58483297E-04 -3.45919848E-05 -3.40480458E-03 -3.43812000E-04  4.01834115E-04
  2.46779038E-05  9.17255397E-05 -3.27459226E-04 -1.20961486E-04 -3.41966876E-04
  2.81243054E-02  2.82906296E-04  9.14159935E-05  1.07085879E-03 -9.95538341E-05
  1.30203405E-02 -3.16219795E-05 -1.09420318E-04  3.02657782E-04  1.60423522E-04
  1.77321337E-05 -6.61690621E-02 -1.76232736E-04  1.02850625E-03  3.33187975E-04
 -8.43143902E-06 -6.90121030E-04  1.40895499E-03 -2.03608260E-04 -8.07059685E-05
 -2.47423771E-05 -9.04993401E-05  2.68501837E-04  1.67107566E-05  6.59007276E-05
 -3.01044168E-02 -3.23544044E-04  6.55335979E-04 -8.95533957E-03 -9.19096629E-05
  5.76524963E-03 -7.54238717E-03  5.13928454E-05  2.50411617E-05 -3.00687277E-05
 -1.07461982E-04  4.40517572E-04  3.63267259E-05  1.13403248E-04  1.01110191E-02
 -1.00766206E-03  2.08493128E-04  2.33266717E-03  4.04108163E-05  5.56346699E-03
  2.50935261E-03 -3.79824234E-05  6.58663086E-05 -1.17370605E-05 -5.85325557E-05
  2.03443779E-04 -7.95344378E-05 -6.72929739E-05  2.19687259E-02  2.23164765E-03
 -6.44824177E-04  4.24110657E-03  6.23997367E-05 -4.67233963E-03  8.53845990E-04
  2.91719164E-04  1.19718373E-04  1.25655553E-05  3.38180753E-05  2.92336957E-05
  7.71647865E-05 -8.51651519E-05  1.66480141E-02  1.23583288E-04 -9.58459265E-04
  3.24798596E-03  7.10834179E-05  4.73294662E-03 -2.50835487E-03 -8.18435908E-05
 -5.75664798E-05 -2.46467463E-05 -9.37273452E-05  3.43733353E-04 -2.13734307E-04
  9.25182047E-05 -2.39531010E-02  1.06507806E-03  5.15899424E-04 -8.19055533E-03
 -1.25905161E-04  6.60673362E-03  7.92607117E-03  8.62880382E-03  2.88064738E-02
 -8.13543498E-02 -6.53942996E-02  2.10204547E-02 -9.72952604E-05  7.18211310E-02
 -1.68963457E-01  1.79256828E-05  1.30193047E-02  5.17633117E-05 -5.60078759E-05
  5.71897852E-02  2.84957084E-02  7.20199087E-03  2.38720649E-02 -6.23846284E-02
  2.61983119E-02 -5.52177301E-02  3.87407722E-04  4.44384460E-02 -1.26162791E-01
  1.60402151E-04  2.66601115E-03  6.98543351E-05 -4.92374524E-05  1.72434088E-02
 -1.90005315E-03 -1.09888626E-03 -3.14299345E-03  5.88794289E-03  4.65533052E-03
 -8.53117939E-03  3.25789088E-04  4.29500849E-02  5.67455389E-02  1.60819672E-04
  4.40086427E-03  3.13500098E-05  1.21545120E-04 -2.38562158E-02 -3.36876693E-03
 -1.59715771E-03 -5.95316942E-03  1.33506509E-02 -2.99253380E-02  2.05673747E-02
 -7.15582194E-04  3.70663260E-02  5.81565051E-02  8.90115186E-06 -1.77223442E-02
  2.28761332E-04  1.26632875E-04 -2.14896681E-02 -2.36899166E-02 -1.67207483E-02
 -5.50544991E-02  1.53094297E-01 -4.92312989E-02  1.20687855E-03  3.58463420E-04
 -1.01960683E-01 -1.39373706E-02  2.08969194E-04 -1.17522800E-02  1.19789334E-04
 -1.59511129E-04 -5.07553824E-04  7.19079030E-03  7.88519473E-04  1.54228109E-03
 -2.54573348E-04  1.15574730E-01 -7.21200881E-03  2.41683971E-04 -1.42310976E-01
 -4.15092503E-02  3.68330331E-05 -1.71642296E-03  7.78325173E-05 -9.32015135E-05
  6.11055093E-02 -1.38294863E-02 -4.50832857E-02  1.27710898E-01 -1.87697648E-02
  7.03526317E-02  1.03335443E-04  7.61710438E-02 -2.45120912E-02  7.93001449E-05
 -1.76874243E-03  1.58700242E-05 -6.32654349E-05  5.27238149E-02  1.55012771E-02
  4.63379166E-03  1.50848422E-02 -4.44696341E-02  8.23107266E-03  6.47781510E-03
  2.76361883E-04  6.21977624E-03 -4.06424967E-02 -2.17902465E-05 -6.41548557E-03
  6.87575887E-05  2.82634517E-05  1.86196923E-03 -3.40893994E-02 -2.30543878E-03
 -6.22566894E-03  1.20622232E-02  2.05897983E-02 -1.11898341E-02 -3.23966206E-05
  1.28852327E-02  3.79445121E-02  3.73935633E-04  8.51449536E-03  2.03679014E-04
  5.91848765E-05 -3.77105966E-03 -2.39197819E-02  8.27592621E-03  2.73668766E-02
 -8.04919621E-02  1.49344631E-02 -4.97979884E-02 -6.52831320E-04  8.79397623E-02
  5.01722086E-03 -1.27393012E-03 -3.44125044E-03 -5.64604926E-05 -2.92839330E-04
 -2.58409511E-02  6.59935172E-03 -4.42077335E-03 -1.41224892E-02  4.03988455E-02
  8.52327034E-03  1.02064945E-01  8.13887807E-05  1.19176279E-02 -9.92671641E-02
  3.32144958E-04  6.25487485E-04  2.12169758E-04 -1.77884921E-04 -8.25824729E-03
  6.28037771E-02  3.91562418E-03  1.11599475E-02 -2.35067626E-02  1.45316540E-02
 -1.30593009E-01 -2.02921335E-04  1.57549930E-03  7.95821443E-02  3.18722832E-05
 -4.06964242E-03  1.56509301E-04 -5.45126614E-05  1.81175153E-02  7.69046013E-02
  1.29463280E-03  4.40474610E-03 -1.14485355E-02  2.54018304E-02 -1.74638698E-06
 -1.23158991E-05 -1.70668582E-02  7.12270675E-05 -3.97718456E-05  4.35677695E-03
 -2.75625215E-06 -4.12294885E-07 -2.54703279E-02 -1.30798871E-05 -3.37364005E-04
 -1.11435732E-03  1.74140456E-03 -4.08060747E-03  2.18980977E-03 -7.95554629E-06
  9.65308026E-03  1.31253854E-02  6.13931724E-05 -1.15542408E-03  3.95478270E-06
 -1.32677541E-06 -5.60268376E-03  8.42860339E-03  1.88053145E-04  6.17204520E-04
 -2.09720046E-03  3.21937331E-03 -5.74560562E-04  3.91623337E-06 -1.55739186E-04
 -9.06660266E-03 -1.53649997E-04 -1.77539427E-04 -1.41459899E-05 -3.55087856E-05
  1.28002554E-03  2.69983673E-03  2.55936756E-05  6.41468411E-05 -1.01849489E-04
  3.95690212E-04  4.26405950E-07  6.60912401E-06 -1.17755312E-02 -6.12426858E-05
  2.80520013E-04  1.67709291E-03  7.91232447E-06  3.99452186E-07  1.70368689E-03
 -3.43678558E-07  1.87969658E-04  6.16800301E-04 -2.09341192E-03  3.21814169E-03
  5.74173640E-04  1.36054120E-06 -4.57159651E-05  9.00620487E-03 -1.49819774E-04
 -1.77089634E-04 -1.66852577E-05  3.76365412E-05  1.28104698E-03 -2.70607264E-03
 -3.37147294E-04 -1.11363659E-03  1.74386602E-03 -4.07943661E-03 -2.18944357E-03
 -8.48913970E-06  9.78408795E-03 -1.30902291E-02  5.57040008E-05 -1.15348325E-03
 -2.03384332E-06  2.73450271E-06 -5.62429134E-03 -8.42886308E-03  1.88810409E-01
  4.54228824E-03  1.54771631E-02 -4.05051134E-02  9.06444817E-02 -5.59682548E-06
 -4.57481383E-05 -5.80369359E-02  2.27966907E-04 -1.30513577E-04  1.55527579E-02
 -8.35595775E-06 -9.44849618E-07 -8.76125696E-02 -4.42196757E-05 -1.15929939E-03
 -3.90969221E-03  6.72971360E-03 -1.50754788E-02  8.19546082E-03 -2.76437544E-05
  3.42073032E-02  4.48459373E-02  2.02807398E-04 -3.81628090E-03  1.41236737E-05
 -5.36894869E-06 -1.93013343E-02  2.85923940E-02  6.78888734E-04  2.24673179E-03
 -7.77354356E-03  1.17097812E-02 -2.02021478E-03  1.40531303E-05  2.23012859E-05
 -3.05669264E-02 -5.14956152E-04 -7.55327330E-04 -4.68964675E-05 -1.20927997E-04
  4.27065964E-03  8.90152654E-03  9.54335095E-05  2.58154696E-04 -5.28323391E-04
  1.36318558E-03  1.63742668E-06  1.88374603E-05 -3.93212509E-02 -1.94251648E-04
  9.36847001E-04  5.82745403E-03  2.33669798E-05  1.35165318E-06  5.68161629E-03
 -1.42197844E-06  6.78481254E-04  2.24499855E-03 -7.76002483E-03  1.17054617E-02
  2.01876060E-03  4.77299268E-06  3.71603364E-04  3.03761789E-02 -5.02427762E-04
 -7.53785361E-04 -5.53438536E-05  1.28248740E-04  4.27449885E-03 -8.92255335E-03
 -1.15862265E-03 -3.90740463E-03  6.73775202E-03 -1.50709767E-02 -8.19376776E-03
 -3.00417279E-05  3.46268623E-02 -4.47419503E-02  1.82701546E-04 -3.80988685E-03
 -6.17585720E-06  1.01384913E-05 -1.93731785E-02 -2.85927157E-02  4.53930524E-01
  1.10250080E+00 -8.23174802E-03 -2.81816818E-02  7.22917500E-02 -1.98390354E-01
  6.13064647E-06  1.46758169E-04  6.82444280E-02 -8.42072795E-05  8.91002793E-05
 -3.88161900E-02  1.25362842E-05 -1.30248271E-05  1.68866009E-01  8.33990309E-05
  2.39435314E-03  8.42644960E-03 -1.78481557E-02  4.12531650E-02 -2.59293639E-02
  4.66487916E-05 -8.41039763E-02 -7.78196847E-02 -1.82051033E-04  7.98016612E-03
 -2.96608052E-05  1.97649415E-05  3.46913215E-02 -4.71136492E-02 -1.70258697E-03
 -5.87220758E-03  2.22722435E-02 -3.02413720E-02  4.81622628E-03 -3.48020621E-05
 -1.98398888E-02  4.90475997E-02  4.79269567E-04  3.05263676E-03 -2.14583649E-05
  1.33485586E-04 -6.52297522E-03 -1.26051255E-02 -3.15221053E-04 -1.07481636E-03
  3.63496331E-03 -2.78135653E-03 -5.48666653E-06  7.21260090E-05  4.61761621E-02
  2.10920713E-05 -5.96109056E-04 -9.77666313E-03  1.32285229E-04 -1.20266760E-06
 -1.08660576E-02  9.33849560E-06 -1.70078979E-03 -5.86563419E-03  2.22367186E-02
 -3.02309210E-02 -4.81090543E-03 -1.39899194E-05 -1.98749445E-02 -4.90377474E-02
  4.58439416E-04  3.04787114E-03 -9.85720597E-06 -1.42892119E-04 -6.53484013E-03
  1.26425501E-02  2.39410657E-03  8.42542438E-03 -1.78639745E-02  4.12437587E-02
  2.59192121E-02  6.07718212E-05 -8.42693660E-02  7.79954105E-02 -1.28532547E-04
  7.97207450E-03  1.12965070E-05 -3.08315938E-05  3.48127746E-02  4.71084643E-02
 -5.19113372E-02 -1.93796328E-01  4.46251760E-01 -2.21423357E-02 -7.62221147E-02
  2.46050458E-01 -3.92928328E-01 -1.27288233E-05  1.48597692E-04 -5.41996115E-02
 -2.35317246E-04 -9.98997892E-05 -5.97155794E-02  4.50661710E-05 -3.49809319E-05
  1.56998949E-01  1.01638805E-04  4.44987325E-03  1.58013933E-02 -6.02830589E-02
  6.31569193E-02 -3.70934699E-02  6.54928921E-05 -1.08808989E-01 -2.05052589E-02
 -4.22373330E-05 -5.57519317E-03 -3.33855411E-05  2.78910133E-05  3.70926928E-02
 -6.23415273E-02 -3.06406708E-03 -1.09384035E-02  4.28030740E-02 -4.74772036E-02
  6.79025696E-03  3.58651792E-05 -5.78288403E-02  4.21172799E-02 -1.38080114E-04
  8.44993222E-03 -2.02231311E-04 -5.74830906E-05 -4.56417695E-03 -1.06103645E-02
 -7.03902951E-04 -2.76635338E-03  1.38066826E-02 -9.22899119E-03 -3.39197134E-07
  1.27313384E-04  2.12269677E-02  4.27528856E-05  9.53695652E-04 -9.05207900E-03
  1.91764712E-04  1.62339834E-06 -1.65858289E-02  1.53158186E-05 -3.06239443E-03
 -1.09324009E-02  4.27772295E-02 -4.74781214E-02 -6.79109887E-03  7.78710481E-05
 -5.78618208E-02 -4.20645222E-02 -1.41594808E-04  8.44066722E-03 -1.96930912E-04
  4.55730951E-05 -4.57708726E-03  1.06407415E-02  4.44953888E-03  1.57997089E-02
 -6.02801615E-02  6.31671311E-02  3.71128439E-02  8.36857478E-05 -1.09004735E-01
  2.05291248E-02  1.96029613E-05 -5.55116165E-03  6.56882270E-06 -5.12909638E-05
  3.72065360E-02  6.23172209E-02 -4.62350166E-03 -1.69246579E-02  4.38970758E-02
  6.57082587E-01 -1.07700905E-05 -3.61880080E-05  9.38511223E-05 -1.85144798E-04
  1.76167980E-02  7.31885221E-05 -9.38879777E-05  3.22839144E-02 -4.54956483E-05
 -3.45906489E-05 -2.01026239E-05  1.58598786E-05  9.51514519E-05 -8.45680429E-02
 -1.17262011E-03 -4.49600778E-03  2.29477106E-02 -9.97454215E-03  3.09419299E-04
  5.85181151E-06  4.39351186E-02 -1.01356913E-01  1.43634989E-05  5.39796590E-03
 -3.76561384E-06 -1.48721891E-05 -3.53697499E-04 -1.56463436E-03  3.78566674E-04
  1.38760559E-03 -5.99124776E-03  3.10730233E-03  2.33236538E-03 -2.74022711E-05
  5.52684148E-02  6.04726838E-02 -1.65045475E-05 -3.38857338E-03 -8.05186337E-05
 -6.45786023E-05 -2.23019010E-03 -7.38707770E-03 -1.61363140E-07 -8.38124075E-07
  8.50297438E-06 -4.56174122E-06 -8.15596618E-04 -3.22702071E-05  4.44588414E-05
  5.91128888E-02 -2.20072954E-05 -4.62860373E-06  1.54172893E-05  1.52675395E-05
 -1.53272156E-05 -4.64738234E-03 -3.80236919E-04 -1.39404789E-03  6.02666656E-03
 -3.15367307E-03  2.32284402E-03 -3.77273994E-05 -5.53541133E-02  6.03799127E-02
  4.90653923E-05  3.39929160E-03  7.16331742E-05 -6.48678515E-05  2.23233848E-03
 -7.35562016E-03  1.17639731E-03  4.50899251E-03 -2.29771653E-02  1.00250877E-02
  3.46676511E-04  2.39206779E-05 -4.40663492E-02 -1.01242484E-01 -2.27919528E-05
 -5.38679438E-03 -2.04950949E-05 -4.06077330E-05  3.54671486E-04 -1.48777873E-03
 -1.92576250E-06 -6.24975799E-06  8.08632064E-06  5.56836762E-05  5.65163590E-01
 -1.81481353E-06 -5.91516143E-06  5.24651303E-06 -1.33760657E-05 -1.45642794E-05
  1.91501235E-01  5.15039344E-04  2.78481576E-04  1.22794089E-02 -2.24759867E-04
 -5.84389939E-02 -3.41151652E-05 -1.12382803E-04 -8.24735121E-06 -6.22224648E-06
 -1.55675928E-05  3.21370533E-05  3.82785755E-05  5.51472853E-05  1.66614890E-02
 -9.24780104E-04  5.32562231E-04  1.22870689E-02  2.95914662E-04 -1.20607341E-02
  2.39970983E-02 -1.88767189E-04  5.14223486E-05 -3.26887984E-06  5.08821471E-06
 -6.16986864E-04 -1.51738529E-04 -1.66519793E-04 -7.07573597E-02  2.92781417E-03
 -4.09132655E-03 -4.13333531E-03 -7.09194889E-04 -6.95890699E-03 -4.25708237E-03
  6.52430321E-04  4.74052508E-04 -1.17159893E-04 -3.98151732E-04  1.59500195E-03
  1.62550638E-03 -1.63849648E-05 -5.58272411E-02 -1.18100988E-02 -2.88603614E-04
 -2.56016296E-02 -6.22110768E-04  1.81309063E-02  4.70154800E-06 -6.42116249E-04
 -1.13160756E-05 -8.02872985E-06 -1.19118708E-05 -5.51989405E-04 -1.85435849E-04
  1.93880954E-04 -7.07212139E-02  3.44116144E-03  3.81720685E-03 -4.17496330E-03
 -7.13967743E-04 -6.95144044E-03  4.26651475E-03  6.49072252E-04 -4.75935986E-04
 -2.52158498E-06 -2.38696464E-06 -1.28158239E-05  7.79561824E-05 -1.28230491E-04
  1.66816486E-02 -3.85759408E-04 -2.70303988E-04  1.24038935E-02  2.96867195E-04
 -1.20649379E-02 -2.40105325E-02 -1.87362311E-04 -4.85119038E-05 -7.81347558E-06
 -2.89553630E-05  8.85553132E-05  1.54547289E-04  3.88615275E-05  6.26290200E-01
 -9.57482290E-03 -3.21925337E-02  9.24253523E-02  6.01102340E-02 -6.86153650E-06
 -2.94524556E-04  1.46146604E-01 -9.51426963E-04  5.96954488E-04  6.14364717E-03
 -1.56350289E-05  4.16695554E-05  1.15298380E-02 -4.17810793E-06 -3.37901934E-03
 -1.17006079E-02  3.54914598E-02 -1.89616819E-02  5.90891395E-02  1.11377916E-04
  5.73323418E-02 -4.00034543E-02 -7.05353875E-04 -9.90988670E-03  5.41955739E-05
 -7.77349710E-05  3.25906461E-03 -3.25979104E-02 -5.39810533E-05  8.42087527E-04
 -1.34876000E-02  4.30824376E-04 -1.62883994E-03  2.27498490E-04  6.41390893E-02
  4.26363818E-02  1.91342029E-03 -5.00082451E-03  4.48884734E-04  3.86747638E-04
  2.62803477E-03 -1.65655019E-02  1.08681169E-03  4.56895228E-03 -2.15322504E-02
  4.90391918E-03  7.30812584E-07 -8.22227499E-04  1.14861508E-01  9.83612615E-04
 -4.49553639E-03 -8.96029098E-03 -8.64888706E-04 -3.78925863E-06  7.64169093E-03
 -8.93531734E-06 -4.77097792E-05  8.63592205E-04 -1.35482635E-02  4.68031091E-04
  1.62583175E-03  2.29873373E-04  6.23682106E-02 -4.16069056E-02  1.89395289E-03
 -4.98620518E-03  4.64552016E-04 -4.04802564E-04  2.62318751E-03  1.65642952E-02
 -3.37831869E-03 -1.16978356E-02  3.54671666E-02 -1.90383345E-02 -5.90342797E-02
  6.86583407E-05  5.55634142E-02  3.89382825E-02 -7.24754841E-04 -9.91420447E-03
  6.07919580E-05  9.63517268E-05  3.28882342E-03  3.26116120E-02 -1.17406812E-02
 -4.16378616E-02  6.84606190E-02 -6.02259833E-02  6.34518777E-05  5.98908787E-05
  8.44646327E-02 -1.50219504E-05 -5.39654300E-05  1.43594941E-04  1.12722493E-05
  1.16694149E-01  7.62380538E-05  2.45303936E-04 -7.70783016E-01 -9.87303298E-05
 -2.45750861E-05 -3.98876982E-05 -8.04631950E-05 -4.91417243E-05  1.03738324E-01
  7.47668855E-03  2.49481218E-02 -6.80034718E-02  2.22789605E-03 -7.45360618E-02
 -6.63544612E-06  4.77233375E-01 -3.82323621E-01  3.33824459E-04 -1.54447218E-02
 -6.10475903E-05 -1.24761561E-04 -4.17574146E-02  1.60810492E-02  2.18642713E-03
  8.17322869E-03 -2.78011465E-02  2.65628228E-02 -2.98752790E-04 -1.81605386E-04
  4.18998434E-01  2.67962782E-01 -5.72201833E-04  1.18268611E-02 -1.75581695E-04
 -1.83125143E-04 -1.62077788E-02  8.61032153E-03 -1.27912407E-05 -4.47946817E-05
  1.29375977E-04 -1.28997160E-05 -1.47191855E-02 -8.88296876E-06  2.32427317E-04
  4.80069836E-01 -4.63258180E-05 -5.66426347E-05  7.17537248E-06 -3.36479518E-05
  1.19246129E-05 -1.84218375E-02 -2.20670595E-03 -8.24533499E-03  2.80110182E-02
 -2.66537472E-02 -3.46711413E-04  1.45624112E-04 -4.18868461E-01  2.68015273E-01
  8.21897331E-04 -1.18775535E-02  1.39758238E-04 -1.71724802E-04  1.62643157E-02
  8.52585659E-03 -7.51417660E-03 -2.50785342E-02  6.83721319E-02 -2.23060928E-03
 -7.45199206E-02 -3.17652695E-05 -4.77555472E-01 -3.81945935E-01 -5.46076430E-04
  1.53089801E-02  6.01349520E-05 -2.10641537E-04  4.18213723E-02  1.60744583E-02
 -1.33404324E-05 -4.52738488E-05  6.53073605E-05  1.08439886E-04 -1.46663919E-01
  7.33192496E-05  6.77770513E-05  2.28822619E-01  2.62417061E-05  9.55401853E-05
 -2.98010664E-04 -1.10696635E-05  1.83005330E-05  1.10028930E-01  2.22888624E-05
  9.25672880E-05 -3.20768403E-04 -9.54969883E-05 -3.02460225E-03 -4.62925706E-07
  3.70767501E-05 -1.97367345E-05  2.60024380E-05  1.01529435E-04 -3.62473461E-04
 -7.21641452E-05  1.00506740E-05  3.48900926E-02 -8.74414859E-04  1.80517865E-04
  1.19835928E-02  2.16579230E-04 -1.14398759E-02  1.31759967E-02 -1.27479803E-04
  6.99940511E-05  7.19138994E-06  3.88759069E-05 -4.85659341E-04  1.06829759E-04
 -3.49873874E-05 -3.43011644E-02  1.37642008E-03 -2.41282397E-03 -4.07650175E-03
 -3.34772710E-04 -7.90685666E-03 -3.67297610E-03  2.42175203E-04  1.59567393E-04
 -3.30741662E-05 -1.15318912E-04  5.80865031E-04  4.80370026E-04 -1.55368223E-06
 -3.73260845E-02 -7.44313114E-03 -6.03748060E-05 -1.26684705E-02 -3.11273012E-04
  1.22003507E-02  1.74506469E-06 -6.52307180E-04 -8.14854923E-06  3.60124195E-06
  2.64277667E-05 -4.43141505E-04  1.05594070E-04  4.30234874E-05 -3.42699925E-02
  1.47769761E-03  2.31115702E-03 -4.07946448E-03 -3.31696470E-04 -7.90606652E-03
  3.67746939E-03  2.40391074E-04 -1.46903415E-04  2.57480906E-05  1.01142221E-04
 -3.65078302E-04 -5.97324902E-05 -1.12564512E-04  3.49287980E-02 -7.53362848E-04
 -9.31819839E-05  1.20131741E-02  2.04948403E-04 -1.14424255E-02 -1.31753551E-02
 -1.33370862E-04 -5.12233201E-05  1.58910693E-05  5.31702236E-05 -4.18101285E-05
 -4.63064410E-06  9.50566097E-05  7.54797477E-02 -2.72928918E-04 -3.52908265E-05
  2.53891826E-02  4.26540296E-03  1.41058593E-02 -4.31668478E-02 -1.21018038E-02
 -1.40739861E-05 -2.49190868E-05 -1.14458339E-01  6.83653826E-04 -3.88571124E-04
 -1.33744229E-02  2.86327585E-05 -2.54055161E-05 -1.39733846E-02  3.94693042E-06
 -3.28044078E-06  3.29235450E-04 -3.35874677E-03  1.39764825E-02 -2.38379067E-02
 -1.68660261E-05 -3.19126136E-02  2.70528725E-02  5.09735023E-04  3.64308805E-03
  1.97135636E-05  2.13021237E-06 -9.80648396E-03  2.28866918E-02 -2.29862473E-04
 -1.28000784E-03  9.41320403E-03 -8.41827444E-03  3.04123119E-03  4.69084597E-05
 -4.60875972E-02 -2.63692575E-02 -1.33671423E-03  2.33860197E-03 -2.87125166E-04
 -2.81218348E-04  2.85464050E-03  1.01197669E-02 -1.85673671E-04 -1.00579553E-03
  6.20816274E-03 -3.46807509E-03 -6.95470884E-06  2.40962519E-04 -7.32253717E-02
 -7.05012945E-04  3.18379880E-03  6.43778567E-03  4.38389344E-04  3.55696501E-06
 -2.16008128E-03  1.14304597E-05 -2.29848401E-04 -1.28010375E-03  9.41153443E-03
 -8.43392498E-03 -3.03518618E-03  4.43978808E-05 -4.48011998E-02  2.56735970E-02
 -1.33416871E-03  2.33259880E-03 -2.97386955E-04  2.94422415E-04  2.85128777E-03
 -1.01271420E-02 -1.50211082E-06  3.35288733E-04 -3.36455464E-03  1.40080458E-02
  2.38261445E-02 -2.89419197E-06 -3.06468048E-02 -2.63547685E-02  5.34511696E-04
  3.65470157E-03  2.23093858E-05 -2.33208585E-06 -9.82506495E-03 -2.28947947E-02
  4.60151386E-03  1.47081683E-02 -7.67767276E-03  9.90556401E-03 -1.73713175E-06
 -2.37772394E-04 -5.06560943E-02 -4.03512620E-05  1.04280268E-04  4.35864803E-02
  6.35112960E-06  2.28584026E-05 -7.36535859E-05 -9.67697511E-06 -8.68578058E-06
  9.55438130E-02  1.81208745E-04 -2.30839557E-04 -1.45002822E-03 -9.75353802E-05
  3.98850875E-03  3.00623192E-06  1.85747440E-05 -1.06414714E-06  2.12861576E-06
  1.01351113E-05 -3.92379989E-05 -3.60835542E-05  2.45682088E-05  3.92565389E-02
 -2.77529308E-04 -1.59211837E-04  1.22659323E-02  7.15498561E-05 -9.96609655E-03
  1.11850147E-02 -5.11339900E-05  1.17409168E-05 -6.10849946E-06 -1.27882910E-05
 -2.21905281E-04  1.52544071E-05 -1.11732947E-05 -2.23429692E-02  1.09402072E-03
 -1.21807561E-03 -3.90251887E-03 -2.46719280E-04 -7.74653599E-03 -3.53448838E-03
  1.70463488E-04  9.97313728E-05 -3.12790736E-05 -1.05897405E-04  4.43918054E-04
  2.83853420E-04 -5.65121123E-06 -3.20248426E-02 -4.40268386E-03  2.08363908E-04
 -7.95670463E-03 -2.95466766E-04  8.62693808E-03 -2.49327226E-06 -4.24494098E-04
 -6.14262927E-06 -6.20556880E-06 -1.29754061E-05 -2.19067692E-04  2.08932307E-05
  1.93088220E-05 -2.23477471E-02  7.47042338E-04  1.46058717E-03 -3.90558089E-03
 -2.41907222E-04 -7.74174604E-03  3.53728703E-03  1.71126117E-04 -9.90161114E-05
  2.46855307E-06  1.08587209E-05 -4.32235227E-05 -4.23234925E-05 -5.97351731E-05
  3.92576591E-02 -6.54519901E-04 -1.69799107E-04  1.22759917E-02  7.25186648E-05
 -9.97361426E-03 -1.11810074E-02 -4.61395570E-05 -5.22106016E-06  2.82139363E-07
  9.55543145E-07  9.22800075E-06 -1.86887448E-06  5.09723125E-05  5.75431789E-03
 -1.18015590E-04  1.90636307E-05  1.76333398E-02  1.36979938E-05  1.78948247E-02
 -2.64481662E-06 -8.57660399E-06  2.04264134E-05 -6.45825500E-05 -4.34612317E-05
  3.43730856E-05 -2.31651621E-04  6.00147240E-04  6.34521499E-07 -2.38140943E-05
  2.46304349E-06 -9.15527825E-03 -3.47474985E-06 -1.18882815E-06 -3.10919792E-06
 -9.47274110E-06  1.96150178E-05  9.56610802E-07 -1.03191559E-05  8.24885097E-04
 -5.75400302E-04  3.01588317E-04 -8.52881771E-04  7.21024483E-06  2.02233260E-04
 -2.31004015E-03 -2.26458786E-05  2.20566097E-05 -4.12086038E-07 -2.11558364E-06
  1.92486262E-05 -9.65836657E-06  6.50633639E-06  4.33940625E-03 -5.88039395E-04
 -3.33031417E-04 -3.27239505E-04  2.71364963E-06 -3.46718765E-04  3.07169529E-04
  1.74437221E-05 -3.20247373E-07  1.32436835E-06  4.55094747E-06 -9.67045182E-06
 -4.83739909E-07 -3.55209558E-06 -1.19262490E-05 -9.43316344E-05 -5.92113206E-04
  7.94559762E-06  1.57994050E-05  3.08818655E-06 -1.41516995E-03 -8.84807588E-06
  3.97391287E-05  3.05484098E-06  1.12602125E-05 -3.86198849E-05  1.36382275E-05
  1.27426684E-05 -4.35191338E-03  4.61324602E-04 -2.74669735E-04  3.07591129E-04
  1.02117803E-05  3.40171455E-04  3.12338798E-04 -1.30266936E-05 -4.94756104E-06
  9.36492370E-06  3.01241490E-05 -7.49996096E-05 -2.87027240E-06  2.16889339E-05
 -7.96412426E-04  5.39996571E-04  2.03213300E-04  8.81889565E-04  6.72880418E-06
 -2.13088288E-04 -2.31716889E-03 -2.17540694E-05 -8.55651023E-06  4.48189661E-06
  1.40401636E-05  3.04686544E-06  6.52870860E-05 -6.10983802E-05 -6.21563758E-06
 -8.18249198E-05 -9.39885153E-05  4.65434047E-07  2.95167186E-05 -1.54072052E-05
  3.46118117E-02 -1.47627692E-02 -4.98385219E-02  1.38228697E-01 -7.98409423E-02
 -6.99043079E-05  1.06630513E-04 -1.97690980E-01  1.83396393E-04 -2.40585854E-04
 -5.06596607E-02  3.96407840E-05 -3.28217124E-05 -1.08623395E-02  3.05029716E-05
 -3.41135404E-03 -1.17489197E-02  2.82032458E-02 -1.01287985E-02 -4.37031071E-03
  5.43119420E-06 -1.45347867E-02  3.24443406E-02  1.73331774E-04 -9.99584970E-03
 -3.67856602E-05 -4.09841459E-05 -2.15939422E-02  1.41733745E-03 -1.06496105E-03
 -4.13147461E-03  1.63778495E-02 -2.41519409E-03  2.06582342E-03 -1.56498606E-05
 -5.79971759E-02  4.28297822E-04 -5.24451019E-04 -1.18552794E-03 -1.85172296E-04
 -1.14678978E-04  8.14023714E-03  8.11945610E-03 -1.79326244E-03 -6.38201504E-03
  2.21862863E-02 -3.62468572E-03 -3.83670751E-07  2.08421656E-04 -2.63376833E-02
 -3.41822802E-04  1.46880330E-03  1.92734632E-04  2.46156908E-04  4.87820933E-08
 -5.95982149E-03  5.41695571E-06 -1.06592355E-03 -4.13513497E-03  1.63931326E-02
 -2.43630475E-03 -2.07815052E-03 -4.04932419E-05 -5.73168792E-02 -6.11068553E-04
 -5.28917531E-04 -1.19348214E-03 -1.93143817E-04  1.25289103E-04  8.12264298E-03
 -8.13619319E-03 -3.39967002E-03 -1.17087513E-02  2.80790675E-02 -1.00488905E-02
  4.39938559E-03  1.50879508E-05 -1.39560861E-02 -3.24293196E-02  1.94234058E-04
 -9.94998742E-03 -1.64641537E-05  5.53366166E-05 -2.15364182E-02 -1.41842159E-03
  1.60864761E-03  4.44489805E-03  1.67679983E-02  1.02716701E-01  1.83917453E-04
  5.37992236E-06 -6.64053375E-02  2.37048597E-05  6.51164489E-05  5.04421538E-02
  5.01947655E-05  1.07049012E-04  1.65425301E-01 -1.14241108E-05 -4.12775659E-05
  1.49948172E-04 -9.19509937E-05  7.21944369E-02  4.90958227E-06 -2.47044976E-04
  2.42257727E-01  6.87928467E-05 -6.23016090E-05  2.72797609E-05  2.08062831E-05
 -1.78990667E-06  1.96011388E-02  4.05580081E-03  1.39611019E-02 -4.91574942E-02
  1.56912501E-02 -4.17415190E-02  4.96490890E-05 -2.28536301E-01  2.24537687E-01
 -1.30732439E-04  6.20948626E-03 -2.42310231E-05  7.45646719E-05  2.89596190E-03
  9.45479381E-03  8.63742411E-04  2.94205673E-03 -5.68324693E-03  3.27068379E-03
  5.17039607E-03 -4.97232699E-05 -1.99677206E-01 -1.78437407E-01  2.95022621E-04
  4.46126903E-03  1.34679283E-04  1.31079319E-04 -1.34639106E-03  1.20209443E-02
 -3.96147939E-06 -1.38463185E-05  4.33145195E-05 -6.76947101E-06 -7.51506885E-03
  8.09956057E-06 -8.74873031E-05 -2.47570605E-01  2.27854522E-05 -2.39012494E-06
 -6.65040759E-06  8.90163862E-05 -9.38365141E-07  4.20319175E-03 -8.66929629E-04
 -2.95467965E-03  5.72735996E-03 -3.29393548E-03  5.15421982E-03  6.55624471E-05
  1.99518075E-01 -1.78442169E-01 -4.40169407E-04 -4.47911654E-03 -1.19367741E-04
  1.27425487E-04  1.35691666E-03  1.19728184E-02 -4.06571554E-03 -1.39953146E-02
  4.92602864E-02 -1.57128071E-02 -4.16733697E-02 -8.61933923E-05  2.28635134E-01
  2.24232021E-01  2.32311775E-04 -6.22064839E-03  4.37810420E-05  1.04347861E-04
 -2.91411347E-03  9.43168448E-03  3.22913808E-06  9.56445136E-06  1.91557883E-05
  1.74491370E-04 -1.15305156E-01  4.23993111E-05 -1.41122475E-04  2.83939963E-03
  4.50293901E-06  6.48496973E-05 -4.34446925E-05  1.16544569E-05  5.61468371E-05
  1.07394541E-01 -1.05639420E-05 -1.05791354E-04  6.48705874E-04 -5.33754400E-04
 -7.35820293E-07  9.36666950E-04  1.71751780E-03  3.62780861E-05 -8.81579345E-06
  3.68914388E-06 -6.29803105E-05  4.22500398E-07  9.88927483E-04 -1.11689579E-06
  1.97884287E-04  7.08807662E-04 -3.25306875E-03 -3.64630797E-03 -4.63881916E-04
 -6.12648825E-04  7.06805156E-04 -2.81529182E-04 -4.86891914E-04  1.31182639E-03
 -3.51473084E-04  1.75967607E-04 -1.23807336E-04 -1.74160236E-03 -3.86925522E-04
 -1.32232207E-03  2.83067589E-03  3.89624932E-03  1.83790264E-03 -1.14764243E-03
  5.65438387E-04 -2.54707587E-03  7.33037818E-04 -4.40020607E-03 -1.59009935E-04
  7.84740154E-05 -1.96874752E-03 -6.24947838E-03  1.44656072E-03  4.89855352E-03
 -9.99919970E-03 -2.61037684E-02  8.21612816E-06  2.05560530E-03 -1.83394524E-02
 -2.16853953E-05 -1.73672707E-03  9.87655734E-03  7.05052011E-04  4.59784047E-07
 -2.45503228E-02  1.52580337E-05 -3.86954453E-04 -1.32241926E-03  2.83101840E-03
  3.89554171E-03 -1.84128786E-03 -1.14879841E-03  6.25184348E-04  2.52172912E-03
  7.33522596E-04 -4.40094756E-03 -1.57568342E-04 -7.69474714E-05 -1.96353283E-03
  6.24861679E-03  1.97964091E-04  7.09204354E-04 -3.25670828E-03 -3.64732188E-03
  4.66756494E-04 -6.10169944E-04  7.68276488E-04  3.09524667E-04 -4.90233685E-04
  1.31118811E-03 -3.49072380E-04 -1.78178789E-04 -1.23055408E-04  1.73836008E-03
  4.46726407E-05  1.70428772E-04 -4.43960331E-04 -6.82697625E-04  1.05645185E-07
  7.30348467E-04 -2.61182817E-04 -3.84957523E-06  4.26031480E-04  1.26346167E-04
  2.75631855E-04  7.53412455E-07 -4.59398558E-04 -7.93441115E-07  1.88372887E-01
 -4.03183642E-05 -3.15527449E-04  1.86001370E-03 -2.00973235E-03 -2.68058419E-06
  3.38369679E-03  5.17464913E-03  1.25996309E-04 -1.28255213E-05  1.05362629E-04
 -2.36429324E-04  1.30825897E-06  3.07480964E-03 -3.93310664E-06  7.53963752E-04
  2.70830567E-03 -1.21552980E-02 -1.32757183E-02 -1.65916223E-03 -2.21156267E-03
  1.98720356E-03  4.07396419E-05 -1.75948738E-03  4.48218560E-03 -1.26657648E-03
  6.28841716E-04 -7.26357299E-04 -5.49583754E-03 -1.32366240E-03 -4.58220981E-03
  1.04054630E-02  1.46681286E-02  6.59972417E-03 -4.16833764E-03  2.62368087E-03
 -1.08541497E-02  2.69393469E-03 -1.47845192E-02 -5.24567305E-04  3.11041942E-04
 -6.46170229E-03 -2.08381214E-02  5.05321080E-03  1.71681705E-02 -3.60745530E-02
 -9.26387144E-02  2.93730596E-05  7.38657334E-03 -6.68852168E-02 -7.47223435E-05
 -6.47252845E-03  3.42076435E-02  2.46575091E-03  1.70046552E-06 -8.35091112E-02
  5.17284007E-05 -1.32380108E-03 -4.58267745E-03  1.04068784E-02  1.46653738E-02
 -6.61243907E-03 -4.17248672E-03  2.83322229E-03  1.07655728E-02  2.69638854E-03
 -1.47873417E-02 -5.19916590E-04 -3.05568753E-04 -6.44385938E-03  2.08345646E-02
  7.54271740E-04  2.70972931E-03 -1.21678399E-02 -1.32791266E-02  1.66953166E-03
 -2.20250007E-03  2.20082485E-03  5.64615707E-05 -1.77117308E-03  4.48023878E-03
 -1.25868803E-03 -6.36320769E-04 -7.24151160E-04  5.48474064E-03  1.86721948E-04
  6.93031958E-04 -1.67457958E-03 -2.47004407E-03  4.11303105E-07  2.64080442E-03
 -1.24705903E-03 -1.32590911E-05  1.52682696E-03  5.99434400E-04  9.93417686E-04
  2.76193239E-06 -1.49185468E-03 -2.69017288E-06  4.53292788E-01  1.10251279E+00
 -9.70233107E-05 -2.27453673E-04 -7.50748848E-04  5.16596972E-03  6.79511852E-06
 -7.74209333E-03 -2.20246704E-03 -2.60043000E-04 -1.40211981E-05 -1.01358733E-03
  5.80722127E-04 -1.54370061E-06 -3.41455765E-03  8.00357028E-06 -2.20758916E-03
 -7.93521102E-03  3.24907237E-02  3.27363488E-02  4.03689281E-03  5.04471160E-03
  7.80345592E-04 -6.16410568E-03  3.88467635E-03 -9.26072751E-03  2.86311204E-03
 -1.38661090E-03  3.70874590E-03  6.86420894E-03  2.20137027E-03  7.95184984E-03
 -2.01131875E-02 -3.91053528E-02 -1.62098201E-02  9.69605430E-03 -6.92168495E-03
  3.39270779E-02 -6.12306529E-03  2.70826042E-02  9.33853803E-04 -8.73455366E-04
  1.19669983E-02  3.49017164E-02 -8.86056626E-03 -3.02219724E-02  6.28258416E-02
  1.85407351E-01 -6.16958568E-05 -1.63461935E-02  1.53722671E-01  1.56561066E-04
  1.51978834E-02 -6.60266209E-02 -5.36902150E-03 -4.05300789E-06  1.55358836E-01
 -9.41709355E-05  2.20213357E-03  7.95443263E-03 -2.01197942E-02 -3.90969944E-02
  1.62441603E-02  9.70536356E-03 -7.36942983E-03 -3.37390863E-02 -6.13181852E-03
  2.70896584E-02  9.26839036E-04  8.61117795E-04  1.19340817E-02 -3.48913531E-02
 -2.20828908E-03 -7.93810876E-03  3.25151765E-02  3.27405534E-02 -4.06111763E-03
  5.02178078E-03  3.37087810E-04  5.96225228E-03  3.90665157E-03 -9.25822055E-03
  2.84909530E-03  1.39971510E-03  3.70662195E-03 -6.84271200E-03 -6.76941205E-04
 -2.39562233E-03  4.68484209E-03  6.02669376E-03 -1.21438998E-06 -6.05065401E-03
  5.59894377E-03  2.63074630E-05 -3.44629295E-03 -2.85860665E-03 -2.26242988E-03
 -7.53262807E-06  1.51020747E-03  4.42649384E-06 -5.23498597E-02 -1.97569231E-01
  4.52053172E-01  6.15392390E-04  2.04115285E-03 -4.69664718E-03 -1.28221209E-02
  3.37894338E-06 -7.03538934E-03  3.22631303E-02  5.63120136E-04 -1.14873197E-03
  1.44105260E-02  7.20472443E-04 -2.35186282E-05  2.70027976E-02 -1.77980051E-05
  2.25733735E-03  7.56131651E-03 -2.32082428E-02 -3.58542907E-02 -5.44269571E-03
  3.45955922E-03 -9.68967966E-03 -5.89484717E-02  5.59480820E-03 -1.00409763E-02
  3.10530907E-03 -9.97074828E-04  1.60807873E-02 -1.99028520E-02 -3.37223832E-03
 -1.23799544E-02  5.49845998E-02  4.28256086E-02  3.61093236E-02  7.67380489E-03
 -1.50583041E-01  1.38819443E-01 -6.33855499E-03  2.17324394E-02  1.49885058E-03
  1.10794856E-03 -6.44627436E-02 -7.32625739E-02  2.58858380E-02  8.89081665E-02
 -2.83281895E-01 -4.03787086E-01  1.23264039E-04 -3.41429490E-03  2.72621846E-01
 -6.12541818E-04  1.85498208E-02  3.57769939E-02  6.90337560E-03 -1.76595280E-05
 -1.48892581E-01  1.27786614E-04 -3.36978031E-03 -1.23711386E-02  5.49543016E-02
  4.27910352E-02 -3.61206060E-02  7.64104834E-03 -1.49706969E-01 -1.39259747E-01
 -6.34702965E-03  2.17385723E-02  1.52203935E-03 -1.11708729E-03 -6.43807139E-02
  7.32997072E-02  2.25734192E-03  7.56159948E-03 -2.32289534E-02 -3.58495072E-02
  5.45575569E-03  3.47131859E-03 -8.76433437E-03  5.94190276E-02  5.61774374E-03
 -1.00472854E-02  3.09899673E-03  9.61817450E-04  1.60850841E-02  1.98641142E-02
  4.86782304E-04  1.82229334E-03 -5.12461406E-03 -5.95161001E-03 -4.24687777E-06
 -5.09673187E-03  3.04814326E-03 -6.25342958E-05 -2.42823441E-03  1.48766179E-04
 -1.85545380E-03  7.03540898E-06 -4.94904121E-03 -1.73653289E-05 -4.17795313E-03
 -1.49702963E-02  4.02455669E-02  5.75593068E-01 -3.89416199E-07 -1.34006252E-06
  3.49626744E-06  5.30931403E-06 -3.59495691E-03 -4.48227694E-05  4.77918723E-06
  2.07455948E-02  5.56938627E-06 -3.30150054E-06  4.24790800E-06 -5.94113782E-04
 -3.38325570E-06  4.48949886E-03  1.28724080E-03  4.54267367E-03 -1.66799063E-02
 -1.54730345E-02  2.91060533E-03  1.48857551E-03 -2.94700076E-02  1.18316018E-02
 -3.04104705E-04 -1.04981210E-03  2.65280975E-04  3.08720891E-04 -1.55893818E-03
  5.80026879E-03 -3.42268535E-03 -1.22390355E-02  4.06837362E-02  3.36362642E-02
  3.74310088E-03  6.58354774E-04  3.36153318E-02 -3.86745490E-02 -1.81972532E-03
 -2.65887026E-03  7.31592114E-04 -2.01180600E-03  5.17916822E-03  5.57614389E-03
 -6.40043696E-06 -2.20779978E-05  7.18546962E-05  1.12968058E-04  1.73199836E-02
 -9.49926842E-05 -1.18083858E-05  9.79222786E-03  5.39341203E-05 -1.83022457E-05
 -2.86234855E-05 -1.02278032E-02  1.01960373E-04  1.16309922E-01  3.42357016E-03
  1.22422647E-02 -4.06958449E-02 -3.36404823E-02  3.79608952E-03 -5.52116626E-04
 -3.35422083E-02 -3.86425714E-02  1.76123494E-03  2.65403875E-03 -7.35475511E-04
 -1.99263338E-03 -5.13932649E-03  5.56560460E-03 -1.28808568E-03 -4.54552214E-03
  1.66880077E-02  1.54875172E-02  2.90005081E-03 -1.43795844E-03  2.94917957E-02
  1.18141121E-02  3.34337034E-04  1.05316647E-03 -2.33708917E-04  3.16479498E-04
  1.55735841E-03  5.80303890E-03 -1.28072085E-07 -4.23599231E-07  4.72614436E-07
  3.30964981E-07  4.41115516E-04 -3.54414270E-05  2.56722650E-06  9.53991635E-04
 -2.13364947E-05  1.02074211E-07 -1.25325624E-05  2.31265936E-05  1.37567617E-06
 -5.62869978E-04 -1.74761380E-07 -6.21171887E-07  1.71995592E-06  2.72945898E-05
  6.19614840E-01  4.89468758E-05  1.88636441E-04 -9.58272343E-04  9.68550615E-05
 -4.63992679E-05  1.07808281E-01  2.67051695E-03 -4.60651685E-04 -5.13455185E-03
 -1.63739849E-03 -7.01114448E-03 -9.30490577E-06 -9.59703952E-04 -3.11670465E-05
 -7.60247579E-05 -2.21041094E-04  1.26556511E-03  1.83578504E-03 -8.12084257E-05
 -6.74173273E-02 -8.59505082E-03  5.37450671E-03 -2.75794091E-02  2.88437803E-03
 -3.28549968E-02  1.54341756E-02 -2.11498075E-03  1.19316893E-03  1.86341194E-04
  7.93080095E-04 -7.04769382E-03 -3.00712487E-03 -1.58520304E-03 -1.34392045E-01
  2.98576631E-02 -4.76662735E-02  6.43356507E-02 -5.61954880E-03  5.91391400E-03
  3.66104615E-02  5.88764603E-03  5.53983559E-03 -9.87450818E-04 -3.25472054E-03
  9.38334128E-03  2.03715914E-02 -1.84116783E-05  2.20402182E-01 -1.28676656E-01
  5.72603706E-04 -1.61115217E-01 -4.60062237E-03  1.23880095E-01 -2.79074845E-05
 -1.30490640E-03 -4.52224265E-05  1.80802613E-04  7.73239940E-04 -6.97234150E-03
 -3.00817211E-03  1.57265750E-03 -1.34401948E-01  2.91136579E-02  4.82520967E-02
  6.42995766E-02 -5.64189083E-03  5.89386597E-03 -3.66164251E-02  5.88254396E-03
 -5.58606138E-03 -7.29000192E-05 -2.09437516E-04  1.20975960E-03  1.78726257E-03
  1.72004797E-04 -6.74126843E-02 -9.36824646E-03 -5.99209934E-03 -2.75354534E-02
  2.90325439E-03 -3.28607210E-02 -1.54401104E-02 -2.13335191E-03 -1.22009472E-03
 -1.76891328E-05 -7.89774098E-05  4.91264177E-04  7.52054086E-04  4.21061569E-05
  8.22740729E-02 -2.15756114E-03  3.79616912E-05  4.97040396E-02  3.60325254E-04
  3.19810102E-02  1.15541614E-05  4.36175464E-04 -5.06218460E-06  3.30487396E-03
  1.17277823E-02 -2.77510563E-02 -1.80006097E-02 -1.30120310E-04  8.35883143E-01
 -1.08965487E-02 -4.01932757E-02  1.26712713E-01  6.56910910E-02 -2.95906418E-05
 -1.29162315E-03  1.44937265E-01 -8.85127079E-04  7.48591332E-04 -1.36487026E-02
  5.21071226E-04  4.69835574E-05 -2.25757275E-02  2.44782946E-06 -1.30080720E-02
 -4.88353657E-02  1.68273577E-01  2.30982474E-02  3.00247792E-02  5.32297005E-03
  1.11969624E-01 -5.46959401E-02  2.07966052E-03 -4.14194862E-02  1.27009089E-03
 -3.68659164E-04  1.64115477E-02 -4.21823279E-02 -9.34196392E-03 -3.25752454E-02
  9.79853728E-02 -5.78905706E-02 -5.00903012E-02  3.00329415E-03  3.07833930E-02
  1.22303828E-01 -2.58749502E-03 -1.55575632E-02  2.50410507E-04 -1.74363685E-03
  1.42874812E-02 -3.62635987E-02  1.74362795E-02  5.68383019E-02 -1.71144791E-01
 -8.52189410E-02  7.86834459E-05 -2.37939811E-02  3.10031988E-01  8.77620660E-04
  3.25265370E-03 -1.94125806E-02 -5.49092062E-03 -4.69471245E-07 -2.43673292E-02
  2.48449676E-05 -9.33745834E-03 -3.25600972E-02  9.79569867E-02 -5.78432866E-02
  5.00363660E-02  3.03805532E-03  2.90192218E-02 -1.21462372E-01 -2.61545377E-03
 -1.55397173E-02  2.58335716E-04  1.72352343E-03  1.42683188E-02  3.62709629E-02
 -1.30042825E-02 -4.88233731E-02  1.68258569E-01  2.30678688E-02 -2.99954494E-02
  5.29847064E-03  1.10368360E-01  5.38788412E-02  2.06660754E-03 -4.14263552E-02
  1.25550959E-03  4.09131593E-04  1.64149737E-02  4.22038000E-02 -5.02041252E-03
 -1.66134690E-02  1.22022866E-02 -1.59558468E-02 -9.22786300E-06 -3.43548813E-03
  7.66927816E-02  7.01400176E-05 -2.21659958E-03 -4.82787776E-02 -1.01585601E-03
 -7.04373949E-05 -2.78916662E-02 -1.71030310E-05 -5.28658915E-04 -4.16597851E-03
  2.54799781E-02  1.57449918E-01  5.47365043E-05 -5.38438677E-02  2.15687771E-01
  1.22704345E-05  4.37875891E-05 -1.23604164E-04 -3.53428838E-05 -8.56897084E-03
 -5.90013850E-05 -3.13772901E-04  2.82969230E-01  4.64332793E-05 -5.20445171E-06
  1.93101381E-05  2.33953976E-04  2.83529739E-05 -7.46048215E-03  2.25083072E-03
  9.38743660E-03 -4.22756086E-02 -3.38126074E-02 -6.91327748E-04 -1.01234860E-03
 -2.13450472E-01  1.57548334E-01 -4.26610987E-04  1.20735540E-02 -8.85118369E-05
  1.64028105E-04  2.18380133E-03 -1.21211946E-03  2.65588112E-03  9.07564261E-03
 -2.62494894E-02  3.22825349E-02 -3.30968023E-02 -1.18278898E-03 -1.79891244E-01
 -1.63103059E-01 -5.53819791E-04  9.06052711E-04  5.52230587E-04 -5.53914789E-04
 -6.89756742E-03 -4.49357902E-03  3.35379712E-06  1.27482629E-05 -3.49450133E-05
  2.99854861E-05  5.01105506E-02 -4.04772926E-05 -2.71059036E-04 -2.52021234E-01
  6.50923636E-05  4.52927630E-05 -2.72403696E-05 -2.91702634E-03  7.96691451E-06
  2.56687278E-02 -2.63635474E-03 -9.00592418E-03  2.60542614E-02 -3.21955271E-02
 -3.30928410E-02  1.28021126E-03  1.79647148E-01 -1.63020536E-01  4.00454554E-04
 -8.37062865E-04 -5.42924769E-04 -5.48345004E-04  6.85354163E-03 -4.48194473E-03
 -2.22210194E-03 -9.28314140E-03  4.19520783E-02  3.37793175E-02 -6.63135255E-04
  1.01874183E-03  2.13389214E-01  1.57284667E-01  5.14909981E-04 -1.19717059E-02
  1.13868314E-04  2.05384637E-04 -2.25496856E-03 -1.28856802E-03  9.87860081E-06
  3.17849462E-05 -1.26288083E-05 -1.25230227E-05 -2.13006305E-03  2.64140981E-05
 -1.43674816E-04 -6.05214200E-02  8.61552633E-07  1.01010778E-04 -3.07392283E-05
  3.31864760E-05  4.75663129E-05  2.87961500E-02 -4.82146127E-06 -1.63686746E-05
  2.75935838E-05  1.01171241E-04  2.17609475E-01 -1.59077066E-04 -1.36162741E-04
  1.14788610E-01 -1.50345192E-03 -5.43164873E-03  1.58313101E-02  9.14818974E-03
 -2.83111572E-05  6.33543873E-02  1.98356325E-02 -4.33393573E-04 -2.26740719E-03
 -3.73469184E-03 -3.72041060E-03  3.27637772E-06 -5.63902122E-03 -1.16733936E-05
 -2.04184369E-03 -7.38271239E-03  2.35335716E-02  5.04920894E-03  3.96043485E-03
 -3.21674161E-02  9.45947288E-03 -4.65151139E-04 -1.43204280E-02 -3.85357448E-03
 -1.77217193E-02  8.84873584E-03  8.99175675E-04 -2.72163306E-03 -1.52819604E-03
 -5.33759444E-03  1.23304079E-02 -8.51539020E-03 -1.92623593E-03 -6.95764052E-02
  2.67091669E-02 -1.96400318E-02  3.57262743E-02 -9.79917467E-03  2.82397925E-03
  1.96691545E-02  7.13155750E-03  3.00999947E-03 -5.86659782E-04 -2.47008060E-03
  1.06347822E-02  6.91936417E-03 -1.66311484E-05  1.19316207E-01 -5.25397660E-02
  4.90736281E-04 -8.81390211E-02 -5.46963041E-03  6.52565422E-02 -1.24663400E-05
 -5.74431610E-03 -2.97488684E-05 -1.53049025E-03 -5.34597776E-03  1.23655162E-02
 -8.52865361E-03  1.91427936E-03 -6.95783673E-02  2.59838573E-02  2.01239115E-02
  3.57035197E-02 -9.81032491E-03  2.81248853E-03 -1.96728862E-02  7.12307510E-03
 -3.03315178E-03 -2.03954415E-03 -7.37599986E-03  2.35167227E-02  5.02922485E-03
 -3.91249160E-03 -3.21683679E-02  8.72530440E-03 -3.83385006E-05 -1.42989496E-02
 -3.84405135E-03 -1.77275394E-02 -8.84255883E-03  8.90378084E-04  2.71389898E-03
 -6.70647982E-04 -2.25009300E-03  1.97127484E-03 -9.81043286E-04  2.25878173E-05
  4.73518413E-02  8.82497324E-03  4.08986249E-05  2.74932305E-02 -6.26896014E-03
  1.78253232E-02 -5.06063241E-06 -2.91677796E-03 -4.80437763E-06  5.32883526E-03
  1.93589859E-02 -4.30956292E-02 -2.88998670E-02 -1.07850235E-04  4.44385621E-01
 -1.13451523E-02 -1.31630272E-04  2.42233815E-01  1.26110580E-03  4.30363151E-03
 -1.17421830E-02 -4.67228122E-03  2.34230746E-06  1.12763300E-03 -5.27707149E-03
  1.14847233E-04 -1.26207370E-04  1.15467035E-03 -2.45271852E-04 -4.56354575E-06
  5.91481795E-03 -3.24862425E-06  1.00688682E-03  3.57621641E-03 -1.07684310E-02
  5.09659126E-03 -1.80415769E-03 -2.47926898E-03 -4.09835140E-03  2.75948454E-03
 -1.13444533E-03  5.31924506E-03 -6.79147924E-04  2.48975753E-04 -1.08937143E-03
 -1.56674487E-03  5.59781372E-04  2.45912101E-03 -9.86171125E-03 -5.99720402E-03
 -9.88626932E-03 -2.46764579E-03  7.17147977E-03 -9.80174087E-03  2.08938807E-03
  1.53997578E-03  1.91789796E-04  1.05741834E-03  2.20978131E-03 -7.29481783E-03
  3.56622976E-03  1.24748740E-02 -3.60795277E-02 -1.85965158E-03 -8.56340944E-06
  8.99970921E-03 -3.55900353E-02 -9.82818210E-05 -4.32503044E-03  1.20406025E-02
  3.09020495E-03 -1.60591410E-06 -9.79030567E-03  1.22596775E-05  5.59964458E-04
  2.45975178E-03 -9.86416417E-03 -6.00164447E-03  9.90266119E-03 -2.46518201E-03
  7.37611913E-03  9.70190274E-03  2.09182539E-03  1.53876293E-03  1.93063196E-04
 -1.05725986E-03  2.22063676E-03  7.28984043E-03  1.00684704E-03  3.57599523E-03
 -1.07700840E-02  5.09931763E-03  1.79893953E-03 -2.48102112E-03 -3.89934212E-03
 -2.66913797E-03 -1.13984952E-03  5.31904586E-03 -6.75108013E-04 -2.60010646E-04
 -1.08691891E-03  1.56113368E-03  3.30642391E-04  1.10011704E-03 -7.89768976E-04
  3.03679641E-04  7.12680557E-07  1.94910267E-03 -5.34096135E-03 -1.37629818E-05
  1.05496242E-03  3.37209975E-03  5.52194100E-04  5.70007185E-06 -5.53454517E-04
 -2.13738959E-06  6.64963110E-03  2.31219375E-02 -4.52830880E-02 -6.12588486E-03
  2.34016841E-05  2.24159295E-02 -1.18540766E-02  1.69517739E-05  1.28979354E-02
  7.59694879E-03 -3.00186735E-04 -1.09374312E-03  3.17780201E-03  1.41638977E-03
 -1.02831366E-05  1.58247109E-02  5.83222006E-03 -2.25019698E-05 -1.78642558E-03
 -1.76655688E-04 -5.43247609E-04 -7.85978281E-07  2.97257136E-04 -2.62160097E-06
 -4.24673389E-04 -1.61904057E-03  5.69529975E-03  1.80836345E-03  8.84472791E-04
 -3.58906003E-03  2.68190528E-03 -3.91597749E-03  1.71518157E-03 -2.05200317E-03
 -4.43049825E-03  2.31762486E-03  1.57721966E-03 -1.54254884E-03 -5.78171795E-04
 -1.97747139E-03  6.11496751E-03 -2.06579041E-03  6.51683820E-05 -2.81736821E-02
 -4.15467585E-03  9.49424381E-03 -8.35226700E-03  3.37149373E-04 -2.32811081E-03
 -4.50476799E-03 -1.08235557E-03 -1.85408117E-03  9.42808081E-04  2.90699141E-03
 -8.14723274E-03 -1.00264782E-02 -1.23535208E-05 -4.35092666E-02  2.26176582E-02
  2.94175854E-05  2.28528816E-04 -1.99214037E-03  2.76280099E-03 -3.02676206E-06
 -1.33411974E-03  1.27178478E-05 -5.76214551E-04 -1.97110574E-03  6.09955885E-03
 -2.09105720E-03 -4.10069862E-05 -2.81794064E-02 -4.22211540E-03 -9.46967354E-03
 -8.35657672E-03  3.40364096E-04 -2.32356460E-03  4.50527407E-03 -1.08494210E-03
  1.86004571E-03 -4.23769951E-04 -1.61634117E-03  5.69146237E-03  1.81909992E-03
 -8.78331286E-04 -3.59420149E-03  2.63483539E-03  3.90057422E-03  1.72077244E-03
 -2.04927792E-03 -4.43277077E-03 -2.31589891E-03  1.57482455E-03  1.54617231E-03
 -2.36102399E-04 -7.91025724E-04  9.02624661E-04 -6.56218694E-06  4.50336780E-06
  5.16507151E-03  2.64996002E-03 -9.15794145E-07  4.12552566E-03 -1.54801253E-03
  3.54606313E-03 -4.98088827E-07 -8.12695444E-04 -2.42718942E-07 -1.42036303E-03
 -5.11475550E-03  1.12460009E-02  1.84768904E-02  5.05794807E-05 -1.49647266E-02
  1.29427826E-02  1.44636239E-05 -8.45667454E-03 -2.15786896E-03  5.49712126E-03
 -2.02805794E-06 -7.28737512E-06  2.18135115E-05  1.30779984E-05 -9.61111491E-04
 -5.28530104E-06  1.98683970E-05  6.67344426E-03  1.66618964E-06 -2.97010788E-06
  6.92451472E-07 -5.98622953E-05 -5.62622116E-06  1.38062177E-04  6.35344438E-05
  3.02607796E-04 -1.61368479E-03 -2.69009889E-03  1.53219966E-04  1.87112039E-04
 -5.61771391E-03  4.14206556E-03 -3.94036071E-06  1.58862538E-04  2.93527642E-05
  1.52791284E-05 -1.37500912E-04  6.13158007E-04 -1.56543104E-04 -5.10025120E-04
  1.41525333E-03  3.61895922E-03  1.72794496E-03  1.41862444E-04 -2.14702455E-03
 -5.51272489E-03 -7.02837307E-05 -5.05310469E-05  2.93447684E-05 -1.03973925E-04
  1.98853428E-04  6.20166772E-04  1.60207343E-06  4.19273192E-06 -8.21680547E-06
 -5.74485200E-06 -1.52794414E-03  6.35378646E-06  5.46109750E-05 -4.25073181E-03
  1.52425731E-06 -8.93222697E-06 -1.13814372E-06 -5.70251127E-04  7.34355711E-06
  6.19077747E-03  1.53707335E-04  4.99537742E-04 -1.38037963E-03 -3.63517452E-03
  1.73671761E-03 -1.22413933E-04  2.15101552E-03 -5.55288054E-03  7.03482818E-05
  4.52977894E-05 -2.75138895E-05 -1.06464959E-04 -1.93970975E-04  6.23950053E-04
 -6.84267435E-05 -3.20403915E-04  1.67178452E-03  2.69784784E-03  1.39581207E-04
 -1.83057927E-04  5.65596580E-03  4.15478535E-03  6.30825689E-06 -1.74404156E-04
 -2.55164635E-05  1.68770757E-05  1.42676427E-04  6.23021908E-04 -6.23986757E-07
 -2.10328081E-06  1.43986000E-06 -3.34215119E-06  2.00019717E-04 -1.13107320E-06
  1.17533776E-05 -1.27124648E-03 -1.43038788E-06 -7.01851829E-06 -1.63535221E-06
  3.76815255E-06 -3.27069769E-06  3.90293939E-04 -3.45782588E-06 -1.23722761E-05
  2.67793746E-05  3.01494299E-05  3.25219000E-02  2.15081491E-06  3.70368029E-05
  1.20517732E-02  7.29478448E-07 -3.14138040E-06  4.00822559E-06  1.74340635E-03
  8.79829371E-04  3.66782522E-03 -1.57259308E-02 -1.22592261E-02  1.33040904E-05
  1.53685090E-03 -1.23361351E-02 -4.28593394E-05  2.42822239E-05 -4.95268490E-05
  3.68237835E-05 -3.66250073E-06  1.10060300E-03  6.92529901E-06  8.69178897E-04
  3.38861095E-03 -1.39225666E-02  2.99624572E-03 -5.27953974E-03  5.13635101E-04
 -2.02975337E-02  3.57427601E-03  1.63557130E-05 -6.13881385E-04 -3.13623957E-04
  1.56400328E-04  3.67359165E-03  9.69252313E-03 -2.13324090E-03 -6.79547048E-03
  1.43690634E-02  1.20400020E-02  2.50877414E-02 -1.00879481E-03 -1.44157543E-02
 -1.14155314E-02 -2.79057677E-04 -4.99804739E-03 -3.17831244E-04 -4.10400465E-04
 -4.39455224E-03  1.79838119E-02 -1.07393930E-02 -3.53057303E-02  9.63961727E-02
  1.29791007E-02 -5.95525165E-05 -2.91360922E-03 -2.41181858E-02  5.60658105E-05
 -7.90139970E-05 -1.42236737E-02 -7.94263364E-04  1.08076969E-06  8.51609400E-03
  1.80564041E-05 -2.12741952E-03 -6.77523764E-03  1.43025392E-02  1.19914781E-02
 -2.50362512E-02 -1.02147125E-03 -1.44825702E-02  1.14290924E-02 -2.78886084E-04
 -4.99820861E-03 -3.22346935E-04  4.14611772E-04 -4.42062397E-03 -1.79583642E-02
  8.68014559E-04  3.38460910E-03 -1.39034749E-02  2.99930782E-03  5.26554418E-03
  5.11424870E-04 -2.03503437E-02 -3.55559327E-03  3.01441823E-05 -6.06146055E-04
 -3.18908998E-04 -1.47679418E-04  3.66404679E-03 -9.67454554E-03 -2.40892708E-04
 -9.22649457E-04  3.93656131E-03  9.31019447E-03  3.08843927E-06  1.31679783E-04
 -7.24661481E-03  1.50427715E-05  2.35129979E-04  4.37136947E-03  2.77368781E-04
  3.57583975E-06  6.18230798E-03  1.27479719E-05 -3.07889790E-03 -1.04928175E-02
  1.79717651E-02 -4.87340112E-02  7.30230669E-05 -2.99909547E-03 -2.69596213E-02
  2.17292872E-05 -1.65836341E-03 -4.58992771E-03 -9.89682674E-04  1.73665172E-06
  1.32864291E-02 -2.77220157E-07 -1.33061850E-06  7.60158609E-06  3.68500400E-06
  6.76422227E-03  1.08145234E-05 -4.59144158E-06  2.09590257E-02  1.63651869E-06
 -1.17323352E-06  3.91344137E-07 -1.89851250E-04  1.21581710E-06  5.43713563E-04
 -1.94133193E-04 -4.18726604E-04 -3.02343872E-03 -4.89497440E-03 -5.81210524E-03
  6.13227498E-04 -1.18697623E-02  2.16334939E-02  2.32938078E-05 -3.46953716E-03
  8.20038080E-05  5.35327669E-05  4.38911173E-03  7.22506213E-03 -4.60748817E-03
 -1.59718671E-02  5.10861863E-02  3.07353464E-02  3.76753020E-02  3.50234509E-04
 -1.12082974E-03 -5.24621783E-03 -2.36438936E-04 -2.88666025E-03  9.79758934E-05
 -2.85375012E-04  5.25912508E-03  1.03112412E-02  6.72336162E-06  2.23329068E-05
 -6.06329340E-05 -2.59815285E-05 -8.04348905E-02 -1.07342939E-05  1.84350819E-06
  1.52222751E-02  4.68056792E-06  1.17648748E-05  3.28727742E-06 -1.65978908E-03
  1.49170208E-05  3.27474243E-02  4.61153448E-03  1.59854142E-02 -5.11223109E-02
 -3.07357403E-02  3.77199493E-02 -3.48074327E-04  1.13075938E-03 -5.23524683E-03
  2.22593892E-04  2.89479645E-03 -9.62179387E-05 -2.85574935E-04 -5.24885194E-03
  1.03381225E-02  1.94058512E-04  4.18275262E-04  3.02741413E-03  4.88437172E-03
 -5.81705329E-03 -6.18143446E-04  1.19019442E-02  2.16197336E-02 -9.41920325E-06
  3.47418686E-03 -7.70660315E-05  4.75892349E-05 -4.38999888E-03  7.23465212E-03
  4.11040062E-07  1.37124129E-06 -1.78552326E-06 -2.97741843E-06 -1.81195522E-03
  5.28349376E-06 -8.85949266E-07 -8.64719712E-04  2.28165927E-06  2.11532667E-06
  1.15610608E-06  2.21531084E-05 -2.26389874E-06  2.90132966E-03  2.08601300E-06
  7.26559779E-06 -1.29825591E-05  4.65862946E-05  7.47985066E-02  2.69940729E-05
  1.20510178E-05  2.11309638E-02  9.25623593E-06  8.83941125E-06  9.46627780E-06
  4.24955814E-03  6.84075169E-06  2.08247837E-02 -1.65518933E-04 -5.97124808E-04
  1.68083870E-03  4.92312105E-04 -1.89460897E-03  6.26978942E-03  1.19846445E-02
 -2.25693493E-03 -8.20890581E-04  3.36869081E-03 -1.83436267E-04 -3.09410754E-05
  4.35927724E-03 -3.88772880E-03 -1.10996886E-03 -4.07487502E-03  1.64058449E-02
  1.10278901E-02  2.67410613E-03 -2.03852728E-03  5.71402850E-03 -2.55685501E-02
  1.14914539E-03 -5.79405518E-03 -1.24883854E-03  6.23001732E-04  6.96130389E-03
 -9.41025545E-03  1.53870177E-03  5.40267468E-03 -1.36374130E-02 -2.36438541E-02
 -1.44226458E-02 -7.13033148E-03 -6.20878281E-02  6.22455646E-02  1.47756265E-03
  1.30390491E-02  3.26952879E-04  3.14453526E-03 -1.74342826E-02 -1.32939939E-02
  2.36681142E-03  8.32090747E-03 -3.93946328E-02 -4.75185098E-02  2.57133677E-02
  5.34807076E-03  1.17865616E-01 -1.67855905E-02 -2.74193766E-03 -1.54427908E-02
  9.48666497E-03  4.42702555E-03  7.76677504E-03 -5.81677804E-02 -3.66756247E-03
 -1.28775095E-02  4.59330345E-02  3.02056866E-02 -2.54522425E-02 -8.89148360E-03
 -2.17779189E-02 -3.16116989E-02 -5.53331025E-04  1.03740407E-02  1.31142926E-03
 -1.32809457E-03 -1.03107182E-02 -5.05632671E-04  4.98367287E-04  1.52056837E-03
 -3.92211555E-03 -1.13554253E-02  6.95705298E-04 -2.91112941E-03 -1.05169530E-02
  1.38154064E-02  5.61625719E-04 -8.83358830E-03 -1.33684709E-03 -9.40353629E-04
  5.77432304E-03 -2.78627591E-03 -2.02738610E-04 -6.68543331E-04  4.12988677E-04
 -5.40941227E-04 -5.13530430E-04  3.64515919E-03  4.28372305E-03 -3.06579839E-03
  2.54892923E-03 -2.10098126E-03  1.69467739E-03  1.58520506E-05 -1.08279085E-03
  1.31567450E-04 -2.01901552E-02 -7.21844506E-02  1.51779759E-01  1.57280776E-01
 -2.77980033E-01  4.65209840E-02  4.79975664E-02 -9.47966210E-02  1.16842300E-02
 -1.54329226E-02  7.83234738E-03 -1.47180882E-02 -5.64703943E-03 -3.80762093E-02
  2.18640391E-01  1.12577873E-02  4.08594112E-02 -1.23010443E-01 -6.95794320E-02
  1.25542130E-03  8.00703178E-04 -1.30108972E-01  1.42678677E-01 -1.47273529E-03
  1.93767290E-02 -5.20043997E-05  1.64798494E-04  3.71934731E-02 -6.39819562E-03
  1.43591524E-02  5.38332445E-02 -1.86159881E-01 -3.78786552E-02 -3.25473281E-02
 -2.08641689E-03 -1.99365026E-01  1.09596336E-01  1.79771743E-03  4.38666242E-02
 -1.47633285E-05  2.66750718E-04 -6.72649295E-03  2.62689966E-02  8.22197114E-03
  2.92122734E-02 -7.92954300E-02  7.94646075E-02  2.63149447E-02 -1.37531220E-03
 -1.59810244E-01 -1.20829744E-01 -3.44658171E-03  3.41112196E-02 -4.93228524E-05
  7.55767148E-04 -2.96524546E-02 -1.47531900E-03  7.90142034E-04  5.60549947E-03
 -2.60991601E-02 -1.55821799E-02 -3.78391329E-02  9.95212344E-03 -1.80995196E-01
 -1.04017559E-01  9.27683521E-03  3.75574287E-02  5.94215770E-03  4.87778438E-04
 -6.26669652E-03  3.45616770E-03  1.24800281E-02  4.36521045E-02 -1.25461722E-01
  3.09855052E-02 -1.39026634E-02  6.86588150E-05  2.33474447E-02 -9.62320053E-05
 -3.57298074E-03  3.78718125E-02 -3.29079348E-04 -4.96132374E-04 -2.85151317E-02
  5.40750416E-03  1.39496095E-02  4.99768183E-02 -1.51900241E-01 -2.36428743E-02
  3.21823632E-02 -6.11846310E-04 -4.84347517E-03  5.19734942E-02  2.08741126E-03
  3.77257706E-02  1.89790076E-04 -2.56812358E-04 -2.05251523E-02 -2.45886163E-02
  4.78679004E-03  1.59448096E-02 -1.21895089E-02  1.20585173E-02 -1.12642329E-03
  6.05633612E-04 -7.35041060E-02 -3.05738427E-02  1.12771796E-03  4.70207385E-02
  4.44919702E-04  8.78363434E-05  2.24257883E-02  1.32445862E-02 -7.67280600E-03
 -2.68385428E-02  5.03310110E-02  8.64178055E-02 -2.57063216E-02  2.86493422E-02
 -1.41305699E-01  4.37413699E-03 -1.53208144E-02  7.81992900E-03 -3.20804352E-03
 -9.20081612E-04 -4.06525534E-04  2.90557067E-03  4.40626365E-02  2.03100225E-01
 -1.64265763E-03 -6.04194066E-03  1.88687832E-02  1.13227965E-02  1.66639998E-04
 -9.72543295E-04  2.03919472E-02  2.90028857E-03  2.06572335E-04 -2.05772107E-03
 -7.73297621E-05 -1.69583285E-04 -5.37209893E-03 -6.95318917E-04 -2.43578596E-03
 -8.71674590E-03  2.70092312E-02 -1.07213062E-03  2.93257086E-03 -3.59616137E-04
  1.44449442E-02  1.84187312E-04 -7.24231338E-04 -5.51353065E-03  4.72581106E-05
 -9.01689277E-05  1.20210758E-03 -4.24802832E-03 -1.51378837E-03 -5.28275623E-03
  1.42991634E-02 -7.19808572E-03  3.80280479E-03  6.52453088E-04  6.43955258E-03
  7.51014871E-03  1.62538116E-03 -6.26312796E-03  2.02188659E-04  4.57180614E-04
  2.11334896E-03 -6.12751594E-03  2.66278278E-03  8.96485777E-03 -2.50359343E-02
 -3.69104858E-02  6.48288564E-04  3.72547025E-03  2.31593325E-02  9.84538208E-04
 -2.84780265E-03  4.93616663E-03  6.60234563E-04 -4.76671576E-04 -2.15747358E-02
  4.41013105E-03 -1.28720991E-03 -4.81792646E-03  1.55699462E-02  1.42007562E-04
  4.41164404E-03 -5.05198980E-04  5.85855204E-03 -1.41213124E-02  1.54755309E-03
 -6.34240018E-03  3.13539889E-04 -6.00135467E-04 -6.77157122E-04  8.87097837E-03
 -1.51502910E-03 -5.61294937E-03  1.75927142E-02 -3.60268449E-03 -5.23856228E-03
 -1.60030183E-03  2.01327367E-02  9.79027128E-03 -8.52857413E-04 -4.74729650E-03
 -1.16535998E-04  9.90153014E-05  1.12311461E-03  6.34180877E-03 -3.37785153E-04
 -1.06950553E-03 -9.32674374E-04 -4.67796478E-03 -1.28651615E-03  3.53929157E-04
  1.07829483E-02  1.55810140E-04 -3.35772387E-05 -6.88806158E-03 -1.08577089E-04
  1.58984934E-05 -4.51351343E-03  9.29220755E-04  7.64917683E-03  2.68582022E-02
 -5.27855407E-02  1.55655453E-02  1.95969733E-02  3.50552835E-03  2.69166466E-02
  6.20982736E-03  8.11624092E-03  3.77239286E-03 -3.02764663E-05  1.02604023E-03
 -5.45530483E-03  2.34130296E-03 -2.07934348E-02 -2.89778642E-02  1.13874413E-02
  2.47271199E-03  8.96406704E-03 -2.68792012E-02 -1.18870808E-02  3.39026780E-04
 -2.93287126E-03 -2.69113689E-02  4.14777543E-02 -2.09536723E-04  5.33472003E-03
  6.61769426E-05 -1.07763372E-05  6.25426893E-03 -4.41888357E-04  2.82211889E-03
  1.11591736E-02 -4.19668818E-02 -1.61780211E-02 -8.94017565E-03 -7.53227446E-05
 -5.24845555E-02  3.01736894E-02  5.91464838E-04  8.19238951E-03  7.59415109E-04
 -3.86064864E-04 -1.59700262E-03  8.14058355E-03  2.44372078E-03  7.96810853E-03
 -1.71968462E-02  2.66832111E-02  1.25675786E-02  3.01957235E-03 -5.00429470E-02
 -2.86636845E-02 -6.88513231E-04  9.90977291E-03  4.11522247E-04  5.45606450E-04
 -8.98513751E-03  3.28118624E-03 -2.06917480E-04 -6.95691765E-04  1.40634823E-03
 -2.05682250E-03 -1.58143077E-02  4.48426788E-03 -1.64889838E-02 -3.31731081E-02
  3.71314625E-03  2.08793411E-03  9.49581129E-04 -8.36423917E-05  6.68462251E-03
  2.43081443E-03  2.67358139E-03  9.14135317E-03 -2.43494404E-02  2.54273396E-03
 -1.74253864E-03  3.10107653E-03  6.36074452E-03 -1.66658012E-02 -7.37069753E-04
  1.02211885E-02  3.41176456E-04 -5.42795591E-04 -8.20790747E-03  4.29851860E-04
  2.76993845E-03  9.91187355E-03 -2.94834175E-02 -3.39173072E-04  3.16028481E-03
 -6.14623096E-05  7.89266712E-03  2.23773697E-02  6.47617284E-04  6.18246097E-03
  7.63097790E-04  3.97294865E-04 -3.17736794E-03 -4.80718029E-03  1.37039019E-03
  4.59588385E-03 -5.13619313E-03 -3.02684505E-04 -9.85465981E-04 -1.08880856E-03
 -1.49363171E-02 -8.22009322E-03 -5.98217749E-04  9.46978470E-03 -5.88669128E-04
  3.36638230E-05  4.10517383E-03  4.88968908E-03 -7.74165740E-03 -2.70742773E-02
  5.32231991E-02  3.92775791E-02  2.66466716E-03  5.20440565E-03 -2.44579331E-02
  5.32092231E-03 -6.87674036E-03 -3.11369215E-03  4.90825761E-04  3.35605072E-04
  9.95074221E-04  2.69908048E-03  2.41531715E-02  5.13531304E-02 -1.03354823E-02
  1.78487927E-02 -3.91600774E-04 -1.43712047E-03  4.68014219E-03  2.53828423E-03
 -1.33198464E-03  8.71009637E-03  2.66802683E-03 -1.26350344E-02 -1.20792202E-04
 -7.94474344E-04 -6.41931146E-05  5.09591547E-04 -1.80710787E-03  6.93596814E-04
 -3.80321015E-04 -1.46720639E-03  5.64839573E-03 -1.33492803E-03  1.60515130E-03
 -1.72652254E-03  1.17032457E-02 -6.44069439E-03 -6.79276279E-04 -7.17745798E-04
 -1.80541779E-03  1.13414973E-03 -1.48140239E-03 -5.83706302E-04  1.64700101E-04
  5.71099583E-04 -2.58550712E-03 -1.98850630E-03 -1.89035442E-03 -6.76859433E-03
  1.52277338E-02  1.19684648E-03  1.98023011E-03 -1.27335577E-03  4.38587285E-05
  1.03642510E-03  2.18682910E-03  5.17401243E-04 -2.30261966E-04 -6.80908740E-04
  1.77194812E-03  6.52925038E-03  2.99835160E-03  6.51483555E-03 -6.33228751E-03
  9.30605281E-03 -6.27732064E-03 -2.15081160E-04  4.14573819E-03  2.48012116E-04
  7.41845462E-04  1.82015022E-03 -2.28127323E-04 -8.33333561E-04  2.40648218E-03
 -4.30238256E-04  2.79848930E-03 -3.02792372E-03 -2.45335165E-03  7.22470072E-03
  2.68054386E-03 -1.73369870E-03 -4.69457142E-04 -1.11202190E-03  1.99197830E-03
 -4.50735790E-04 -3.04794987E-04 -1.10550590E-03  3.22157141E-03  5.86626752E-04
 -6.00518159E-04  2.01934923E-03 -4.80183873E-03 -7.91820697E-03 -1.14843470E-04
 -2.87091317E-04 -1.30559918E-03 -1.06796325E-03  2.60193838E-04  8.77253503E-04
 -1.02409021E-04 -3.33638119E-04  1.05347265E-04 -7.80760233E-04  3.48027599E-04
  3.62319847E-03  1.91891384E-03  2.60001010E-03  2.57525076E-03 -1.31320269E-03
  1.96158284E-03 -9.22780168E-05 -6.09812503E-04 -1.49704987E-03  1.25855849E-03
  4.38969564E-03 -8.85374598E-03 -1.23280485E-02  1.46867061E-02  2.87608272E-02
 -9.47315414E-04  4.02052048E-03  1.67153083E-02  1.39014550E-03 -7.86791972E-04
  7.43491277E-04  8.21209812E-05  1.29346907E-03 -1.02798147E-02 -7.01313880E-03
  1.75683649E-03 -2.52524197E-03  1.95501790E-03 -1.65895562E-04 -5.98536887E-04
  1.68431728E-03  4.92153733E-04  1.89005276E-03  6.30477838E-03  1.20087635E-02
  2.22220876E-03 -8.23091848E-04  3.36830222E-03 -1.83527732E-04  2.05474657E-05
  4.36417403E-03  3.87955172E-03  4.97991713E-04  1.51917369E-03 -3.91624139E-03
 -1.13528025E-02 -6.85558328E-04 -2.92648084E-03 -1.04762019E-02 -1.38475194E-02
  5.43568603E-04 -8.83529695E-03 -1.33278236E-03  9.48510174E-04  5.78255473E-03
  2.77634388E-03 -3.66708849E-03 -1.28760718E-02  4.59283064E-02  3.02154589E-02
  2.54339845E-02 -8.92242321E-03 -2.17243428E-02  3.16358069E-02 -5.45905535E-04
  1.03718812E-02  1.30932940E-03  1.32876632E-03 -1.03122651E-02  5.05048222E-04
  2.36646810E-03  8.31971953E-03 -3.93897277E-02 -4.75261582E-02 -2.56849143E-02
  5.33603251E-03  1.17865413E-01  1.67332537E-02 -2.76691813E-03 -1.54531496E-02
  9.52578605E-03 -4.43808255E-03  7.82990477E-03  5.81419755E-02  1.53783287E-03
  5.39937697E-03 -1.36243118E-02 -2.36360906E-02  1.44378981E-02 -7.16370727E-03
 -6.21190911E-02 -6.22003124E-02  1.46715761E-03  1.30395124E-02  3.28863628E-04
 -3.15632071E-03 -1.74193229E-02  1.33132336E-02 -1.11016993E-03 -4.07565500E-03
  1.64069669E-02  1.10230761E-02 -2.67377015E-03 -2.04935473E-03  5.67767169E-03
  2.55486989E-02  1.17297594E-03 -5.79505503E-03 -1.25855785E-03 -6.34588129E-04
  6.96664944E-03  9.40987292E-03 -2.03290414E-04 -6.70328129E-04  4.14408722E-04
 -5.40871720E-04  5.15291804E-04  3.65955870E-03  4.28938105E-03  3.06640048E-03
  2.55857748E-03 -2.10304936E-03  1.70393979E-03 -1.99705442E-05 -1.08323740E-03
 -1.36619186E-04 -2.01893409E-02 -7.21815860E-02  1.51775086E-01  1.57431305E-01
  2.77841981E-01  4.68058857E-02  4.80576202E-02  9.47834409E-02  1.17982272E-02
 -1.54016298E-02  7.88001686E-03  1.47452146E-02 -5.58829231E-03  3.80760514E-02
 -3.45473553E-02  2.44410532E-02 -3.15180696E-03  2.82684829E-02  2.73312237E-03
  2.18634269E-01  1.12496631E-02  4.08317570E-02 -1.22942957E-01 -6.95737799E-02
 -1.19691194E-03  8.27956008E-04 -1.29858856E-01 -1.40195649E-01 -1.51512402E-03
  1.93877385E-02 -6.64264920E-05 -2.80141612E-04  3.71796198E-02  6.36100729E-03
  1.39444656E-02  4.99571170E-02 -1.51818353E-01 -2.36503271E-02 -3.22032771E-02
 -6.21590006E-04 -7.02510941E-03 -5.10025490E-02  2.03725548E-03  3.76907598E-02
  1.66862696E-04  2.07033662E-04 -2.04909055E-02  2.45117127E-02  1.24724064E-02
  4.36242063E-02 -1.25361789E-01  3.10084824E-02  1.39331224E-02  9.09027951E-05
  2.11304844E-02 -9.85456373E-04 -3.53392441E-03  3.78492601E-02 -3.41429090E-04
  5.07527500E-04 -2.85750927E-02 -5.41464747E-03  7.80541788E-04  5.57193939E-03
 -2.60003149E-02 -1.55770591E-02  3.77954748E-02  9.97528799E-03 -1.80819501E-01
  1.01523955E-01  9.23677175E-03  3.75139460E-02  5.95463254E-03 -5.07398676E-04
 -6.28833980E-03 -3.43677270E-03  8.21007327E-03  2.91706217E-02 -7.91906697E-02
  7.94294246E-02 -2.63052488E-02 -1.42563478E-03 -1.57430243E-01  1.19689693E-01
 -3.35765394E-03  3.40734817E-02 -4.87345026E-05 -7.44588257E-04 -2.95796991E-02
  1.44991001E-03  1.43483062E-02  5.37950312E-02 -1.86071706E-01 -3.78563331E-02
  3.25198155E-02 -2.05389113E-03 -1.97235345E-01 -1.08378233E-01  1.76894029E-03
  4.38289304E-02 -4.43436888E-06 -3.49363931E-04 -6.69748063E-03 -2.62946272E-02
  4.77933831E-03  1.59210383E-02 -1.21817897E-02  1.20772599E-02  1.13737233E-03
  5.59006342E-04 -7.34037337E-02  3.03249131E-02  1.11677687E-03  4.69458232E-02
  4.65566845E-04  6.05278633E-05  2.23976422E-02 -1.32296076E-02 -7.66282623E-03
 -2.68044664E-02  5.02675871E-02  8.63524654E-02  2.56307262E-02  2.87390366E-02
 -1.41204466E-01 -3.97321054E-03 -1.52523125E-02  7.81710131E-03 -3.20810709E-03
  8.75282220E-04 -4.03063342E-04 -2.88591772E-03  2.44146286E-02  1.79956187E-01
 -2.64532560E-02  4.46590241E-02 -3.96127279E-03  4.40291120E-02  2.02791664E-01
 -1.64497101E-03 -6.05051575E-03  1.88938878E-02  1.13397384E-02 -1.77723540E-04
 -9.77915817E-04  2.04231024E-02 -3.10562817E-03  2.05398733E-04 -2.06382356E-03
 -7.83415227E-05  1.86021364E-04 -5.37906075E-03  6.96545965E-04 -1.51950511E-03
 -5.62851398E-03  1.76381805E-02 -3.59255154E-03  5.25294487E-03 -1.60696992E-03
  2.03420351E-02 -9.89129212E-03 -8.53288406E-04 -4.75605638E-03 -1.17351782E-04
 -9.41347630E-05  1.12619121E-03 -6.34191182E-03 -1.29015231E-03 -4.82806954E-03
  1.55953601E-02  1.28576074E-04 -4.41401204E-03 -5.15792379E-04  6.08664976E-03
  1.42305224E-02  1.55414690E-03 -6.35216865E-03  3.12392049E-04  5.98863148E-04
 -6.67526002E-04 -8.86228798E-03  2.66064859E-03  8.95780692E-03 -2.50200338E-02
 -3.68915038E-02 -6.35434174E-04  3.72200472E-03  2.31999716E-02 -7.54495432E-04
 -2.85463701E-03  4.92330825E-03  6.59979103E-04  4.77936973E-04 -2.15712955E-02
 -4.38496441E-03 -1.51771520E-03 -5.29620655E-03  1.43375625E-02 -7.23042724E-03
 -3.78961880E-03  6.48079219E-04  6.24772755E-03 -7.43092689E-03  1.62638480E-03
 -6.27334716E-03  2.02279251E-04 -4.58664441E-04  2.12369199E-03  6.12785547E-03
 -2.43963903E-03 -8.73100246E-03  2.70576386E-02 -1.04209701E-03 -2.93625824E-03
 -3.65201919E-04  1.42777538E-02 -2.64047624E-04 -7.36000976E-04 -5.52685625E-03
  4.44356448E-05  9.73695147E-05  1.20742569E-03  4.25953836E-03 -3.39438898E-04
 -1.07509176E-03 -9.25709879E-04 -4.67993004E-03  1.28197728E-03  3.58740818E-04
  1.08010886E-02 -1.41233335E-04 -3.37118813E-05 -6.89817017E-03 -1.08700715E-04
 -3.61558259E-05 -4.51542316E-03 -9.30702157E-04  7.65013481E-03  2.68616021E-02
 -5.27921267E-02  1.55138960E-02 -1.96054494E-02  3.49843912E-03  2.69439120E-02
 -6.26707047E-03  8.12376506E-03  3.76805971E-03 -3.26809578E-05 -1.02250304E-03
 -5.45666906E-03 -2.33479148E-03 -3.16480492E-03 -2.65261613E-02  9.79570711E-03
 -1.03108667E-02  7.50958783E-04 -2.07999373E-02 -2.90084591E-02  1.13987631E-02
 -2.46738120E-03 -8.94532984E-03  2.68299080E-02  1.18633295E-02  3.25805175E-04
  2.92870007E-03  2.67952981E-02  4.09422203E-02  2.21571904E-04 -5.33137664E-03
 -6.01772040E-05  1.48495135E-05 -6.24032606E-03 -4.37204274E-04 -2.76409784E-03
 -9.89119768E-03  2.94203823E-02  3.34751934E-04  3.15964294E-03  6.47556718E-05
 -7.44786229E-03  2.21806806E-02 -6.25659249E-04 -6.16144989E-03 -7.57823211E-04
  4.06700692E-04  3.16332470E-03 -4.78387934E-03 -2.66830156E-03 -9.12270834E-03
  2.42941132E-02 -2.53858138E-03 -1.75044594E-03 -3.09930114E-03 -5.91126127E-03
 -1.64356602E-02  7.13207772E-04 -1.02025294E-02 -3.39131748E-04 -5.46759132E-04
  8.21055576E-03  4.25009537E-04  2.10724734E-04  7.08886383E-04 -1.44072006E-03
  2.04404042E-03 -1.57896324E-02 -4.50840684E-03  1.63884658E-02 -3.26033205E-02
 -3.68626926E-03 -2.06135675E-03 -9.59069850E-04 -7.81425666E-05 -6.67477895E-03
  2.44580438E-03 -2.43316731E-03 -7.93136802E-03  1.70942222E-02 -2.66313529E-02
  1.25431745E-02 -2.99410254E-03  4.95006595E-02 -2.83762390E-02  6.57071813E-04
 -9.88324967E-03 -4.12000942E-04  5.46694352E-04  8.95663432E-03  3.28178019E-03
 -2.81256018E-03 -1.11252180E-02  4.18690254E-02  1.61253175E-02 -8.92227042E-03
  7.60354911E-05  5.20007751E-02  2.98750613E-02 -5.79807329E-04 -8.16428050E-03
 -7.56517140E-04 -3.70398974E-04  1.57955854E-03  8.12916772E-03 -1.36675462E-03
 -4.58404402E-03  5.12908310E-03  2.98826474E-04 -9.81991780E-04  1.09805455E-03
  1.48844166E-02 -8.16326821E-03  6.00891767E-04 -9.43534174E-03  5.81651567E-04
  4.81169193E-06 -4.09281919E-03  4.88229961E-03  7.73440842E-03  2.70492101E-02
 -5.31755810E-02 -3.92148827E-02  2.71702796E-03 -5.27365972E-03  2.43876936E-02
  5.23244609E-03  6.82145225E-03  3.11535280E-03 -4.87961110E-04  3.39850406E-04
 -9.93585170E-04  2.69908926E-03 -2.82588415E-02 -4.45925763E-02  1.02827049E-02
 -1.51619042E-02  2.10749667E-03 -2.41192281E-02 -5.11993299E-02  1.03313951E-02
  1.77874970E-02 -3.93516453E-04 -1.44431591E-03  4.70442496E-03  2.55364393E-03
  1.33040824E-03  8.70926486E-03  2.66692601E-03  1.26127412E-02 -1.16498644E-04
 -8.00981861E-04 -6.27966353E-05 -5.04441366E-04 -1.81746473E-03 -6.97563640E-04
 -3.06549725E-04 -1.11174517E-03  3.23890917E-03  5.84859520E-04  6.04251264E-04
  2.01459975E-03 -4.74221980E-03  7.91903450E-03 -1.12668638E-04 -2.88318597E-04
 -1.30540530E-03  1.06809891E-03  2.60807379E-04 -8.80413261E-04 -2.29291413E-04
 -8.37479620E-04  2.41784333E-03 -4.30733373E-04 -2.81301686E-03 -3.03095677E-03
 -2.40268141E-03 -7.20796886E-03  2.67658350E-03 -1.74143662E-03 -4.67725305E-04
  1.11139484E-03  2.00039220E-03  4.45095537E-04 -2.28930870E-04 -6.75692431E-04
  1.75413495E-03  6.52654649E-03 -3.01171422E-03  6.51219901E-03 -6.33544966E-03
 -9.25505178E-03 -6.27476965E-03 -2.09100412E-04  4.14041080E-03 -2.47118362E-04
  7.29546744E-04 -1.82772775E-03  1.64006468E-04  5.68829944E-04 -2.58210232E-03
 -2.00371830E-03  1.89780815E-03 -6.75680793E-03  1.52070309E-02 -1.18274946E-03
  1.97495161E-03 -1.28072345E-03  4.24586707E-05 -1.03586918E-03  2.19329980E-03
 -5.16216551E-04 -3.83076366E-04 -1.47759251E-03  5.68636855E-03 -1.33827035E-03
 -1.60713952E-03 -1.71767158E-03  1.16998879E-02  6.42222896E-03 -6.74604491E-04
 -7.23388666E-04 -1.80409472E-03 -1.13059732E-03 -1.48852366E-03  5.88416599E-04
 -1.02503257E-04 -3.33991044E-04  1.05722042E-04 -7.87842785E-04 -3.47533015E-04
  3.62505452E-03  1.92393430E-03 -2.60715151E-03  2.57552656E-03 -1.31555869E-03
  1.95956749E-03  8.97363698E-05 -6.11176350E-04  1.50631712E-03  1.26684063E-03
  4.41901878E-03 -8.91303221E-03 -1.23653055E-02 -1.47175650E-02  2.87298251E-02
 -9.35220025E-04 -4.04460999E-03  1.67086222E-02  1.39337191E-03 -7.90045157E-04
 -7.45008348E-04  7.69731282E-05 -1.29351774E-03  2.70829174E-03 -3.99618731E-03
  7.57824226E-04 -2.12511371E-03  1.04511542E-03 -1.03090120E-02 -7.04360958E-03
  1.76909260E-03  2.53322987E-03  1.95943358E-03 -4.36020991E-04 -1.40192621E-03
  2.83313267E-03 -3.58238690E-03  9.71674058E-05  8.98545244E-06 -2.84854531E-02
 -1.24969834E-01 -1.25531616E-04 -6.61977320E-03 -2.55245093E-06 -2.90656123E-05
 -4.43574112E-03  5.88469816E-03 -2.34132984E-04 -8.19861248E-04  3.75177684E-03
 -4.72896066E-04 -2.05905190E-03 -3.19513281E-06  8.25607898E-02 -7.29269277E-02
  1.93442260E-04 -3.22354289E-03  6.47616405E-06 -3.10972687E-05 -8.58581175E-03
  4.28095255E-03 -2.88118047E-06 -1.06039204E-06  4.55689364E-04  3.09426758E-04
  3.46656529E-04  1.05186080E-05  6.93291705E-02  5.55475908E-02 -4.52764619E-04
  1.32202953E-03 -1.15284572E-04 -1.12382666E-04 -1.78687656E-04  1.05798341E-03
 -9.31939062E-05 -3.46114907E-04  1.71908059E-03 -6.10918590E-04 -2.43659682E-04
  3.41855894E-05 -1.66987273E-02  9.82522168E-02  7.88834370E-04  1.59818384E-03
  1.09877196E-04 -2.06483802E-05 -1.23566289E-03 -2.20454157E-03 -9.40575561E-05
 -3.71624053E-04  2.87004635E-03 -5.31640099E-04 -3.18314998E-04  4.21114846E-06
 -9.50750269E-02  6.45643547E-02 -1.78337254E-04  2.84982950E-04 -3.16291490E-05
  3.10821726E-05  1.79172419E-03 -2.67683626E-03  1.79555300E-05  1.49201794E-04
 -2.91218644E-03  1.55553375E-03  1.99069706E-03  5.35432169E-06 -1.00005735E-01
 -8.04871546E-02  6.35746036E-05  2.65863467E-03  1.17984570E-05 -3.25458620E-05
  3.23451285E-04 -4.34989202E-03  6.73782686E-04  2.20402062E-03  1.98505309E-03
  9.23960133E-03  1.15971341E-02 -2.09221834E-05 -8.35028141E-03  2.76735620E-02
  2.47398618E-05  1.50395602E-02  9.72044245E-06  1.41382376E-05  2.11522667E-02
 -1.81044250E-02  8.33105435E-06  5.37273804E-05 -5.49036343E-04  1.97454455E-04
  2.01276103E-04  4.20765919E-05 -1.20201235E-02 -1.24011859E-02 -1.62288099E-03
  6.77382376E-04 -3.82171973E-04 -2.49285560E-04  1.06645619E-03 -5.77154904E-04
 -7.66256108E-04  5.81322198E-03 -1.83009610E-03  5.36666739E-04  2.35303067E-04
 -4.82503777E-05  1.78491104E-02 -1.74425737E-03 -4.23067645E-03 -8.78966384E-04
  1.92142836E-01 -1.44333961E-03 -4.88891431E-03  1.09324943E-02 -1.27762113E-02
  1.28621739E-04  3.29521982E-05 -1.13361047E-01 -4.36550351E-01 -4.47938723E-04
 -2.37169394E-02 -9.90195214E-06 -1.00458035E-04 -1.55001756E-02  2.12465637E-02
 -7.83239869E-04 -2.90903650E-03  1.39693694E-02 -1.99323222E-03 -7.38459543E-03
 -1.11749803E-05  2.87595804E-01 -2.51314949E-01  6.91528048E-04 -1.10394858E-02
  2.32530348E-05 -1.08841618E-04 -3.16622548E-02  1.53906721E-02  1.30885817E-05
 -6.73366466E-06  1.85379845E-03  1.06341080E-03  1.31966210E-03  3.79881895E-05
  2.37370746E-01  1.92572331E-01 -1.64192145E-03  4.37180783E-03 -4.18137162E-04
 -4.09748739E-04 -2.88256997E-04  3.64473649E-03 -3.31736077E-04 -1.28445710E-03
  6.42319358E-03 -2.32687999E-03 -8.58282448E-04  1.27138409E-04 -6.09082949E-02
  3.40418406E-01  2.91141645E-03  5.97490484E-03  4.02300438E-04 -7.60319615E-05
 -4.55444368E-03 -7.69249360E-03 -3.15088509E-04 -1.36159327E-03  1.05585891E-02
 -1.90853671E-03 -1.23466515E-03  1.66250751E-05 -3.32025751E-01  2.26833340E-01
 -6.83244725E-04  8.56004777E-04 -1.27816719E-04  1.25902657E-04  6.60222383E-03
 -9.70779136E-03  8.36408306E-05  5.45984281E-04 -1.01759139E-02  5.47657696E-03
  7.11583676E-03  1.76852373E-05 -3.46680755E-01 -2.86799896E-01  2.29757097E-04
  9.71648944E-03  4.10803596E-05 -1.15854857E-04  4.48874348E-04 -1.58939790E-02
  2.27848358E-03  7.31042537E-03  7.93874754E-03  3.20192512E-02  3.95963343E-02
 -7.41926008E-05 -3.69408399E-02  9.22144842E-02  9.22634506E-05  5.18584758E-02
  3.32529532E-05  5.03960565E-05  7.34933182E-02 -6.09998497E-02  1.93553175E-05
  1.75957650E-04 -1.99153280E-03  7.17866404E-04  6.95447756E-04  1.60950972E-04
 -4.42337898E-02 -4.28239147E-02 -5.95316203E-03  2.47723941E-03 -1.40433728E-03
 -8.44654049E-04  4.06593524E-03 -2.02646239E-03 -2.71141748E-03  2.25470746E-02
 -6.71509692E-03  2.31563472E-03  7.58799641E-04 -2.30134330E-04  6.41472592E-02
 -6.35362691E-03 -1.51447288E-02 -3.12013834E-03  4.60531420E-01  1.11737612E+00
  5.28381807E-03  1.98821344E-02 -5.02261645E-02  6.22432419E-02  6.34666401E-03
 -1.75923338E-04  5.97742358E-01  1.82278580E+00  1.99105545E-03  1.06461517E-01
  4.55386305E-05  4.19975710E-04  5.87609625E-02 -9.74696462E-02  3.00871275E-03
  1.25182437E-02 -6.55680533E-02  1.33584375E-02  3.52990883E-02  3.32360255E-05
 -1.18531643E+00  1.01679742E+00 -3.08477299E-03  4.32683219E-02 -1.06101050E-04
  4.52494780E-04  1.46412657E-01 -6.83981841E-02 -2.55167128E-04 -8.08376953E-05
 -9.10683803E-03 -5.67710583E-03 -6.87239988E-03 -1.62999176E-04 -9.42514682E-01
 -7.87937116E-01  7.52337946E-03 -1.66602331E-02  1.90897103E-03  1.88691480E-03
 -1.37727804E-03 -1.52756157E-02  1.54608915E-03  6.29807227E-03 -3.10743074E-02
  1.23491381E-02  3.87311206E-03 -5.97845992E-04  2.82343224E-01 -1.39498943E+00
 -1.38529428E-02 -2.91490641E-02 -1.90645293E-03  3.57766128E-04  2.23801174E-02
  3.19627491E-02  1.30060369E-03  6.39396685E-03 -4.85261654E-02  8.39451766E-03
  6.68588890E-03 -7.17401633E-05  1.38768918E+00 -9.56661376E-01  3.52280150E-03
 -2.92012182E-03  7.19554519E-04 -7.07781085E-04 -2.96181851E-02  4.36944739E-02
 -9.41644089E-04 -3.93738872E-03  4.60792995E-02 -2.51389297E-02 -3.63084918E-02
 -7.80393926E-05  1.42942421E+00  1.23900022E+00 -1.10041978E-03 -4.59044507E-02
 -1.73668612E-04  5.07476385E-04  3.95901795E-03  7.31047226E-02 -5.18770625E-03
 -1.44992163E-02 -6.83544928E-02 -1.22732060E-01 -1.33357571E-01  3.41284800E-04
  2.19848078E-01 -3.52634955E-01 -4.45189486E-04 -2.14467225E-01 -1.36731767E-04
 -2.42625344E-04 -3.07082543E-01  2.31572328E-01 -1.06300145E-04 -9.75678793E-04
  9.57550075E-03 -4.08643148E-03 -2.93004626E-03 -7.99579420E-04  2.08635251E-01
  1.74391475E-01  2.79995757E-02 -1.16449533E-02  6.58962215E-03  3.29454130E-03
 -2.02822120E-02  8.41482976E-03  1.17724740E-02 -1.18533862E-01  3.14757731E-02
 -1.44682670E-02 -2.48653233E-03  1.54033023E-03 -2.88309935E-01  2.95640761E-02
  6.72357443E-02  1.35919387E-02 -1.36837447E-01 -5.00833307E-01  2.30327700E+00
  9.73907405E-03  3.39656684E-02 -1.10056083E-01  1.38609915E-01  3.74965065E-02
  2.77593769E-05  1.00626276E-01 -1.81489533E-01 -5.75775147E-05  1.67616394E-02
 -2.74862547E-05  2.48342963E-06 -7.87494923E-03  4.10851134E-02  3.80859997E-03
  1.30766419E-02 -3.24426653E-02  4.17080692E-02  1.12468079E-02 -5.31618990E-05
  1.74379136E-01 -2.09308697E-01  4.37631431E-04  2.80233247E-03  3.29745888E-05
 -8.23711133E-05 -4.44767285E-03  2.35702724E-02 -1.17730095E-03 -4.16267475E-03
  1.39231105E-02 -1.24031122E-02  9.82763068E-04  5.49410922E-05  1.35917228E-01
  9.53047431E-02 -6.49774980E-04 -2.02750058E-03 -1.25031975E-04 -1.45945818E-04
 -3.04463688E-03 -4.57972172E-03  7.29285723E-04  2.58577934E-03 -1.02753617E-02
  6.70623550E-03  1.81760167E-03  3.99990676E-05 -2.15324464E-02  1.58556669E-01
  8.72870480E-04  3.00860302E-03  8.62206691E-05 -1.47832128E-05  1.81690978E-03
  9.63148815E-04  1.62163617E-03  5.60521293E-03 -1.66601971E-02  2.37750545E-02
  3.04601704E-03 -2.49161454E-05 -1.24512165E-01  1.30700361E-01 -1.34475284E-04
 -1.30150821E-03  2.46289606E-05  1.05320670E-05  3.62317952E-03  3.73362192E-03
 -4.01805324E-03 -1.43851693E-02  5.29487066E-02 -3.88754005E-02 -4.33853065E-02
 -7.60402184E-05 -1.90797288E-01 -1.65084385E-01 -4.90927858E-05  1.87212685E-03
  3.86060695E-05 -3.21135188E-05 -8.51243169E-03 -3.71192339E-03 -1.22820077E-02
 -4.29830217E-02  8.87397469E-02 -6.94751465E-02 -2.29215597E-01 -7.23181129E-05
  5.37826384E-02  5.11581706E-02  6.58359238E-05  8.66077544E-03 -4.65405454E-05
 -2.73129069E-05 -1.77865849E-01 -9.76064643E-02 -7.86931461E-05 -2.44566750E-04
  6.62262369E-05 -2.84693054E-03 -1.24859347E-03  6.06326305E-05 -1.37816346E-02
 -1.88326408E-02 -1.81936654E-03  1.29977707E-03 -5.02960028E-04 -3.22496452E-04
  4.56518435E-04 -1.70166491E-03  2.37939924E-04  6.60247734E-03 -3.11128976E-03
 -1.89779949E-04  4.40727871E-04 -1.07973366E-03  1.87946523E-02 -7.42952087E-04
 -5.85861079E-03 -1.04184414E-03  1.17173138E-02  4.18533174E-02 -2.02167138E-01
  1.01082201E+00  6.85326232E-04  2.15946247E-03 -2.20699321E-02  2.65315822E-02
  8.82346363E-03 -3.43090302E-05 -9.53954388E-02 -4.85749542E-01 -2.36759186E-04
 -2.17837155E-02 -3.43283359E-05 -1.21546870E-04  4.62329770E-03  8.98274385E-02
 -2.27863405E-03 -8.18538531E-03  3.09854908E-02 -1.93432002E-02 -2.83381105E-02
  9.28921164E-06  2.15131426E-01 -1.07855839E-01  4.01470967E-04 -1.45679462E-02
  7.41637932E-06 -7.20284328E-05 -4.04416742E-02  1.39970913E-02  1.07564943E-03
  3.69932139E-03 -1.00946050E-02  1.33250751E-02  2.72788432E-03 -3.39759229E-05
  1.85814373E-01  1.16521125E-01 -1.08717142E-03  7.34358055E-03 -2.20209313E-04
 -2.16305213E-04  1.92876313E-03  1.44092120E-02 -3.73027052E-04 -1.34600044E-03
  5.25572545E-03 -2.09615292E-03 -8.96959094E-03  1.16048762E-04 -3.47105838E-02
  2.64354114E-01  1.82417722E-03  4.56658700E-03  3.19360236E-04 -1.10781701E-04
 -4.15281225E-03 -3.35794879E-03  7.24089671E-06 -1.67652784E-04  2.47277136E-03
  2.57892024E-03  1.54314310E-03  7.49109360E-05 -2.48577733E-01  1.26603704E-01
 -3.13562489E-04 -7.46469179E-03 -9.81901935E-05  7.79968949E-05  1.84685553E-03
  4.20174677E-03 -3.19742651E-04 -1.12201283E-03  1.00964069E-02 -6.44532872E-03
 -9.39618062E-03 -5.47150734E-05 -2.43169776E-01 -1.03701234E-01  1.83125718E-04
  2.56761607E-02  9.01585133E-05 -5.93744990E-05  1.08466610E-02 -1.34427891E-02
 -2.62389428E-02 -9.31371381E-02  2.09507316E-01 -2.37920624E-01 -3.22208623E-01
  2.04321577E-04  4.47175227E-03  2.27744564E-01 -1.33936489E-05  3.37116214E-02
 -3.90000234E-05  1.42035977E-05  7.95149484E-02  1.29731036E-01  1.93283147E-04
  7.75102031E-04 -2.88434013E-03  2.50308789E-03  6.72842543E-04 -1.06641080E-04
 -2.40921356E-02 -4.06247685E-02 -3.72379966E-03  1.24069886E-03 -7.15370696E-04
 -1.12967229E-03  1.65919664E-03  1.47984813E-03 -2.46227943E-03  4.01334291E-03
 -1.67792422E-03 -2.45133926E-04  9.02892278E-04  1.07150334E-03  4.67293186E-02
 -5.96905687E-03 -9.93219292E-03 -2.09281798E-03  1.87730484E-02  6.67154518E-02
 -3.22195645E-01 -1.96163432E-01  7.61031630E-01 -5.21430281E-06 -1.81518470E-05
  5.48716855E-05 -3.69674574E-05 -4.50027306E-05 -1.47336231E-01 -2.74807811E-04
 -5.63159127E-04  1.23393036E-02  2.44130955E-04 -3.88415562E-02  3.65964378E-02
 -3.21873174E-05 -1.65174307E-04  7.91556600E-07 -2.77625508E-06  1.24547997E-05
  8.28773800E-06 -2.56475281E-05 -7.18505075E-02  2.20466621E-03 -1.97625710E-04
 -1.73474917E-02 -2.11468139E-04  2.43116066E-02 -7.76965156E-03  2.71459842E-04
 -6.48910145E-05  8.05165928E-06  9.14572624E-06  6.14142045E-04  6.89763495E-05
  8.00519614E-05  4.42364163E-02 -1.65633337E-03  4.41949429E-03  1.30531935E-02
  6.63230361E-04  1.75574297E-02  7.00620577E-03 -5.89293219E-04 -3.03235902E-04
  9.83995512E-05  3.27227185E-04 -1.27890211E-03 -1.17336638E-03  3.46160312E-05
  7.69930675E-02  1.23256282E-02  1.13434459E-03  1.83242714E-02  7.65868366E-04
 -2.35198773E-02  4.94355637E-03  9.43636539E-04 -9.34607895E-05  8.73311835E-06
  1.05681018E-05  6.56206645E-04  9.63135612E-05 -1.61970104E-04  7.31196061E-02
 -3.66536908E-03 -3.34250143E-03  9.35444661E-03  6.85129491E-04  1.56188396E-02
 -9.60085297E-03 -5.54447417E-04  2.97413425E-04  2.71746955E-06  3.18746326E-06
 -3.06293061E-06  4.16104831E-05  2.48141041E-04 -7.20756930E-02  1.16343760E-04
  8.68958588E-05 -2.54391950E-02 -2.36258299E-04  2.51093218E-02  2.66344696E-02
  9.82664105E-05 -4.48128512E-05  5.79678747E-06  2.14442228E-05 -6.81771682E-05
 -2.70179445E-05  2.41117143E-04  3.04522888E-01  3.90080600E-04  8.44899250E-06
 -9.90063421E-03 -7.34704299E-06 -4.50935243E-02 -1.41828178E-01 -5.17823384E-05
 -5.21731536E-05 -7.24873213E-04 -2.61842197E-03  5.97308640E-03  5.25341656E-03
 -6.35840116E-05 -8.20380915E-02  3.26454061E-03  1.96525169E-05 -4.36054924E-02
 -1.56137342E-03 -9.38189617E-03 -7.00288096E-06 -7.18986750E-04 -8.25650360E-05
 -4.13128230E-03 -1.34579316E-03  1.31412060E-04  1.34088237E-03 -4.27295512E-03
 -4.04614507E-03 -1.37873142E-03  3.31895389E-04 -1.45333840E-03 -4.95293494E-03
 -2.18790166E-05 -7.99625558E-05  4.61298208E-04  9.43418488E-05 -7.22849219E-05
  8.64328548E-01  2.95438194E-03  1.02268010E-02 -3.13399671E-02  3.09602420E-02
  3.43179917E-02  1.20741978E-05  6.01373393E-02  1.33345753E-01  6.87847750E-05
  7.92413275E-03 -3.12460730E-06  3.61171126E-05  9.04529444E-03  1.71555427E-02
  3.82552872E-03  1.29502987E-02 -3.77054824E-02  1.79384558E-02 -1.35785299E-02
 -2.94367988E-05 -8.79897484E-02  5.31176886E-02 -1.42615265E-05  7.60033801E-03
 -2.57465004E-06  2.56131831E-05  9.13367511E-03  6.67477901E-03  4.41801096E-04
  1.39107300E-03 -1.89684594E-03 -2.84055830E-03  1.63218628E-03 -1.93293387E-05
 -8.02704524E-02 -7.23658175E-02  1.69695365E-04  5.55083416E-04  7.00208684E-05
  7.06418380E-05 -2.02648394E-03  1.20612072E-03  4.76033057E-04  1.69317940E-03
 -5.41612495E-03  4.27085156E-03 -7.37937118E-04  1.37193744E-04  1.91590897E-03
 -1.10059209E-01 -1.48876053E-04  1.15844953E-03 -9.36512920E-06  4.78684611E-05
  5.51400954E-04  3.67318258E-03  8.66076673E-04  3.10389811E-03 -1.10445318E-02
  1.22984599E-02  4.50232283E-03 -3.56537571E-05  1.01893922E-01 -6.60338196E-02
 -1.27755255E-04 -4.49785048E-04 -2.53011505E-05  3.54594958E-05 -6.77030043E-04
  7.69535929E-03 -2.54469651E-03 -8.95887001E-03  3.46975735E-02 -2.58249993E-02
 -2.48259552E-02 -9.85310122E-05  8.15844936E-02  8.07101264E-02  1.80118431E-05
 -3.69307212E-03  1.32734477E-05  4.45038736E-05 -5.66331298E-03  8.92017056E-03
 -7.36668317E-03 -2.50329643E-02  4.46778612E-02 -8.38649160E-03 -1.57835062E-01
  4.98391657E-05  2.88643143E-02 -4.33934662E-03  1.85939941E-05 -6.52984768E-03
 -2.78292696E-05 -1.99549354E-05 -7.39876554E-02  7.74598695E-04  6.42906528E-05
  2.25624974E-04 -4.16024502E-04 -1.66111441E-03 -1.29542972E-03  3.11922171E-04
  1.12346222E-03  1.36608230E-02  2.86757246E-04  2.55048649E-04 -5.71567294E-05
  2.38284762E-04 -6.51182282E-04  6.06814521E-04  5.01484860E-04  6.92099657E-03
 -5.28610997E-05  1.86564097E-03 -5.97516008E-04 -1.27859652E-03 -8.76820681E-03
  3.96080552E-04  2.47375896E-03  8.28305065E-04 -7.42486083E-03 -2.72502902E-02
  1.15170965E-01  3.87670636E-01 -7.20071825E-02  1.16628654E-04  1.77149680E-01
  3.37264404E-04  8.04430049E-04 -6.21021289E-03  2.62599589E-02  5.01371575E-03
 -4.31572667E-05  6.64226092E-02 -5.19241174E-02  2.51322247E-04  2.97206034E-03
 -1.36807924E-05 -1.90738362E-06  1.96873092E-02  3.42623215E-02 -1.08833221E-03
 -4.05670061E-03  1.53881979E-02 -1.05010278E-02 -2.78285967E-03  3.40698214E-06
 -1.21019387E-02  3.96657198E-02 -3.12731117E-04 -5.26183238E-03 -1.49989607E-05
  6.12023766E-07 -1.25769461E-04 -8.42493775E-03 -4.25710875E-04 -9.29472746E-04
 -1.46209467E-03  8.06543103E-03  1.48011952E-03 -6.74289387E-05  5.79079258E-03
 -1.41472385E-02  7.58623346E-04 -1.63034410E-04  2.04472310E-04  2.12022420E-04
 -2.66861959E-04  2.26220168E-03 -2.20001136E-04 -6.38001945E-04  8.42557699E-05
 -2.41398665E-03 -6.09377397E-03 -1.15281965E-04  4.15341292E-02 -1.45757610E-02
 -1.70328235E-03 -4.58285202E-03 -1.56548710E-04 -2.36179642E-05 -1.44660782E-04
  1.79707840E-03 -2.80076396E-04 -7.51043944E-04 -1.42234708E-03 -1.26220751E-03
 -7.86511616E-04  5.08421300E-05  3.38099481E-02 -4.84552908E-02  7.29724373E-04
 -5.83670054E-03  1.31386264E-04 -1.62547289E-04 -2.98715845E-03  1.02389349E-02
 -6.14609523E-04 -2.33363878E-03  1.54882202E-02 -3.45534822E-03 -1.87187017E-02
 -1.37379100E-05  3.47165449E-02  9.43355591E-02 -1.98877251E-04  5.96333322E-03
  2.50326171E-05  4.22059629E-05  1.11728036E-02  9.16238881E-03 -1.93141738E-02
 -6.69522160E-02  1.27105860E-01 -1.26852070E-01 -1.68614706E-01  1.72105059E-04
  5.00464890E-02  7.64772377E-02 -9.49187634E-05 -1.89013672E-02 -5.65690605E-05
 -5.46976683E-05 -2.67562188E-02  9.07322556E-02  2.64046749E-05  7.39634676E-06
  8.49619470E-04  1.71303692E-03  3.82413756E-04 -3.60260879E-04  2.81097978E-02
 -1.75303100E-03  3.52237927E-03 -2.11415379E-03  1.03501052E-03 -1.87511603E-04
 -1.99493268E-03  2.00387680E-03  9.93033919E-04 -2.86090616E-02  5.00221741E-03
 -5.29372126E-03  5.87347264E-04  2.24739383E-03 -2.54899092E-02  2.67622431E-03
  5.98434328E-03  8.12571745E-04 -8.13838850E-03 -3.12563786E-02  1.39139688E-01
 -6.82736324E-02  3.32861551E-01  8.87630831E-05 -3.12191578E-03  1.93787520E-01
 -3.84826631E-06 -1.40240569E-05  3.80587560E-05 -5.01445802E-05 -4.15332654E-05
 -7.56845533E-02 -2.71393195E-04 -3.97824625E-04  5.95699514E-03  1.09957221E-04
 -1.74380064E-02  1.49111970E-02 -1.74834853E-05 -5.42428998E-05 -4.59308313E-06
 -1.99030467E-05  7.26658078E-05  1.64372240E-05 -3.53682056E-05 -3.53544965E-02
  1.17991772E-03 -2.25998233E-04 -8.98619155E-03 -1.39088104E-04  1.23416143E-02
 -5.22972298E-03  1.29350843E-04 -2.57715534E-05  2.83414375E-06 -1.41603859E-06
  3.66376024E-04  8.25209370E-06  4.12607990E-05  2.60100378E-02 -1.05579678E-03
  2.53094654E-03  6.20904085E-03  3.72222768E-04  8.88512106E-03  3.75607739E-03
 -3.24966149E-04 -1.78345675E-04  5.54662329E-05  1.85598802E-04 -7.33999844E-04
 -6.84120938E-04  2.59887903E-05  4.08293532E-02  6.94826746E-03  5.82079321E-04
  1.06121446E-02  4.18310266E-04 -1.29217090E-02  2.49103108E-03  5.13263329E-04
 -4.95806389E-05  3.95694195E-06  3.38967102E-06  3.63533929E-04  5.42104817E-05
 -1.01303466E-04  4.16354353E-02 -2.06088521E-03 -1.88193470E-03  5.45170896E-03
  3.81945763E-04  7.56051775E-03 -4.73955754E-03 -3.10441895E-04  1.64653417E-04
  1.62696646E-06 -5.96200912E-08  1.71752228E-05  1.09757395E-05  1.55832997E-04
 -3.10676590E-02  9.30798802E-05 -7.36777819E-05 -1.15128447E-02 -1.39021963E-04
  1.32410753E-02  1.26723531E-02  6.64090701E-05 -3.12065851E-05 -1.04750257E-06
 -3.93467445E-06  1.00898402E-05 -1.93553924E-05  4.33790458E-05  1.33957754E-01
  1.70957053E-04  4.87550039E-05 -6.79415874E-03  1.72244284E-05 -2.22408753E-02
 -5.55627376E-02  3.66551094E-05 -5.38636996E-05 -4.06111482E-04 -1.46609252E-03
  3.34196982E-03  2.88861133E-03 -7.00387433E-05 -4.61185788E-02  1.90173847E-03
 -1.18013622E-05 -2.45610773E-02 -9.19832195E-04 -4.95419927E-03 -6.27980996E-06
 -3.51719901E-04 -4.47817203E-05 -2.27286724E-03 -7.47964721E-04  3.46257060E-05
  7.09948499E-04 -2.31969832E-03 -2.26967891E-03 -7.59493767E-04  1.26814842E-04
 -7.60240277E-04 -2.61866708E-03  9.58316824E-06  3.36422958E-05 -1.09751537E-04
  8.76866353E-05  7.11727097E-05  3.59575980E-01  4.66592215E-05  4.45050036E-05
  1.50924483E-01 -9.29596405E-04 -2.86892332E-03  7.17771585E-03  6.73792455E-03
 -9.75371344E-04  3.04487049E-05 -1.26258448E-02 -9.20419372E-02 -3.19396110E-05
 -5.65202662E-04  4.67242532E-06 -2.20377677E-05 -9.57520347E-03 -3.20870716E-05
 -5.36404104E-04 -1.77446620E-03  5.11555463E-03 -2.18270317E-03  6.20940052E-03
  5.88063153E-06  7.59964700E-02 -6.17272118E-02  5.27359592E-05 -3.16528303E-03
 -7.18855182E-06 -2.51501421E-05 -6.07412265E-03  1.02717156E-03 -3.17202041E-05
 -1.52912947E-04  2.05313583E-04  1.21014430E-03 -1.63667360E-04 -5.05486726E-06
  6.30811367E-02  4.91959912E-02 -1.13404156E-04 -1.97618261E-04 -4.61939777E-05
 -4.72249593E-05 -4.76571718E-05 -1.04727423E-03 -1.02474917E-04 -3.56210288E-04
  1.01689159E-03  5.67457511E-04 -1.61278632E-04 -1.76824441E-05 -2.15260779E-03
  7.70290080E-02  2.38821959E-05  1.03434149E-04 -6.75427821E-06 -2.07035648E-05
  3.53041788E-04 -1.69677536E-03 -8.90512035E-06 -1.04162280E-04  9.15156496E-04
  1.07697342E-03  7.11680700E-04 -2.10062099E-05 -6.61180427E-02  5.21849271E-02
  1.06640239E-04 -3.47225668E-04  2.66555340E-05 -2.52230102E-05  1.72347336E-03
 -2.20463597E-03 -1.22107563E-04 -4.37196560E-04 -1.21894343E-03 -1.42734582E-03
 -9.76177010E-04  1.94110670E-05 -6.75464227E-02 -7.24525209E-02 -6.71257612E-05
  4.22043436E-04 -1.07496366E-05 -3.25345596E-05  3.08495714E-04 -2.25265119E-03
  4.29515847E-03  1.46565070E-02 -2.73851930E-02  8.92841245E-03  3.66369981E-02
 -9.92498854E-05 -7.26118637E-03  9.11279709E-03  4.29847116E-06  2.56887925E-03
  2.14295119E-05  4.02665109E-05  7.39755478E-03 -2.10381566E-02 -4.70422363E-05
 -1.50389053E-04  1.63236182E-04 -6.92815969E-04  2.40007043E-04  1.57188129E-05
 -1.39584843E-03 -9.28934623E-03 -1.05679996E-04 -7.07072872E-05 -7.02409944E-05
 -1.55492515E-04  1.62076751E-04 -5.86121764E-04 -4.07771740E-04 -3.65764925E-03
 -2.80635829E-04 -1.19524092E-03  4.31761575E-04  1.74712632E-04  5.21743467E-03
  5.21496015E-05 -1.75471918E-03 -4.49990885E-04  5.39262987E-03  1.90530288E-02
 -7.81518729E-02 -1.06123672E-02 -2.99549225E-02 -2.52889800E-04 -1.62116432E-02
 -2.62393690E-02 -9.95004500E-05  7.95427461E-03 -1.99619125E-06 -7.12984287E-06
  2.35396901E-05 -3.59301737E-05 -6.30034543E-06 -3.21051603E-03 -2.88224768E-05
  1.60320459E-04  8.52089262E-04  1.87457232E-06 -3.20082322E-03  2.23548621E-04
 -6.81880203E-06 -1.79441691E-05 -2.04901574E-06 -6.87400825E-06  1.75384323E-05
 -3.90663522E-08 -1.38489724E-05 -3.17052397E-03 -7.21441514E-05  1.31096323E-04
 -7.79949478E-04  1.44185061E-06  9.42278003E-04 -2.56291042E-04  7.55941823E-06
 -3.08871652E-06  1.76407610E-06  5.10927959E-06  1.72461488E-06 -1.33105825E-05
 -8.11583827E-06  1.15284260E-03 -1.21257775E-04 -2.25179308E-05  5.36766556E-04
  9.26702584E-06  6.49327532E-04  3.16552699E-04 -3.28902482E-07  2.84567233E-06
  1.83630216E-06  5.87495228E-06 -1.88310996E-05  8.55985775E-06  5.89633896E-06
  2.54290833E-03  2.10436398E-04 -1.21770456E-04  1.71578353E-04  2.27367144E-05
 -6.15007514E-04 -3.41121749E-05  3.26293937E-05 -3.02153825E-06  7.90373361E-07
  2.12781671E-06  8.70591981E-06 -1.02243048E-05 -9.31641448E-07  8.00904719E-04
  8.43734320E-05 -1.26818483E-04  4.08876743E-04  1.07124417E-05  7.10792079E-04
 -3.42463997E-04 -3.79594757E-06 -3.69767650E-06  5.47029951E-07  1.85890456E-06
 -5.61620358E-06  9.97182896E-06  1.94987387E-05 -3.77533456E-03  1.65258491E-04
  8.81914715E-05 -9.32239554E-04 -2.55870691E-06  8.68712457E-04  4.04992320E-04
 -2.14790142E-06 -2.85992491E-06  4.20736946E-06  1.42443637E-05 -2.79817443E-05
  2.38597176E-05  4.95868675E-05  2.86049197E-02  5.35090580E-06 -3.21434743E-05
  1.17362841E-03 -1.38929328E-05 -2.09229668E-03 -1.17912844E-03  3.39948190E-05
  2.81727578E-05 -1.19964681E-05 -4.30418556E-05  9.75206465E-05  9.10543286E-05
 -2.29447434E-05 -1.46876551E-03  3.61394627E-05  7.05242507E-06 -7.03478206E-04
 -1.01550323E-05 -3.38446618E-04 -7.66290610E-07 -3.48322058E-05 -2.97071246E-06
 -8.66896455E-05 -3.80523464E-05  2.56164730E-05  4.10833701E-05 -1.22794742E-04
 -1.10623707E-04 -5.26174655E-05  2.70852928E-05 -3.78834230E-05 -1.21435545E-04
 -7.79341769E-06 -2.78407561E-05  1.28685100E-04 -2.16334714E-04  2.30054466E-05
  2.53015338E-02 -7.20070115E-05  1.62627227E-05  1.12447903E-02 -7.66006763E-06
  1.66660531E-03 -3.56469753E-06 -1.23513929E-05  3.78921554E-05  2.76444108E-06
 -1.63242849E-05  7.22912235E-03  6.98684318E-05 -3.54186919E-05  1.12695345E-03
 -7.26221860E-06 -4.82789083E-03  1.36048800E-03 -2.00225904E-05 -2.01617759E-05
 -2.49674037E-06 -9.30419570E-06  3.23070739E-05  6.06337976E-07  2.31801834E-05
 -1.13201134E-03  9.17209627E-05 -3.87150337E-05  2.52793056E-04  5.22311176E-06
  3.07505753E-06  1.31398899E-03  1.86460655E-06 -7.02348385E-06 -1.79928429E-06
 -5.87491403E-06 -4.70599315E-06 -1.12251348E-05 -7.80238628E-06 -3.14213238E-03
  2.20202713E-04 -8.12686564E-05  1.81566674E-04 -3.56551671E-05  9.53395533E-05
 -6.44925000E-05  3.02140708E-05  2.30062265E-05 -7.45675143E-06 -2.56225167E-05
  9.23827805E-05  9.04964867E-05 -3.73753856E-06 -1.20005116E-03 -3.59737052E-04
  7.55109585E-05 -1.09234561E-03 -2.83654899E-05  4.60801174E-04  1.36188127E-04
 -2.16835312E-06 -3.70135368E-06 -1.74902598E-06 -5.94648718E-06 -2.74741152E-07
 -2.69570262E-05  1.08006241E-05 -2.45332162E-03  8.78557491E-05  1.86564458E-04
 -3.39641951E-05 -3.27439096E-05  7.75286221E-05 -3.91106839E-05  3.46644086E-05
 -3.18805465E-05 -2.32678818E-06 -9.40759186E-06  3.33590635E-05  1.68028605E-05
  8.54124657E-06 -1.58047845E-03 -5.64750756E-05 -8.03859886E-05 -1.19265957E-04
  1.22415422E-06 -2.53862453E-05 -5.87907449E-04 -5.52517344E-06 -3.82564109E-08
  4.72743976E-06  1.65766572E-05 -4.04285050E-05  5.60523442E-05  9.54840931E-05
  4.81676092E-02  2.97460305E-05 -2.15245430E-05  4.37430573E-03 -3.31289119E-05
 -1.03459386E-03 -5.50509066E-03 -1.74036084E-05 -4.78500311E-05  2.50545130E-05
  9.18202335E-05 -2.15363018E-04 -2.12005073E-04  6.50499893E-06  2.82796417E-03
 -9.98492024E-05  6.71323946E-07  1.73246072E-03  7.71542515E-05  4.60221295E-05
  3.83048407E-07 -1.12641961E-05 -1.43354567E-06  9.31022708E-05 -5.10026871E-05
  3.23719294E-05 -4.11140615E-05  1.04159559E-04  1.06428001E-04 -5.06447208E-05
  4.01098609E-05  3.60226054E-05  8.01732740E-05 -3.60494030E-06 -1.32671279E-05
  7.53331586E-05  2.84478762E-05 -1.54089033E-04  5.01073064E-02  8.86367558E-06
 -5.96798062E-05  2.11740732E-02 -3.24803193E-06  2.58876624E-03  4.70685135E-03
  2.57115437E-04  7.58585086E-04  1.04700812E-04 -1.26837390E-02 -2.19795777E-03
  2.44530196E-06 -2.71955962E-02 -2.42460076E-02 -1.08686715E-04 -2.27975855E-03
  4.91327431E-06 -9.38198403E-06 -4.32294114E-03  8.39392350E-04  1.04118017E-03
  3.37931903E-03 -9.05513442E-03 -4.96235092E-03 -5.74750817E-03  4.96438505E-06
  1.50842109E-02 -1.56510277E-02  1.59072221E-04  8.69896128E-04  1.08931556E-05
 -5.37797070E-06 -3.85280968E-03  4.20764196E-03  5.95996445E-04  1.97572175E-03
 -4.93137665E-03  5.17872774E-03  2.68039959E-04  1.34097571E-05  7.15261628E-03
  6.38372793E-03 -3.94020097E-04  1.45791612E-03 -8.78623256E-05 -9.71732943E-05
 -1.44999655E-03  1.01138377E-03 -1.90230295E-05 -1.44875123E-04  1.71751822E-03
 -1.17561948E-03 -1.29110630E-04  3.39616401E-05 -1.81660241E-02  1.89590826E-02
  8.62724324E-04  2.35869055E-03  1.01221896E-04  1.86116303E-06 -1.58790522E-03
 -2.00605502E-03 -1.80564664E-04 -7.43584412E-04  4.00261548E-03 -2.32424661E-03
 -4.88928241E-04  1.21337691E-05 -2.76562759E-02  2.06969347E-02 -3.38831646E-04
  1.02891350E-03 -7.12391349E-05  7.91240485E-05  1.00901789E-03 -2.49511091E-03
  1.93548375E-04  7.38059529E-04 -4.29397833E-03  4.60030316E-03  5.80516214E-03
  1.11088058E-05 -3.01622533E-02 -3.37525358E-02  1.13654938E-04  2.90337989E-04
  6.70355577E-06 -1.87429234E-05 -8.89538766E-04 -3.28262811E-03  4.97877627E-03
  1.70107996E-02 -2.97980580E-02  4.02834280E-02  7.08298105E-03 -5.17849785E-05
 -1.71593636E-02 -4.82929966E-05  2.66979568E-05  8.68754479E-03  6.76417167E-06
  1.44567524E-05  1.01675659E-02 -1.27800248E-02  1.08444042E-04  4.10794255E-04
 -1.23097728E-03  8.91074873E-04  2.25049362E-05  1.23241414E-05 -1.29253105E-02
 -1.57712384E-03 -1.76551000E-03  8.86089970E-04 -4.44733089E-04  1.42169633E-05
  9.74909582E-04 -2.94025375E-04 -6.30556103E-04  1.21326578E-02 -1.91736079E-03
  2.42404552E-03 -2.10110664E-04 -4.23171373E-04  1.37901254E-02 -1.54982783E-03
 -2.88208521E-03 -4.83176325E-04  4.03269948E-03  1.44875230E-02 -6.19761024E-02
  2.39096873E-02 -4.72775266E-02 -1.80292568E-05  5.15574191E-03 -3.36801923E-02
 -3.34656492E-06  4.77590851E-03 -6.88865010E-06  5.07480623E-06  8.58118688E-03
 -1.38027525E-03 -4.68458177E-03  1.24850739E-02 -1.76207063E-02  2.25356475E-03
  5.70864737E-05  1.87134584E-02 -2.59845044E-02  6.71696310E-05 -3.58066992E-03
 -1.36045624E-06 -4.65836801E-07  1.82686620E-02  9.31300200E-03  4.93199292E-04
  1.61320890E-03 -4.33287799E-03  9.09998371E-03  8.95354824E-04 -1.54948719E-05
  7.05329247E-03 -1.91821357E-02 -9.83202161E-05 -1.42433380E-03 -2.41857304E-05
 -1.24517218E-06  4.49630146E-03 -6.72158557E-03 -8.35322249E-04 -2.84524378E-03
  8.67174366E-03 -3.98229230E-03  8.22757918E-04 -4.73683344E-05  1.05332702E-02
  1.54587491E-02  2.70344822E-04 -3.89274985E-04  3.71934093E-05  7.24221762E-05
 -1.09081433E-03 -1.35988481E-03 -3.90543687E-04 -1.39369218E-03  3.99025800E-03
 -8.32483760E-04 -5.70431730E-04  6.12225713E-05  1.47295004E-02  1.23689202E-02
 -5.94817581E-04 -3.35418767E-03 -9.43829047E-06 -4.36493347E-06 -1.28252352E-03
  2.67800585E-04 -5.27827034E-04 -1.83540139E-03  5.39895998E-03 -3.45182530E-03
 -9.38053820E-04 -3.78096426E-05 -1.00751080E-02 -2.74272629E-03  3.14277287E-04
 -1.42772590E-03  3.85376533E-05 -7.83560802E-05 -3.39121250E-04  2.07636649E-03
 -4.85602391E-04 -1.78643934E-03  7.18298237E-03  2.46484316E-03 -8.13530138E-04
 -9.10563685E-06 -1.94498006E-02  3.95507563E-03 -1.26813832E-04 -1.17692728E-04
 -1.69014776E-05 -3.36697499E-06  5.70697984E-03  7.18396075E-03 -7.36947993E-03
 -2.50520752E-02  4.67234067E-02  8.32069782E-03 -4.83995604E-02  6.78244784E-05
  1.19329622E-02  1.72634212E-02 -8.64238028E-06 -4.08666680E-03  5.97777342E-06
 -1.59351518E-06 -4.25955839E-03  6.23961042E-03 -1.59059600E-04 -5.76896672E-04
  1.42568215E-03 -2.18337293E-03  8.25752030E-05  2.57349397E-04  7.18574485E-03
 -1.95605815E-03  1.33672989E-03 -7.97825415E-04  3.05857526E-04 -5.68685294E-05
  7.03976862E-04  1.04076444E-04  1.79646920E-04 -9.30642599E-03  7.59781295E-04
 -2.22707802E-03  2.37296036E-04  3.15048912E-04 -7.66608309E-03  6.60306028E-04
  1.72271484E-03  1.32764874E-04 -9.21404388E-04 -2.89995666E-03  4.98521470E-03
  4.49998871E-02  4.07947273E-02 -3.90864603E-05  2.33253260E-02  2.56783832E-02
 -1.12090935E-05 -5.29074611E-03 -1.00709887E-05 -4.58681483E-06 -3.45006813E-03
  9.97884964E-03 -4.35864654E-04 -1.40164665E-03  2.84467654E-03 -3.58171537E-03
 -1.02150083E-04  6.49193070E-06 -2.85172586E-02  1.25384667E-01 -8.02341782E-05
 -6.62397087E-03  1.33156970E-05  5.23301981E-06 -4.42335839E-03 -5.87593700E-03
  1.79297215E-05  1.49115750E-04 -2.91178563E-03  1.55136894E-03 -1.99283233E-03
  3.77326314E-07 -1.00325158E-01  8.07681641E-02  8.66355620E-05  2.66095371E-03
  9.34669109E-06  2.05154222E-05  3.24758219E-04  4.34463064E-03 -9.39848541E-05
 -3.71295060E-04  2.86839792E-03 -5.30089440E-04  3.17929324E-04  7.57950433E-06
 -9.54882482E-02 -6.47551403E-02 -2.26147557E-04  2.83453763E-04 -2.37687213E-05
 -2.46238209E-05  1.79003019E-03  2.67240694E-03 -9.30792427E-05 -3.45564614E-04
  1.71601928E-03 -6.09807604E-04  2.42058796E-04  3.49760734E-05 -1.67235830E-02
 -9.86942260E-02  7.99265184E-04  1.59837049E-03  1.08182011E-04  2.21157638E-05
 -1.23468922E-03  2.21219029E-03 -3.11861757E-06 -1.75886663E-06  4.55189925E-04
  3.06136395E-04 -3.46036872E-04  8.86114382E-06  6.97157689E-02 -5.57918094E-02
 -5.04065883E-04  1.31619584E-03 -1.10816325E-04  1.13903651E-04 -1.84251158E-04
 -1.05664235E-03 -2.33319608E-04 -8.16996821E-04  3.75064078E-03 -4.65504965E-04
  2.04942457E-03 -5.05413914E-07  8.30261345E-02  7.30735509E-02  2.45211444E-04
 -3.21290772E-03  1.12427099E-05  4.26058402E-05 -8.58594518E-03 -4.27576580E-03
  6.73944486E-04  2.20437535E-03  1.98919665E-03  9.25546403E-03 -1.15884751E-02
 -8.81674418E-06 -8.36271089E-03 -2.76825696E-02  3.83119431E-05  1.50411132E-02
 -8.11112570E-06  3.29852119E-05  2.11039646E-02  1.81525058E-02  8.28441519E-06
  5.34910921E-05 -5.47857398E-04  1.96557362E-04 -2.01740829E-04  4.15628790E-05
 -1.20013364E-02  1.24620800E-02 -1.62153228E-03  6.76193155E-04 -3.80055887E-04
  2.46073042E-04  1.06721745E-03  5.78403189E-04 -4.61579216E-05  1.78569913E-02
 -1.73799609E-03  4.23926650E-03 -8.74897665E-04 -7.66248091E-04  5.77443789E-03
 -1.82874164E-03 -5.25244866E-04  2.39166308E-04 -2.08924725E-04 -5.92130637E-04
 -1.46141205E-04 -5.95927985E-03  6.26602155E-03  4.57755816E-06  4.60097392E-03
 -4.32720982E-04  4.19636470E-06 -4.09094874E-03  4.38107287E-06 -1.07134772E-05
  1.09748829E-03 -7.91512838E-04  1.92142419E-01 -1.44281629E-03 -4.88821860E-03
  1.09744678E-02 -1.27737674E-02 -1.45644565E-04  2.39450712E-05 -1.13477664E-01
  4.38012629E-01 -2.92730284E-04 -2.37317858E-02  4.74513914E-05  1.91160446E-05
 -1.54559635E-02 -2.12146419E-02  8.35013644E-05  5.45509376E-04 -1.01744151E-02
  5.46217403E-03 -7.12337546E-03  1.31664834E-07 -3.47806943E-01  2.87788975E-01
  3.15507964E-04  9.72382296E-03  3.23537862E-05  7.37152828E-05  4.54267112E-04
  1.58759675E-02 -3.14879251E-04 -1.36057644E-03  1.05529316E-02 -1.90296934E-03
  1.23333147E-03  2.85677005E-05 -3.33484492E-01 -2.27508019E-01 -8.51506592E-04
  8.50685687E-04 -9.99695866E-05 -1.03261232E-04  6.59589046E-03  9.69246876E-03
 -3.31348581E-04 -1.28261078E-03  6.41263976E-03 -2.32277365E-03  8.52621914E-04
  1.30025943E-04 -6.09923065E-02 -3.41978291E-01  2.94876640E-03  5.97545361E-03
  3.96101152E-04  8.12576803E-05 -4.55029405E-03  7.71956279E-03  1.21793093E-05
 -9.52661030E-06  1.85269655E-03  1.05140067E-03 -1.31751271E-03  3.19819927E-05
  2.38740740E-01 -1.93428468E-01 -1.82042276E-03  4.35068666E-03 -4.03565363E-04
  4.15400941E-04 -3.07147242E-04 -3.64063565E-03 -7.80387855E-04 -2.89899345E-03
  1.39649666E-02 -1.96610977E-03  7.34942428E-03 -1.68316336E-06  2.89238342E-01
  2.51827315E-01  8.70317537E-04 -1.10017336E-02  4.07302235E-05  1.51048216E-04
 -3.16609844E-02 -1.53719381E-02  2.27900669E-03  7.31132424E-03  7.95444852E-03
  3.20742538E-02 -3.95658151E-02 -3.31290023E-05 -3.69918710E-02 -9.22548088E-02
  1.36632657E-04  5.18637730E-02 -2.59358787E-05  1.13164558E-04  7.33290557E-02
  6.11668176E-02  1.91601470E-05  1.75046169E-04 -1.98730668E-03  7.14496379E-04
 -6.97087682E-04  1.59162595E-04 -4.41669851E-02  4.30395078E-02 -5.94839391E-03
  2.47278352E-03 -1.39706729E-03  8.32655597E-04  4.06821363E-03  2.03053524E-03
 -2.22911630E-04  6.41736848E-02 -6.33112700E-03  1.51750762E-02 -3.10558592E-03
 -2.71150476E-03  2.24098651E-02 -6.71070556E-03 -2.27489755E-03  7.72021965E-04
 -5.92206930E-04 -1.75261651E-03 -9.68823995E-04 -2.08487271E-02  2.21998311E-02
  1.70324466E-05  1.60235948E-02 -1.86808345E-03  1.44349761E-05 -1.41181769E-02
  1.50326776E-05 -3.81220973E-05  4.05411393E-03 -2.72616316E-03  4.60529832E-01
  1.11737026E+00  5.28308945E-03  1.98856478E-02 -5.04231824E-02  6.22351933E-02
 -6.27646413E-03 -1.27499104E-04  5.98278175E-01 -1.82918616E+00  1.37335867E-03
  1.06528755E-01 -2.11762995E-04 -8.86918265E-05  5.85595565E-02  9.73173687E-02
 -9.39586509E-04 -3.93022899E-03  4.60602151E-02 -2.50787156E-02  3.63466849E-02
  1.02064490E-06  1.43437654E+00 -1.24329501E+00 -1.49552893E-03 -4.59270659E-02
 -1.34062756E-04 -3.28621038E-04  3.93179819E-03 -7.30299318E-02  1.30080755E-03
  6.39331774E-03 -4.85119617E-02  8.37182532E-03 -6.68095171E-03 -1.27366989E-04
  1.39407969E+00  9.59636807E-01  4.23276642E-03 -2.89746774E-03  5.99618777E-04
  6.10836070E-04 -2.95897490E-02 -4.36333035E-02  1.54521261E-03  6.29317280E-03
 -3.10366100E-02  1.23284358E-02 -3.84524828E-03 -6.13412061E-04  2.82657473E-01
  1.40182111E+00 -1.40152231E-02 -2.91458807E-02 -1.87851349E-03 -3.79799253E-04
  2.23565312E-02 -3.20812748E-02 -2.48857867E-04 -5.98808053E-05 -9.12580318E-03
 -5.60699270E-03  6.86397452E-03 -1.33480662E-04 -9.48562011E-01  7.91645576E-01
  8.26145455E-03 -1.65638858E-02  1.85632785E-03 -1.91391220E-03 -1.30384809E-03
  1.52591846E-02  2.99675467E-03  1.24760376E-02 -6.55446074E-02  1.32074225E-02
 -3.51223454E-02 -4.87885521E-06 -1.19246889E+00 -1.01905890E+00 -3.81532641E-03
  4.31075708E-02 -1.88314284E-04 -6.45924246E-04  1.46385633E-01  6.83089899E-02
 -5.18818414E-03 -1.44956357E-02 -6.84384920E-02 -1.22944721E-01  1.33236573E-01
  2.10064430E-04  2.20117289E-01  3.52888990E-01 -6.08162623E-04 -2.14488414E-01
  8.11619154E-05 -4.42969241E-04 -3.06450559E-01 -2.32272417E-01 -1.04917584E-04
 -9.70055659E-04  9.55440439E-03 -4.06466404E-03  2.93743929E-03 -7.92566159E-04
  2.08342180E-01 -1.75341876E-01  2.79780955E-02 -1.16230964E-02  6.56035928E-03
 -3.23643330E-03 -2.02897198E-02 -8.43047968E-03  1.51131587E-03 -2.88413450E-01
  2.94634553E-02 -6.73684489E-02  1.35281718E-02  1.17741757E-02 -1.17928950E-01
  3.14612878E-02  1.42844685E-02 -2.53937365E-03 -1.44235819E-04 -9.63316949E-04
  3.70945664E-02  8.83108911E-02 -1.03174822E-01 -1.08979163E-04 -6.26743021E-02
  9.10727621E-03 -7.03437568E-05  5.76494200E-02 -5.72834254E-05  1.69492027E-04
 -1.73079774E-02  1.07235776E-02 -1.36832025E-01 -5.00813969E-01  2.30322305E+00
  9.73765409E-03  3.39580649E-02 -1.09993582E-01  1.38691106E-01 -3.74915500E-02
  1.08368206E-04  1.00410102E-01  1.82557068E-01  9.40272048E-05  1.67176962E-02
  2.33921271E-05 -1.04589836E-05 -7.91151834E-03 -4.11824652E-02 -4.01729595E-03
 -1.43824297E-02  5.29647942E-02 -3.88737242E-02  4.34006432E-02  1.27773519E-05
 -1.91150736E-01  1.65600106E-01  4.55056901E-06  1.93481166E-03  3.02847552E-05
  3.69663532E-05 -8.51208068E-03  3.75065800E-03  1.62229044E-03  5.60738593E-03
 -1.66685454E-02  2.37786772E-02 -3.04585850E-03 -5.43495797E-05 -1.25088136E-01
 -1.31046329E-01 -2.35597984E-04 -1.33371178E-03  1.68130266E-05 -1.55768816E-05
  3.62075646E-03 -3.73196946E-03  7.27502903E-04  2.57984946E-03 -1.02558146E-02
  6.69557560E-03 -1.78588267E-03 -1.04505025E-05 -2.16132929E-02 -1.59190545E-01
  9.18473896E-04  3.02066976E-03  8.50572025E-05  3.08084072E-05  1.81259893E-03
 -9.49442306E-04 -1.16951353E-03 -4.13503242E-03  1.38296721E-02 -1.23148633E-02
 -9.81541340E-04  8.45035597E-05  1.36442925E-01 -9.56562665E-02 -8.07244092E-04
 -2.02712432E-03 -1.25746506E-04  1.63681609E-04 -3.04055917E-03  4.52461638E-03
  3.79318831E-03  1.30202274E-02 -3.22037171E-02  4.15474647E-02 -1.11517336E-02
  9.55036473E-06  1.74989123E-01  2.09439995E-01  6.53921795E-04  2.78728107E-03
  4.52132167E-05  1.14245956E-04 -4.58567634E-03 -2.35840751E-02 -1.23113975E-02
 -4.30880740E-02  8.89887510E-02 -7.00001529E-02  2.29529601E-01 -2.45972529E-04
  5.37291023E-02 -5.14000509E-02  1.41630904E-04  8.70915795E-03 -1.22693583E-04
 -1.54252343E-04 -1.77998196E-01  9.70702036E-02 -7.73408028E-05 -2.39717975E-04
  5.50186044E-05 -2.83603614E-03  1.24914221E-03  8.43955436E-05 -1.37535017E-02
  1.89303813E-02 -1.80993837E-03  1.29682932E-03 -4.92439374E-04  3.20081478E-04
  4.58584703E-04  1.69595263E-03 -1.06913963E-03  1.88222168E-02 -7.35769463E-04
  5.86777300E-03 -1.03250694E-03  2.35801939E-04  6.53707063E-03 -3.09925644E-03
  2.03682069E-04  4.49506060E-04 -5.95259562E-03 -2.08246295E-02  8.81872137E-02
  3.42249264E-02  7.64561621E-02 -2.09436398E-06 -1.78335450E-02  1.20626484E-01
 -1.40014519E-04 -1.67663886E-02 -3.15919526E-05 -6.52741951E-05 -2.43143857E-02
 -9.25083082E-03  1.17379793E-02  4.19265397E-02 -2.02521572E-01  1.01036867E+00
 -6.73284262E-04 -2.11899643E-03  2.19730529E-02 -2.63740453E-02  8.80100613E-03
 -9.82256996E-05  9.57754219E-02 -4.86893053E-01  2.72679169E-04  2.18257987E-02
 -7.04042837E-05 -1.12433666E-04 -4.74376054E-03  8.97148816E-02  3.13009199E-04
  1.09809227E-03 -1.00187679E-02  6.39100759E-03 -9.38247761E-03 -3.34747458E-05
  2.43971461E-01 -1.04373432E-01 -2.66418365E-04 -2.57001238E-02 -2.24928683E-05
 -5.59580205E-05 -1.08204236E-02 -1.33944635E-02 -5.37831547E-06  1.74512795E-04
 -2.50574890E-03 -2.54694948E-03  1.54442578E-03 -1.06471442E-05  2.49797970E-01
  1.26996471E-01  4.07869807E-04  7.45821210E-03  9.59532107E-05  5.74824730E-05
 -1.84342807E-03  4.24474825E-03  3.71569005E-04  1.34099291E-03 -5.24428110E-03
  2.08231708E-03 -8.95656603E-03 -2.01471317E-05  3.46927021E-02  2.65592309E-01
 -1.78849666E-03 -4.55945994E-03 -3.62869536E-04 -1.10538814E-04  4.16785524E-03
 -3.37989899E-03 -1.07382982E-03 -3.69292318E-03  1.00817056E-02 -1.33055544E-02
  2.72310551E-03  1.40636711E-04 -1.86837939E-01  1.17293749E-01  1.19914092E-03
 -7.33156328E-03  2.25371971E-04 -2.16035844E-04 -1.91595574E-03  1.43478165E-02
  2.27368738E-03  8.16722376E-03 -3.09287022E-02  1.93105087E-02 -2.82298191E-02
 -1.09546190E-04 -2.16439384E-01 -1.08338342E-01 -4.95471813E-04  1.45334673E-02
  3.27362972E-05 -1.03126037E-04  4.04239470E-02  1.39088835E-02  2.62291655E-02
  9.31025403E-02 -2.09435718E-01  2.38150866E-01 -3.21671055E-01  5.09970713E-04
 -4.56201666E-03  2.27709912E-01 -1.12199235E-04 -3.36971404E-02 -1.22856036E-04
  2.85446143E-05 -8.00122632E-02  1.29657277E-01 -1.93774209E-04 -7.76795006E-04
  2.88727407E-03 -2.48821410E-03  6.76346687E-04 -3.81132058E-06  2.40305101E-02
 -4.07902995E-02  3.65636385E-03 -1.23664030E-03  6.94672006E-04 -1.12347824E-03
 -1.65537856E-03  1.47529195E-03 -1.07914912E-03 -4.67415617E-02  5.95642824E-03
 -9.94996110E-03  2.07926402E-03  2.45911093E-03 -3.88991439E-03  1.67217548E-03
 -2.81256937E-04 -9.21641813E-04 -6.27363579E-03 -2.22267557E-02  1.03297360E-01
 -7.65786096E-02  1.84311787E-01 -4.17192909E-04 -9.32871210E-03  1.22238970E-01
 -1.98483285E-04 -4.43354306E-03  2.55763295E-05 -2.30444459E-05  5.99909334E-03
  1.15704660E-02 -1.87647521E-02 -6.66861806E-02  3.22058175E-01  1.96437458E-01
  7.61522117E-01 -3.86695036E-06 -1.28226185E-05  1.55785829E-05  5.65769142E-06
  1.78776024E-05 -1.47292694E-01 -6.06823321E-04  2.10308999E-03  1.23562616E-02
  2.78211654E-04 -3.88397819E-02 -3.66212366E-02 -2.51828432E-05 -5.09784567E-06
  8.17008686E-07 -4.39473705E-06  5.62438689E-05  2.42593284E-05 -7.30055858E-05
 -7.20501475E-02 -6.60947005E-04  5.46832523E-04 -2.53831624E-02 -2.10430696E-04
  2.50777201E-02 -2.66437886E-02  1.08670446E-04  1.41075584E-05  5.63186350E-06
 -4.34127265E-07  6.86737279E-04  8.56964941E-05  1.29915483E-04  7.31051987E-02
 -4.62606518E-03  2.83508065E-03  9.31719361E-03  6.59561093E-04  1.56248331E-02
  9.58890323E-03 -5.44877593E-04 -3.55370719E-04  9.97198354E-05  3.32105962E-04
 -1.29850685E-03 -1.16273227E-03  1.46671677E-06  7.69828504E-02  1.24087959E-02
 -2.29292676E-03  1.83679973E-02  7.66052228E-04 -2.35252041E-02 -4.92059981E-03
  9.46163460E-04  1.23993713E-04  9.05318774E-06  1.30517377E-05  5.90380293E-04
  4.97907158E-05 -9.59645966E-05  4.42786779E-02 -6.83861737E-04 -4.93423777E-03
  1.29910726E-02  6.45673700E-04  1.75465621E-02 -7.00339648E-03 -5.78741376E-04
  2.86304105E-04  4.80986967E-06  1.03875302E-05 -7.03721800E-07  2.57906535E-05
  1.13005379E-04 -7.18407291E-02  3.45787466E-03  6.67228475E-04 -1.72428755E-02
 -2.33387547E-04  2.43084464E-02  7.75808490E-03  2.10354558E-04  3.76181053E-05
 -2.38954891E-05 -8.38211491E-05  1.65415769E-04 -2.69384014E-04  4.44219476E-04
  3.04542911E-01  4.06119732E-04 -3.64181496E-04 -9.93735228E-03 -2.54102477E-04
 -4.52694771E-02  1.41788236E-01 -1.10143162E-04 -1.31907265E-04 -7.25354679E-04
 -2.62026533E-03  5.97842473E-03  5.24596017E-03  1.34450653E-04 -8.20389004E-02
  3.30001816E-03  1.74180931E-04 -4.36093162E-02 -1.56529485E-03 -9.37584625E-03
  1.80931870E-05 -7.21215717E-04  7.30842642E-05 -4.02494431E-03 -1.34342395E-03
  3.29035267E-04  1.46553134E-03 -4.95734162E-03 -4.15262351E-03 -1.46067573E-03
  1.42443436E-04 -1.31235715E-03 -4.26699386E-03  1.00982165E-05  3.68181344E-05
 -2.07399054E-04  1.34766968E-04 -1.34189852E-04 -2.97769276E-01 -7.57895202E-05
 -5.95088500E-05 -9.56131535E-02  1.12892071E-04  1.56401716E-02  4.99742721E-03
 -3.17166018E-05 -2.70938960E-05  1.52800463E-06  3.50327283E-06  5.84997318E-05
 -1.88495882E-04  1.64829494E-04  8.64344848E-01  2.94626752E-03  1.01999450E-02
 -3.12803337E-02  3.09863649E-02 -3.43074761E-02  1.05889696E-04  6.01634801E-02
 -1.33169948E-01  5.18441889E-05  7.90617251E-03 -1.32458697E-05 -2.53556284E-05
  9.03341666E-03 -1.71951914E-02 -2.54566044E-03 -8.96244547E-03  3.47199870E-02
 -2.58310357E-02  2.48484432E-02 -3.38317949E-05  8.15785410E-02 -8.08070528E-02
 -9.94993355E-06 -3.67781464E-03 -3.70418722E-06 -1.66990590E-05 -5.67830460E-03
 -8.91855561E-03  8.66572303E-04  3.10586367E-03 -1.10524453E-02  1.23010880E-02
 -4.50716356E-03 -7.82959334E-05  1.01938150E-01  6.60177202E-02 -8.25876480E-05
 -4.60444617E-04 -4.62262924E-05 -4.79883488E-05 -6.74670024E-04 -7.69883156E-03
  4.75030699E-04  1.68952531E-03 -5.40459916E-03  4.26813409E-03  7.56351930E-04
  8.39114671E-05  1.99856151E-03  1.10058502E-01 -1.62259999E-04  1.15055847E-03
  3.20122027E-06 -4.32306566E-05  5.47504779E-04 -3.68174816E-03  4.39426214E-04
  1.38354686E-03 -1.87864507E-03 -2.83064798E-03 -1.63226812E-03 -3.10771534E-05
 -8.02618161E-02  7.23503797E-02  1.98137656E-04  5.56016125E-04  5.50870602E-05
 -6.00617169E-05 -2.00912196E-03 -1.21877647E-03  3.81469651E-03  1.29117086E-02
 -3.75757155E-02  1.79136093E-02  1.35878512E-02  3.72087788E-05 -8.81091133E-02
 -5.30444705E-02  3.16520872E-06  7.56902971E-03 -1.12922445E-05 -4.34957040E-05
  9.08964549E-03 -6.66202577E-03 -7.39138854E-03 -2.51188201E-02  4.48471437E-02
 -8.66268419E-03  1.58019924E-01 -6.38294749E-05  2.89316789E-02  4.22857348E-03
  5.03979497E-05 -6.53228587E-03 -1.27814079E-05 -6.94087112E-05 -7.39501808E-02
 -1.02092218E-03  6.44381177E-05  2.26309015E-04 -4.18480260E-04 -1.66087052E-03
  1.29304151E-03  3.55153047E-04  1.14461297E-03 -1.36547001E-02  3.12243177E-04
  2.52981011E-04 -5.07941110E-05 -2.37756502E-04 -6.52460774E-04 -6.11086976E-04
 -1.27145935E-03 -8.78811604E-03  3.95850686E-04 -2.48280735E-03  8.27572336E-04
  5.02593577E-04  6.89028067E-03 -4.82607304E-05 -1.85620913E-03 -5.98560361E-04
  4.60020979E-03  1.60202672E-02 -6.26602242E-02 -1.77439596E-02  9.18306338E-03
 -1.31009980E-04 -3.95030527E-02  2.87487416E-02 -1.06341969E-04  4.09607504E-03
 -1.42099734E-05 -9.35120806E-06 -7.98527072E-03 -6.56814997E-03 -7.41792720E-03
 -2.72284543E-02  1.15082682E-01  3.87476412E-01  7.20064653E-02 -7.82127713E-06
  1.77077486E-01 -3.40797640E-04 -8.16923395E-04  6.26851334E-03 -2.62259124E-02
  4.99098582E-03  3.92180896E-06 -6.64872771E-02 -5.09845334E-02 -1.68458453E-04
 -3.00335053E-03 -8.88097370E-06 -4.66880471E-05 -1.97371236E-02  3.41842035E-02
  6.08065373E-04  2.30996337E-03 -1.54199075E-02  3.40206578E-03 -1.87339392E-02
 -3.98670792E-05 -3.55765289E-02  9.49229489E-02  2.09346485E-04 -5.97496742E-03
  1.59208356E-06  2.48895467E-05 -1.11583176E-02  9.18565632E-03  2.80134878E-04
  7.50971510E-04  1.42212663E-03  1.28784174E-03 -7.87574303E-04 -2.35520747E-05
 -3.46195768E-02 -4.89814729E-02 -7.68006069E-04  5.83020184E-03 -1.18598024E-04
 -1.60024840E-04  2.99118609E-03  1.02607838E-02  2.16868662E-04  6.26819957E-04
 -4.97992428E-05  2.39686718E-03 -6.08600325E-03  1.51243530E-04 -4.16318956E-02
 -1.54340028E-02  1.73847333E-03  4.58708816E-03  1.36092762E-04 -1.97465628E-05
  1.40573348E-04  1.80633289E-03  4.23066138E-04  9.20080352E-04  1.49296682E-03
 -8.05684025E-03  1.47099892E-03  1.08061796E-04 -5.07318647E-03 -1.45466204E-02
 -7.77850164E-04  1.57410305E-04 -2.03982076E-04  2.20903062E-04  2.67536895E-04
  2.22408929E-03  1.08762509E-03  4.05331702E-03 -1.53628473E-02  1.05125267E-02
 -2.76614406E-03 -2.55970988E-05  1.28710911E-02  4.00785150E-02  3.43812430E-04
  5.25052740E-03  3.96721708E-05 -2.78826270E-06  7.56020906E-05 -8.47351362E-03
  1.93070962E-02  6.69270719E-02 -1.27021976E-01  1.27055023E-01 -1.68322749E-01
  1.86909900E-04 -5.01879040E-02  7.63004882E-02  5.64897781E-05  1.89752954E-02
 -4.20782072E-05  7.17377043E-05  2.65709541E-02  9.08801272E-02 -2.69492788E-05
 -9.06208360E-06 -8.48415142E-04 -1.71056422E-03  3.80470789E-04  3.18693050E-04
 -2.81600111E-02 -1.63029690E-03 -3.55193599E-03  2.11490822E-03 -1.04189590E-03
 -1.95710954E-04  2.00697628E-03  2.00588691E-03 -2.24545301E-03  2.55805110E-02
 -2.67446601E-03  6.01629467E-03 -8.13764907E-04 -9.98646784E-04  2.86084316E-02
 -5.01569299E-03 -5.28245971E-03 -5.90762088E-04  4.39516203E-04  1.89110221E-03
 -9.20195401E-03 -1.20806086E-01  1.22160709E-01 -2.08351771E-04 -2.88373004E-02
  5.08020379E-02 -9.24569054E-05 -4.97679725E-03  3.09617439E-05 -3.80627139E-05
  7.44295250E-03 -1.50252503E-03  8.18023842E-03  3.14048121E-02 -1.39796092E-01
  6.84443300E-02  3.32913771E-01 -6.89866998E-05  3.07972111E-03  1.93888960E-01
 -1.67773004E-06 -7.44044524E-06  1.51792805E-05 -1.43261195E-05  4.51455662E-06
 -7.56251553E-02 -2.72522505E-04  8.76230959E-04  5.96344924E-03  1.35232747E-04
 -1.74365500E-02 -1.49210536E-02  2.55734321E-06 -1.76466387E-05 -1.89235721E-06
 -1.17461502E-05  6.59864044E-05  1.53420452E-05 -3.68587303E-05 -3.10371043E-02
 -7.58577008E-05  1.54979031E-04 -1.14848739E-02 -1.35995828E-04  1.32232656E-02
 -1.26714453E-02  8.47447392E-05 -3.27191701E-06  5.70682772E-08 -1.04250626E-05
  4.03298053E-04  3.90806558E-05  9.04690206E-05  4.16188250E-02 -2.30095669E-03
  1.80531176E-03  5.43676426E-03  3.64802670E-04  7.56036461E-03  4.73272247E-03
 -3.08180987E-04 -1.99443683E-04  5.52469614E-05  1.84930412E-04 -7.36900647E-04
 -6.77713111E-04 -1.57551283E-05  4.08090340E-02  7.05295537E-03 -9.24897628E-04
  1.06217183E-02  4.05193895E-04 -1.29205016E-02 -2.48027453E-03  5.22985890E-04
  6.38229788E-05  2.90621058E-06 -9.99887237E-07  3.56436502E-04 -2.21066385E-05
 -5.21025793E-05  2.60141134E-02 -7.27995146E-04 -2.65593451E-03  6.18417747E-03
  3.59161855E-04  8.87714346E-03 -3.75460948E-03 -3.16096642E-04  1.63303958E-04
 -5.82402685E-06 -2.42369764E-05  9.42423113E-05  3.72835437E-05  1.05583799E-04
 -3.53392155E-02  1.58226550E-03  3.02598567E-04 -8.94225719E-03 -1.50552592E-04
  1.23366544E-02  5.21979900E-03  1.26033314E-04  2.02854756E-05 -2.21588171E-05
 -7.72873118E-05  1.47676000E-04 -1.52141245E-04  3.06442330E-04  1.33974241E-01
  2.34718009E-04 -1.81854339E-04 -6.80062144E-03 -1.18712794E-04 -2.23020803E-02
  5.55376180E-02 -5.47787956E-05 -8.61630378E-05 -4.07027072E-04 -1.46944069E-03
  3.35090377E-03  2.87659409E-03  1.10897901E-04 -4.61047250E-02  1.96890991E-03
  8.10990632E-05 -2.45466725E-02 -9.25423718E-04 -4.94811815E-03  1.16250430E-05
 -3.54211330E-04  3.93543681E-05 -2.25687110E-03 -8.08183187E-04  1.31783174E-04
  7.51184932E-04 -2.61759410E-03 -2.28025795E-03 -8.45150975E-04  4.70771300E-05
 -6.88727794E-04 -2.31576089E-03  4.47001351E-06  1.55068703E-05 -7.72411018E-05
  3.26114388E-05 -7.60027053E-05 -9.56059847E-02 -5.47954099E-05 -2.09092590E-05
 -2.74089707E-02  4.16092894E-05  7.46538138E-03  3.50957861E-03 -2.20514764E-05
 -1.50796309E-05 -2.25602517E-06 -1.19766656E-05  9.91400195E-05 -3.97746263E-05
 -6.40988513E-05  3.59542525E-01  2.16613971E-05 -1.13531778E-04  1.50892149E-01
 -9.29162281E-04 -2.86769561E-03  7.18516487E-03  6.74705436E-03  9.71447003E-04
  3.94671568E-05 -1.26376039E-02  9.20385239E-02  9.83564388E-06 -5.66814640E-04
  7.81776159E-06  1.76942656E-05 -9.57704329E-03  2.74157389E-05 -1.23272990E-04
 -4.41201341E-04 -1.20634630E-03 -1.42584172E-03  9.79662823E-04  1.01274828E-05
 -6.74977461E-02  7.24947236E-02 -3.53043602E-05  4.20724223E-04 -7.17941787E-06
  2.49641601E-05  3.16198339E-04  2.25292481E-03 -9.51238076E-06 -1.06383486E-04
  9.19556699E-04  1.07397316E-03 -7.09709510E-04 -2.36561285E-05 -6.61334486E-02
 -5.21677376E-02  6.48790553E-05 -3.52841263E-04  3.31178814E-05  2.78802088E-05
  1.72202010E-03  2.20516855E-03 -1.03371250E-04 -3.59253831E-04  1.02474645E-03
  5.66118420E-04  1.62723795E-04 -1.61512371E-05 -2.16693217E-03 -7.70394430E-02
  3.21098335E-05  1.01150540E-04 -9.04536262E-06  2.12550349E-05  3.56749526E-04
  1.69747090E-03 -3.19047109E-05 -1.53547556E-04  2.05021743E-04  1.21310444E-03
  1.60621287E-04 -8.22687732E-06  6.30908421E-02 -4.92038423E-02 -1.53286834E-04
 -2.03938374E-04 -4.16008827E-05  4.63702480E-05 -4.99903306E-05  1.03980865E-03
 -5.37126549E-04 -1.77705179E-03  5.12816412E-03 -2.19257557E-03 -6.19909049E-03
 -2.04765695E-06  7.60806262E-02  6.16413774E-02  8.40693640E-05 -3.16034277E-03
 -4.40803400E-06  3.38771203E-05 -6.07444924E-03 -1.02906113E-03  4.29638340E-03
  1.46605213E-02 -2.73901810E-02  8.96056349E-03 -3.66230387E-02  3.14919296E-05
 -7.28400196E-03 -9.10981197E-03  1.47513368E-05  2.56742695E-03 -4.34300621E-07
 -1.80087935E-05  7.33558092E-03  2.10483050E-02 -4.72779755E-05 -1.51270607E-04
  1.65629490E-04 -6.95949200E-04 -2.39760526E-04  1.85898230E-05 -1.37351724E-03
  9.29091149E-03 -1.01140071E-04 -7.29147234E-05 -6.88275493E-05  1.55191746E-04
  1.63222661E-04  5.85734966E-04  1.76386551E-04  5.19518831E-03  5.67522677E-05
  1.75183782E-03 -4.46473579E-04 -4.06711337E-04 -3.68003167E-03 -2.76516553E-04
  1.19796925E-03  4.35199119E-04 -4.09035594E-03 -1.41159892E-02  5.76391064E-02
 -1.67621035E-02  4.41422496E-03  1.18783464E-04  4.09542334E-03  4.96138077E-03
  3.92789840E-05 -3.51759027E-03  8.46106763E-06  3.12790630E-07  7.00795547E-04
 -7.65543121E-04  5.38894108E-03  1.90398740E-02 -7.80951973E-02 -1.06427310E-02
  2.99525049E-02 -1.84858449E-04 -1.62270863E-02  2.62452871E-02 -8.98521604E-05
  7.95041647E-03 -2.07540943E-06 -7.60232959E-06  2.48654921E-05 -5.57012805E-05
 -1.50112306E-05 -3.20245348E-03  3.33371044E-06 -1.28362051E-04  8.53451874E-04
  1.66067181E-06 -3.20664036E-03 -2.28938398E-04  1.16326311E-05  5.82235014E-08
 -9.13672730E-07 -3.20987737E-06  1.30904291E-05  8.61669048E-06 -3.84638663E-06
 -3.77380128E-03  1.49984795E-04 -1.13257239E-04 -9.35256144E-04 -3.52152459E-06
  8.68254631E-04 -4.05126573E-04  6.40049896E-06 -8.89508922E-06 -1.68312878E-07
 -1.23905141E-06  1.83939031E-05 -1.17039623E-05  2.48476010E-06  7.98169876E-04
  7.96372760E-05  1.44981918E-04  4.11025372E-04  7.89616881E-06  7.10531318E-04
  3.42331603E-04 -4.03611879E-06 -1.68755171E-06  1.25987926E-06  3.76350597E-06
 -1.20156443E-05  8.56768168E-06 -7.29269293E-06  2.53964093E-03  2.30107025E-04
  1.09940323E-04  1.68895196E-04  1.85344508E-05 -6.13831007E-04  3.38968932E-05
  3.39401508E-05  3.67360865E-06  1.92211753E-06  5.44879113E-06  1.72907017E-06
 -2.20889118E-05  4.44843885E-06  1.14344209E-03 -1.01809566E-04  2.66971600E-05
  5.34499441E-04  8.45009961E-06  6.49965135E-04 -3.16506132E-04 -8.13162278E-07
 -8.87406003E-06 -1.16153257E-06 -3.96672450E-06  9.85781894E-06  1.00847914E-05
  4.23208783E-05 -3.17888931E-03 -5.92300353E-05 -1.34350712E-04 -7.76722456E-04
  1.33582733E-06  9.41675285E-04  2.53944605E-04  1.39375129E-05  3.14886384E-06
 -3.62279982E-06 -1.23495458E-05  1.92854873E-05  2.81547570E-05  4.82449877E-05
  2.86620957E-02  2.30375709E-05  1.36082696E-05  1.17857917E-03 -2.60504050E-05
 -2.09494826E-03  1.18220119E-03  1.79857776E-05 -5.18623542E-05 -1.23072295E-05
 -4.41437762E-05  1.00045524E-04  8.69600675E-05  2.42062454E-05 -1.46252151E-03
  4.85707167E-05 -3.83204381E-06 -6.97974560E-04 -1.13739933E-05 -3.37652398E-04
  1.11047126E-06 -3.43016683E-05  2.60275825E-06 -1.09392016E-04 -6.54492573E-05
  2.78966466E-05  3.47446830E-05 -1.20946519E-04 -8.64971661E-05 -5.43504521E-05
  2.77585911E-05 -3.78435037E-05 -1.22220240E-04  4.08733592E-06  1.42933056E-05
 -5.59489882E-05 -3.55133865E-05 -3.31272576E-05  1.56498703E-02 -2.44402030E-05
 -2.69600380E-05  7.47130630E-03  6.25468356E-06  1.58814530E-03  2.21689106E-03
  6.63528129E-07  7.40352200E-07 -1.33534154E-05 -4.76480111E-05  2.10059089E-04
 -1.71857571E-04 -3.77647850E-05  2.53561797E-02 -4.01481419E-05 -4.07558526E-05
  1.12671955E-02 -1.20004943E-05  1.67261830E-03  3.53939689E-06  1.26188477E-05
 -3.72136430E-05 -9.27508460E-06 -4.55364847E-06 -7.23398371E-03 -9.17253345E-05
 -2.55069176E-05 -1.12681594E-03  6.44518385E-06  4.82500569E-03  1.36564028E-03
  1.52795334E-06 -2.23630874E-06  3.74385647E-06  1.42372927E-05 -5.33724133E-05
 -1.25523284E-05 -7.05661131E-06  1.57670087E-03  2.74735696E-05 -1.06425237E-05
  1.23184397E-04 -6.30450253E-07  2.71291636E-05 -5.87215522E-04  3.28406026E-06
  8.87272011E-06  1.93301538E-06  6.73670358E-06 -1.16448821E-06  2.53529174E-05
  6.55641875E-06  2.45738805E-03 -1.09734180E-04  1.41834575E-04  3.32199813E-05
  3.58226040E-05 -7.63036450E-05 -3.87358689E-05 -3.32292142E-05 -2.36118511E-05
  7.69216806E-06  2.65230547E-05 -9.48654318E-05 -8.84345013E-05 -1.59221041E-06
  1.20530807E-03  3.36217902E-04  5.23809413E-05  1.09193415E-03  3.17789365E-05
 -4.61586459E-04  1.35438496E-04  4.24844069E-06 -1.55996320E-06  2.61424786E-06
  8.55248478E-06 -3.18764677E-06  1.26995028E-05 -1.01768394E-05  3.14374524E-03
 -2.08796728E-04 -1.03072315E-04 -1.75905070E-04  3.73167332E-05 -9.51377439E-05
 -6.55832932E-05 -2.90407494E-05  2.35654775E-05  1.69494572E-06  6.32098765E-06
 -2.17115164E-05 -7.94742560E-06  2.32138275E-05  1.13030990E-03 -7.76041899E-05
  1.42908291E-06 -2.64036771E-04 -6.13181407E-06 -1.14999264E-06  1.31550855E-03
 -6.69197956E-06 -1.16508940E-05  8.81766266E-06  2.96935445E-05 -4.71342982E-05
  1.40881685E-06 -2.73311440E-05 -4.81429953E-02 -5.59575167E-05 -9.42566884E-06
 -4.37204403E-03  5.01727439E-05  1.03941690E-03 -5.50169474E-03  3.47677803E-05
 -4.10987724E-06 -2.50862954E-05 -9.19088827E-05  2.15197519E-04  2.12737352E-04
  8.17178522E-06 -2.82986592E-03  8.68513909E-05  2.30400827E-06 -1.73496755E-03
 -7.60061237E-05 -4.73026681E-05  2.83892400E-07  1.13897563E-05 -1.09026857E-06
 -1.06197011E-04  6.41060213E-05 -4.08725788E-05  3.97130321E-05 -8.09060172E-05
 -9.45884145E-05  6.49553863E-05 -3.48986797E-05 -4.35993040E-05 -1.04348084E-04
  5.75355897E-06  2.14238840E-05 -1.01525363E-04  1.60210792E-05 -3.04105409E-05
 -4.98258174E-03  6.40316630E-06 -4.33853274E-05 -3.50145816E-03  3.18230580E-06
 -2.21176135E-03 -2.95336672E-03  1.39630587E-05 -9.55049140E-06  1.00841409E-05
  3.63643547E-05 -1.66978442E-04 -4.15921399E-05 -8.51058206E-05 -5.00846438E-02
 -3.13301349E-05 -4.32951423E-06 -2.11630618E-02  9.59907382E-06 -2.59264408E-03
  4.70221181E-03  2.53081240E-04  7.45174536E-04  1.42965627E-04 -1.27347120E-02
  2.18871923E-03  8.80007444E-06 -2.71773131E-02  2.45268186E-02 -8.93797906E-05
 -2.29504949E-03  2.53400059E-06 -7.56582506E-06 -4.27589910E-03 -8.60058031E-04
  1.93517594E-04  7.37746793E-04 -4.29011278E-03  4.59908062E-03 -5.80685671E-03
  3.74991391E-06 -3.04129831E-02  3.38498614E-02  1.21025696E-04  2.90295653E-04
  7.95017049E-06  1.33809518E-05 -8.75236565E-04  3.26296523E-03 -1.81279844E-04
 -7.45613468E-04  4.00571396E-03 -2.32528416E-03  4.84906646E-04  6.32209277E-06
 -2.79163553E-02 -2.08059417E-02 -3.55504544E-04  1.02781153E-03 -6.79777420E-05
 -7.73345152E-05  1.00439616E-03  2.48592038E-03 -1.89874623E-05 -1.44841819E-04
  1.71523635E-03 -1.17429002E-03  1.29380868E-04  2.84505532E-05 -1.81450042E-02
 -1.92431842E-02  8.64922448E-04  2.35059866E-03  1.01698330E-04 -1.53448182E-06
 -1.58743895E-03  2.00350617E-03  5.91303186E-04  1.95965250E-03 -4.88313048E-03
  5.13493773E-03 -2.68705171E-04  1.08423107E-06  7.39889883E-03 -6.54107295E-03
 -4.06564841E-04  1.45347661E-03 -8.76707559E-05  1.00495753E-04 -1.44391980E-03
 -1.01349068E-03  1.04017886E-03  3.37546356E-03 -9.03909714E-03 -4.90049211E-03
  5.75039845E-03  2.91231062E-06  1.53209518E-02  1.57548399E-02  1.76458545E-04
  8.68022909E-04  1.24226884E-05  5.58800424E-06 -3.84150879E-03 -4.19376199E-03
  4.96184764E-03  1.69526599E-02 -2.96816881E-02  4.03251642E-02 -6.90965320E-03
  1.68409697E-05 -1.71545799E-02 -1.45690548E-05  3.25547523E-05  8.68835056E-03
 -5.93392030E-06  2.00109830E-05  1.01454311E-02  1.27786296E-02  1.08008468E-04
  4.09223361E-04 -1.22687699E-03  8.86178067E-04 -2.31186422E-05  2.02636170E-05
 -1.29068133E-02  1.62289886E-03 -1.75906401E-03  8.85047083E-04 -4.43172164E-04
 -1.80629945E-05  9.76950415E-04  2.93815739E-04 -4.21235192E-04  1.37862802E-02
 -1.54544462E-03  2.88564384E-03 -4.80543650E-04 -6.29736986E-04  1.20979272E-02
 -1.91838942E-03 -2.41040706E-03 -2.10011829E-04  1.10048712E-03  4.06473604E-03
 -1.73547547E-02 -2.43267384E-02 -6.06215823E-03 -2.41483782E-05 -7.99842684E-03
 -7.46068703E-03 -1.32421354E-05  7.02125263E-04  6.65969406E-06 -4.14087680E-06
  4.26451880E-03 -3.32499010E-03  4.03248179E-03  1.44869489E-02 -6.19869342E-02
  2.39340159E-02  4.71789116E-02 -7.97132429E-06  5.16665128E-03  3.36387093E-02
 -1.76194391E-05  4.76091331E-03 -9.47810213E-06  4.44331072E-06  8.56395878E-03
  1.38061091E-03  4.68556784E-03 -1.24828190E-02  1.75816528E-02  2.26531168E-03
 -5.47410818E-05 -1.88329699E-02 -2.56360248E-02 -6.69396298E-05  3.56687525E-03
 -7.51291718E-06 -3.80839289E-06 -1.82784085E-02  9.28960565E-03  4.88184515E-04
  1.79543496E-03 -7.22088480E-03 -2.45666865E-03 -8.37628173E-04  1.05533183E-06
  1.90935795E-02  4.17677557E-03  1.26034235E-04  1.21938126E-04  2.20485483E-05
 -3.23824041E-06 -5.69880565E-03  7.20058073E-03  5.28470700E-04  1.83760483E-03
 -5.40094442E-03  3.45475182E-03 -9.40683777E-04  3.88752154E-05  9.75786261E-03
 -2.95299813E-03 -3.13160440E-04  1.43624064E-03 -3.75095529E-05 -7.72308685E-05
  3.38474204E-04  2.07983539E-03  3.91642639E-04  1.39748938E-03 -3.99912424E-03
  8.32787294E-04 -5.75999363E-04 -5.97418493E-05 -1.48275660E-02  1.20654912E-02
  5.97745931E-04  3.36764487E-03  9.71132417E-06 -4.94368890E-06  1.27598848E-03
  2.72632574E-04  8.36997074E-04  2.85045894E-03 -8.67900005E-03  3.98152281E-03
  8.24434649E-04  3.96644903E-05 -1.03130550E-02  1.53212029E-02 -2.61509728E-04
  3.99378541E-04 -3.97461958E-05  7.52930856E-05  1.09052438E-03 -1.36322119E-03
 -4.89247348E-04 -1.59925829E-03  4.28807689E-03 -9.08590590E-03  8.86139928E-04
  9.88943455E-06 -6.81150261E-03 -1.90102750E-02  8.33376448E-05  1.42726220E-03
  2.15604921E-05 -4.01558637E-06 -4.52686831E-03 -6.73646273E-03  7.38121926E-03
  2.50920306E-02 -4.67809888E-02 -8.16578327E-03 -4.84337799E-02  1.80836724E-05
 -1.20155602E-02  1.72145783E-02 -1.15894240E-06  4.13734251E-03 -1.27880214E-05
  1.42541136E-05  4.30652897E-03  6.29978855E-03  1.59655621E-04  5.79143996E-04
 -1.43219270E-03  2.18837847E-03  8.13045220E-05 -2.55385557E-04 -7.25902807E-03
 -1.91367786E-03 -1.34565438E-03  8.04118589E-04 -3.09138344E-04 -5.90789302E-05
 -7.00130816E-04  1.08121676E-04 -3.17408402E-04  7.75951666E-03 -6.67616586E-04
  1.74631128E-03 -1.35570812E-04 -1.83253045E-04  9.36397075E-03 -7.73562005E-04
 -2.23327065E-03 -2.39177093E-04  7.99591933E-04  2.75503831E-03 -1.08508345E-02
  9.17857831E-03  1.15993962E-02  2.92508029E-05  6.55448499E-03 -1.50999356E-03
  2.36947418E-05  7.63069955E-04  1.69265568E-06 -2.48092296E-06  3.33997526E-03
 -1.09807258E-03  9.45428943E-04  2.98621703E-03 -5.36215706E-03 -4.49627259E-02
  4.08247403E-02  2.72471035E-05 -2.33516957E-02  2.57461929E-02 -3.65973005E-06
  5.30827130E-03  5.71534563E-07  6.38124692E-06  3.45294324E-03  9.99698255E-03
  2.08246524E-03  7.92700002E-03 -4.26803396E-02 -1.97993443E-02  4.65557230E-02
  2.39295680E-04 -5.00122317E-02 -4.02482060E-02  3.16773287E-04 -1.50135286E-02
  3.75939218E-05 -9.99159381E-05 -7.37998194E-02  1.12503823E-02 -1.90534207E-02
 -6.64530704E-02  2.18003607E-01 -1.55451082E-01 -2.71638834E-01  5.21583995E-04
  6.75111883E-02  1.06995883E-01 -5.17319630E-04 -2.47556622E-02 -1.55870716E-04
 -5.87906429E-05 -3.19076880E-02  7.27630114E-02  2.44036522E-03  9.26572644E-03
 -4.74695083E-02  3.61794628E-02  1.88405175E-02 -2.06450124E-04  6.29098199E-03
 -8.91328614E-02  1.12561750E-03 -1.77390281E-02  1.42194304E-04  2.10956237E-04
  2.17766981E-02  6.82629719E-02 -3.00737446E-03 -1.05617895E-02  3.73500091E-02
 -2.12252042E-02 -3.06954474E-02  6.29297565E-05  1.52774962E-02  1.53886582E-02
 -2.36899331E-03  2.53544932E-03 -1.17401356E-04 -2.30420871E-04  9.22792031E-03
 -3.14050790E-03 -1.33432281E-03 -4.84478696E-03  1.67202677E-02 -7.33039282E-03
 -5.55546922E-03 -1.82147843E-04  1.23484875E-02  3.19980128E-03  1.15655689E-03
 -1.13109346E-02  1.19244445E-04 -2.58173908E-04  4.42152099E-03 -1.24060631E-02
 -2.25504512E-03 -7.82295290E-03  2.45017520E-02 -6.94782852E-03 -2.87216110E-02
 -1.44036519E-04  3.29728293E-02 -5.53252639E-03 -4.06704399E-04  2.21313515E-03
 -1.51688123E-04  2.97569974E-05  4.60273625E-03 -9.44785982E-03  7.83925806E-04
  2.91911297E-03 -7.97158671E-03 -2.25028403E-02  9.09217696E-03  2.59717042E-05
 -3.29771366E-03  1.84062184E-02 -3.87703890E-05  4.62113610E-04  4.20553506E-05
 -5.70228599E-06  2.54149395E-03  6.11723090E-03  4.89618420E-04  1.64965957E-03
 -3.10090408E-03  7.73788818E-03  3.95301263E-04 -1.16181333E-04  3.21769501E-02
 -9.03796637E-04  4.91673549E-03 -5.46835743E-03  1.06655079E-03  4.42661823E-04
  3.84898421E-04  6.41351308E-03 -1.01533168E-03 -3.40254333E-02  7.72524047E-03
 -3.89086759E-03  1.08662310E-03  5.65174394E-03 -3.31200785E-02  4.86457140E-03
  9.11380318E-03  6.96237353E-04  8.64004678E-05  2.52135797E-04 -1.38125760E-03
 -7.51468420E-03  1.27256107E-02 -8.90565405E-05  4.69739115E-04  8.27581203E-03
 -3.17456760E-05 -1.27047113E-03  2.35884627E-06  2.77915601E-06  5.62637317E-04
 -3.07766822E-03 -1.15075409E-03 -4.28336499E-03  1.97127973E-02  8.13853408E-03
  1.68689317E-03 -8.23346658E-05  3.67457500E-03 -8.31254998E-04 -2.57386319E-05
 -6.15645338E-05 -4.16790949E-06 -1.09650833E-05 -1.08525448E-03 -1.27720935E-03
  2.14880227E-01  2.29147455E-03  6.91483867E-03 -1.53066485E-02 -3.07035212E-02
 -3.42436126E-02 -1.32006666E-03 -3.65512109E-02  6.03703877E-01 -4.02626745E-05
 -5.18868943E-03 -1.12726093E-06 -1.09035570E-04 -2.97135128E-02 -5.64975990E-02
 -1.83050095E-02 -6.47637133E-02  2.19737500E-01 -1.04540639E-01 -1.64423221E-01
  1.04627960E-03 -3.65967593E-01  5.02606756E-01  1.05508660E-04  8.87079546E-03
  4.51032064E-04  3.80187513E-05 -3.08250193E-03  3.53322378E-02  1.05773484E-02
  3.61198555E-02 -1.12381301E-01 -5.49254127E-02  3.94246003E-03  1.76137212E-03
 -3.02826923E-01 -3.49862577E-01 -8.83374968E-04  1.34610885E-03 -3.03227455E-05
 -4.20216881E-04  5.36749791E-02  3.30282036E-02  1.02550247E-02  3.97502287E-02
 -1.37625162E-01  3.01537171E-02 -2.60377323E-02 -6.69788511E-04 -5.80253663E-02
 -3.88170233E-01  2.94196540E-03  4.52990136E-02 -1.01070968E-03 -3.16225929E-04
  3.18880555E-02  2.65662409E-02  1.19978661E-02  4.55874863E-02 -1.57200134E-01
  1.89290272E-02  4.12491875E-02  8.33854210E-04  4.39285386E-01 -2.20186563E-01
 -2.13908606E-03  2.76725210E-02 -2.07355180E-04  6.91232891E-04 -9.91938145E-03
  2.38450757E-02  8.96226275E-03  3.48745246E-02 -1.20625172E-01 -4.10514146E-02
 -1.06134033E-02 -3.83338989E-04  4.65479757E-01  3.82436415E-01  9.14079797E-04
  2.24960737E-02  3.33297265E-04  2.26202203E-04 -4.87339079E-02  1.80382761E-03
 -8.50226045E-04 -2.08400197E-03 -3.40889912E-03 -1.25823586E-02 -3.18082619E-02
 -5.01585738E-04  1.37008106E-03 -1.17311927E-01 -3.77178774E-04 -7.37426108E-03
 -3.62397585E-04 -4.86515945E-05 -1.27604476E-02  7.16287518E-02  4.09449784E-03
  1.40556107E-02 -2.56603595E-02  3.03947716E-02 -5.27551237E-03 -5.13139507E-03
  1.32906899E-03  4.08234064E-02 -6.69299266E-03  9.36871133E-03 -9.63643014E-04
  8.43449487E-04 -2.05028470E-02  8.86883124E-03 -4.17158150E-03  5.28394036E-02
  5.65814693E-03  1.16636986E-02 -2.20590022E-03 -6.78116626E-03  6.41887610E-03
  3.69137601E-04  5.54972134E-03  2.31455483E-03 -2.78565772E-02 -9.67879047E-02
  3.97155618E-01 -9.73371157E-02 -1.47981337E-02  1.35419829E-03  1.14269873E-02
  3.35531550E-02  6.14046543E-04 -2.34628492E-02  7.93312400E-05 -1.94005549E-05
 -9.08142301E-03 -6.94124276E-03  1.69187522E-02  6.30489794E-02 -2.94929715E-01
  5.86585343E-02 -1.37606088E-02  4.53805173E-04 -1.31945806E-02  2.78357318E-02
  2.86741175E-04  2.01924394E-02 -1.42447829E-05  3.35950587E-05  8.32300429E-03
 -7.07681278E-04  1.42255482E-01  3.16326705E-01  8.05930772E-03  2.72078801E-02
 -7.98962405E-02 -2.80221479E-02  1.00716243E-02 -1.24419477E-04  4.18779190E-02
  4.93943365E-01  1.39304708E-04  1.13929034E-02  1.72215468E-05  1.41699318E-05
  1.33470869E-02 -3.88806580E-02 -5.29720231E-03 -1.80916691E-02  5.31022594E-02
  6.77259995E-02 -5.59754929E-02  2.45832331E-04 -3.52792459E-01  3.30840018E-01
 -3.07726764E-04  9.18233967E-03  2.36549729E-05  1.32173200E-04  4.21170666E-02
  1.25343696E-02 -3.54584083E-03 -1.21274358E-02  3.56064122E-02 -7.96058286E-02
  1.94586752E-02  2.66986916E-04 -2.83277548E-01 -2.28588019E-01  5.58749380E-04
 -5.05021578E-03  1.78359730E-04  1.85088820E-04  2.10055200E-02  1.90693912E-02
  1.09556122E-03  4.15831500E-03 -1.64646352E-02  2.17923224E-03 -4.28952820E-03
 -7.65165108E-05 -2.15363383E-03 -3.32450778E-01 -2.80059014E-04 -7.95997822E-04
 -9.36623464E-05 -1.00026495E-04  1.42640630E-02  2.32141095E-02  2.20181754E-03
  8.62675352E-03 -3.27904722E-02  6.42722792E-03  9.21097958E-03 -1.22881662E-05
  3.15783667E-01 -2.10975759E-01 -4.10388442E-04  7.14615848E-03 -5.14468099E-05
  6.46765688E-05 -1.31231510E-02  4.67704150E-03  4.13244599E-03  1.48214837E-02
 -3.99460688E-02 -7.92721012E-04  1.82955198E-02 -1.47680408E-04  3.41393449E-01
  3.25590917E-01  3.17134440E-04  1.12203793E-03 -7.27750598E-06  1.25809551E-04
 -8.73969396E-03 -3.17117374E-03  9.42500181E-04  3.14901628E-03 -1.07833666E-02
 -2.98642660E-03 -3.03540350E-02  4.28221112E-05  3.36116444E-03 -9.30408529E-02
 -3.55270791E-05 -1.23947394E-02 -4.95974034E-05  1.58704776E-05 -2.64307019E-02
  6.55054757E-02 -8.19581387E-04 -2.86917021E-03  6.65851569E-03  2.22661561E-03
  5.84199498E-04  2.95895458E-04  1.08096838E-02  3.67358230E-02  9.94989485E-04
  7.13741827E-04  5.85956570E-04  6.58304705E-04 -1.87068374E-03  4.20820381E-03
  2.54395416E-03  1.22334751E-02  2.24507387E-03  4.39507519E-03 -2.02591768E-03
  1.51614566E-03 -2.63173308E-02 -7.05835446E-04  7.02994101E-03  1.91825821E-03
 -2.55986394E-02 -9.09469747E-02  3.93667995E-01 -8.19678294E-02 -3.25248283E-02
  1.13410167E-04  9.55281376E-03  2.64878990E-02  7.97666232E-06 -1.89054629E-02
  4.08486321E-05 -8.23599636E-06 -9.97419093E-03 -2.47207504E-03  1.30566750E-02
  4.62418361E-02 -1.95134892E-01  3.63139313E-02  8.41359451E-03  6.33393515E-05
 -1.82399902E-02  2.44518899E-02  2.58568190E-05  1.70862535E-02 -2.33553673E-05
 -5.84120153E-06  6.11122112E-03 -8.00137581E-04  2.13230721E-02  1.33383407E-01
  1.12466990E-01 -6.04034255E-03 -2.07717707E-02  5.88351820E-02  3.71366202E-02
 -6.08036616E-02 -1.14144263E-04 -6.96629438E-03 -5.53156696E-02  2.16422149E-04
 -1.14187680E-02 -5.14236323E-06 -1.35988211E-05 -2.98054736E-02 -1.23070325E-02
 -1.07883058E-02 -3.83667109E-02  1.26918413E-01 -3.98763221E-02  2.26594924E-02
  8.47712841E-05  9.67333911E-02 -1.63154727E-02 -3.33064226E-04 -1.61357845E-02
  2.19633568E-05 -6.65933901E-05 -1.34327865E-02 -7.19515971E-03  8.94227737E-04
  2.72243961E-03 -1.15089946E-02 -2.15692926E-02 -1.54578110E-02  2.22490338E-04
  7.33607264E-02  4.82541960E-02  6.77655985E-04 -7.57423284E-03  1.05311226E-04
  9.17274210E-05  2.04499093E-02 -2.56779057E-03  2.16731021E-03  8.36947005E-03
 -3.16420535E-02  1.28454294E-02  1.00659960E-02 -1.02232791E-04  3.33550045E-02
  7.32393979E-02 -1.82611171E-03  2.38851763E-03 -4.71671161E-04 -3.28724567E-05
  1.17729713E-02  6.42373343E-04  1.23411766E-03  4.98930587E-03 -1.88808368E-02
  1.53334393E-03  3.73167122E-03  1.09426107E-04 -2.23259183E-02  4.44759140E-02
  8.70620757E-04  1.36363453E-03  2.03816396E-04 -1.55220881E-04  5.17015513E-03
 -1.25448828E-03  2.17383409E-04  1.60267612E-03 -1.52199534E-02 -2.28669001E-03
 -1.87181057E-04  4.40686532E-05 -8.62263855E-03 -3.93274617E-02 -3.18395472E-04
 -8.84416237E-04 -1.36566885E-05  3.63378226E-05 -1.42436941E-02 -2.72020816E-03
  2.61693153E-04  1.13207475E-03 -4.68415352E-03 -1.81075892E-02  3.28793251E-03
 -5.98207577E-05  1.32528485E-02  4.70115544E-03 -1.04807409E-04 -4.05554433E-03
 -3.46043889E-05 -2.47694436E-05  7.23570733E-03 -1.57169629E-02  2.97102056E-04
  9.40937479E-04 -6.61239387E-04 -5.04915470E-04 -2.53145153E-03 -5.54937592E-04
  3.10523747E-02 -1.11117643E-02  3.58895722E-03 -1.12648965E-03  8.08138487E-04
 -3.24797340E-04 -5.22290756E-03 -1.27411023E-03  1.35036667E-03 -3.35796148E-02
  5.20134934E-03 -8.04831147E-03  1.44633353E-03 -1.79644119E-03 -2.29084679E-02
  4.48926451E-03  4.66526525E-03  4.86522182E-04  3.53959794E-03  1.23180405E-02
 -5.10134447E-02 -7.42129982E-03  2.07721052E-02  1.62965808E-04 -1.23445934E-02
  6.52010720E-03  9.03974460E-05  3.40254777E-03  3.02249801E-06  7.41853840E-06
 -1.64263217E-03 -4.29514101E-04 -3.76300032E-03 -1.30538353E-02  5.45858519E-02
  5.11822294E-03  6.40554367E-03 -3.71392870E-06  1.02511531E-02 -3.54279576E-03
  1.74242476E-05 -2.15077660E-03  7.23651808E-06 -4.65302102E-06 -2.33751776E-03
 -4.69165055E-04  2.77122573E-02  2.08947973E-02 -1.20504694E-02  2.67652935E-02
 -3.30217234E-05 -1.15686713E-04  3.37160689E-04  1.88013672E-04 -4.80260171E-05
  2.48360919E-02  4.12115625E-04  2.23730484E-04  1.14445797E-03 -3.36748531E-05
  1.50099210E-03 -6.34387916E-03 -1.58503238E-05 -4.79174088E-07 -2.01449113E-05
 -7.25226970E-05  1.93233623E-04  1.87012845E-04  3.83560978E-04  4.82611987E-02
  1.47894096E-04  4.66544795E-05  8.96264494E-03 -1.51095400E-04  4.09679595E-03
  2.31407002E-03  1.00793712E-04 -1.04489217E-04 -4.30970502E-05 -1.50360166E-04
  4.77778328E-04 -4.40872317E-05  1.00125690E-04  4.29585039E-02 -5.39743847E-05
  2.51716701E-04  6.64254863E-03 -7.12072728E-05 -5.01154870E-03  4.75345810E-04
  3.29844054E-05 -4.71696310E-05 -9.35796808E-06 -3.23817195E-05  1.44896491E-05
  6.19663061E-05 -1.28750914E-04  1.14254525E-02  1.25951422E-03 -2.32634050E-05
  2.41036705E-03 -1.78301580E-05 -2.78018280E-03 -6.69919565E-03  4.09984316E-05
  2.25422918E-04 -1.01831040E-05 -4.24332685E-05  1.61436531E-04 -2.41642855E-04
  1.56763561E-04 -9.40120481E-03 -2.13569442E-05 -5.98911117E-04 -1.91477847E-03
 -4.74761640E-05  1.88109034E-03 -9.42109731E-04 -1.45612631E-05  3.95286760E-05
 -3.39715917E-05 -1.29158586E-04  4.53659277E-04  1.32369066E-04 -4.03370940E-05
 -5.50026251E-03  4.22045083E-04  3.29123718E-04  8.90595743E-04 -1.27520393E-04
 -3.08477469E-03 -2.59587118E-03  5.90049055E-05  1.02754616E-04 -1.17464783E-05
 -3.95961860E-05  2.58075713E-05 -7.51678775E-06 -1.18735514E-05  3.77286945E-03
  2.09547940E-04 -2.67330484E-05  3.07099009E-03 -1.36393891E-04  3.34584220E-03
 -2.78804884E-03 -6.48907793E-05  1.82426698E-05 -3.17704475E-05 -1.10281638E-04
  2.55252461E-04  4.36186532E-06  6.91467157E-04 -5.34258156E-03  5.40792447E-04
  7.43458884E-05 -2.29681197E-03 -1.68824906E-04 -1.35976764E-03  4.86207267E-05
  1.44885331E-05  1.42882401E-04 -6.01857774E-04 -5.96479606E-04  9.85373921E-05
 -3.48775910E-05 -1.06297173E-04 -2.08060714E-04 -4.19054587E-04 -6.30644919E-05
  4.01594438E-05  2.61354857E-04 -3.99597593E-05 -1.45409788E-04  6.74040243E-04
 -1.26982067E-04 -6.04160043E-05  8.11494504E-03 -2.64995383E-05  8.54169487E-05
  2.81596146E-03 -7.04056012E-06 -4.89248097E-06  5.79476603E-04 -3.97678246E-05
  2.24789451E-05 -2.99660723E-05 -1.11980444E-04  5.45667191E-04 -3.47313737E-05
  9.42661479E-05 -1.54806962E-02 -3.13611569E-06 -5.58831122E-05 -5.95067497E-03
  5.89099328E-06 -2.66276456E-04  3.83887095E-04 -3.20790160E-05 -2.12043095E-05
 -8.43746025E-05 -9.70243545E-05  4.39294838E-05  5.08749014E-05  5.79707157E-03
 -2.78915131E-03 -9.79466338E-03  3.43269716E-02  2.08811074E-02 -2.98391185E-02
  1.72441469E-04  4.71185636E-02 -3.87479098E-03  1.56588010E-04  9.71946851E-03
  3.25444916E-05  4.02429048E-05  8.67694050E-04  2.50180505E-03  2.38532906E-03
  9.10555940E-03 -4.76808986E-02 -3.60642592E-02  2.06681211E-02 -3.33611127E-05
  2.29452031E-02 -1.25413898E-01  3.80941409E-05 -1.95646055E-02  7.34194939E-05
  6.77554089E-06  2.33277796E-02 -6.59116079E-02 -1.90399169E-02 -6.63440442E-02
  2.15403150E-01  1.51946068E-01 -2.66776790E-01  1.05717322E-05 -3.44343383E-02
  1.37761735E-01  6.82197747E-04 -2.36904987E-02  3.74234865E-04  3.59580507E-04
 -3.18581726E-02 -6.93459204E-02  1.90273534E-03  7.31027028E-03 -4.08132457E-02
  1.73692585E-02  4.93032708E-02 -1.20656209E-04  1.08273329E-01 -1.12452034E-02
 -2.35341120E-03 -2.06051047E-02  1.91369918E-04 -9.44254793E-06 -6.57294783E-02
 -5.83704070E-03 -2.40642575E-03 -8.43585728E-03  2.83274089E-02  8.92774297E-03
 -2.92712128E-02 -3.53757734E-04 -3.86981710E-02 -2.04440736E-02  1.06861621E-03
  3.49810748E-03  1.56819812E-04 -2.41122959E-04  1.56622601E-03  5.65466600E-03
 -1.34434597E-03 -4.89803401E-03  1.72186638E-02  7.44777800E-03 -5.92862677E-03
  4.64913882E-05 -1.78909751E-02  1.41579224E-02 -3.26437821E-04 -1.35177891E-02
 -9.57767636E-05  4.59710667E-05  5.91753573E-03  9.68165847E-03  6.76315979E-04
  2.44042668E-03 -7.38669955E-03 -1.17934884E-02 -1.28192940E-03  2.80472282E-05
  6.83611333E-03 -3.92262402E-03  1.62977077E-06 -6.10168299E-03  3.35046008E-05
 -9.59081244E-06 -2.09691239E-04 -6.22972474E-03  1.11940003E-03  4.23073551E-03
 -9.32858235E-03  9.53496281E-03  1.67841429E-02 -8.71204526E-04  4.44543435E-02
  1.93674030E-02  4.58038931E-03 -1.45278840E-03  1.46602278E-03  4.10460381E-04
 -3.69211222E-03 -1.11669383E-03 -3.56901423E-04 -2.86392046E-02  2.28188440E-03
 -6.96853158E-03  2.41515417E-04  6.42795630E-03 -4.30638724E-02  8.40173975E-03
  8.40329285E-03  1.92090159E-03 -7.43936119E-04 -2.81597942E-03  1.41905567E-02
  1.47023207E-03 -3.66071997E-03 -5.98047250E-05 -2.55747047E-03  3.09854268E-03
 -3.23374340E-05  8.66983626E-04 -5.83109376E-06  7.66283148E-06 -1.16027418E-03
  1.16439252E-03 -7.11031239E-04 -2.58022775E-03  1.25670556E-02  8.66695242E-03
 -3.58615364E-04 -7.29185636E-05  5.59187398E-03 -2.57396546E-03 -3.71659740E-05
  7.73004110E-04 -5.35595910E-06 -4.81374394E-06 -1.28853275E-03 -6.96160226E-04
 -1.77405766E-02 -5.61811857E-02 -2.51170677E-02  3.33537302E-03  1.04785615E-04
  2.16292051E-01  8.87437852E-04  6.84352895E-03 -4.15607744E-02 -2.99085279E-02
 -3.23667705E-02 -3.54569646E-03 -4.55417984E-02 -5.74137882E-02 -5.72419338E-04
  6.97643476E-03  3.52184633E-04  1.78855773E-04  2.95957764E-02 -1.43971499E-02
  5.35505755E-03  1.63787910E-02 -4.61014940E-02  5.47885511E-02  1.85701485E-02
  2.71801636E-03  2.42225703E-02 -1.32699813E-01  3.18205566E-03 -1.34126619E-02
  1.53057755E-03 -4.96547606E-04  3.67443708E-02 -4.41734269E-02 -2.15626730E-02
 -7.64471872E-02  2.62673635E-01  8.34558628E-02 -1.82446577E-01  3.93723051E-03
 -1.56354373E-02  1.94259775E-01 -6.49303289E-03 -1.00153941E-02 -2.69433276E-04
 -1.94183548E-03 -2.02970248E-02 -5.52092504E-02  7.16529042E-03  2.28789190E-02
 -7.06523995E-02 -4.88670730E-03 -2.30275788E-02 -1.42255374E-02  3.92640995E-02
  1.22280230E-01  1.29868544E-02 -7.55499581E-03 -3.45513354E-03  1.69980598E-04
 -5.13893327E-02  2.28731948E-02  4.72046750E-03  2.04203326E-02 -8.12748037E-02
  1.90268508E-02 -3.07346490E-03  5.01998156E-03 -1.62948557E-01  7.70314967E-02
 -5.56207882E-03  2.93458592E-02 -5.26587856E-04  2.03004247E-03 -2.33181617E-02
  1.20089690E-02  7.07168975E-03  2.70630953E-02 -9.48382692E-02 -9.81218601E-03
  3.00471669E-02  4.20769027E-03 -1.42419753E-01 -3.23109174E-02  2.99227972E-03
  1.40375134E-02  1.58772146E-03  5.19257162E-04 -8.82833968E-03 -7.44752242E-03
  1.40472404E-03  4.53216003E-03  4.78993822E-03  1.67653607E-02  8.23571815E-03
 -3.49536595E-03 -4.25873837E-02  4.03886828E-03 -1.86987448E-03  3.20476425E-02
 -1.20937539E-03  4.55153718E-05  3.55459232E-02 -2.33688428E-02 -7.74411062E-03
 -2.65702484E-02  5.10172598E-02  8.07466904E-02 -1.03261068E-02 -3.74133313E-02
 -1.15960412E-02 -1.69625612E-02 -3.19546364E-02 -1.39180127E-03  3.26158841E-03
 -1.34036895E-03 -3.28912610E-03  5.81596801E-03  3.93553091E-02  6.51874261E-02
 -1.41699749E-02  1.82251614E-02 -5.93384302E-03  2.91761172E-02  5.54798998E-02
 -8.40954671E-03 -2.05974060E-02 -3.41782567E-03  1.36464761E-02  4.95036324E-02
 -2.25407159E-01  1.11394595E-02  2.93894271E-02  3.42103318E-03 -1.47244078E-02
 -1.85759917E-02  1.97689886E-03  5.72551055E-03  4.13516074E-05 -1.43820756E-04
  6.77115811E-03 -1.70180083E-03  5.74977488E-03  2.08553336E-02 -9.73000850E-02
 -3.14752697E-03 -2.50286012E-02  3.41987891E-03  4.12482405E-03  9.06736266E-03
  1.91403102E-03 -2.87256497E-03  4.85989373E-05  1.50775320E-04  6.63016342E-03
  2.39470397E-03 -4.64876358E-02 -5.55547082E-02 -2.94257474E-02 -3.30747833E-03
 -3.32689018E-05  1.59816427E-01  2.12565435E-01  7.65998037E-04  2.46656080E-03
 -4.18475825E-03 -3.74128791E-03  5.81938935E-04 -2.70402720E-04 -1.85352477E-02
  1.18894748E-01 -6.01043692E-05  4.11964645E-03  8.97605857E-06 -8.37575493E-05
 -1.03350973E-02  5.89624633E-03  4.98476218E-03  1.77269538E-02 -5.71762880E-02
 -8.41583204E-02 -2.06734534E-02 -1.30152012E-04 -1.10606062E-01  9.21227297E-02
 -4.12977156E-05  1.02728009E-02  6.28114569E-05 -4.25204698E-05 -1.24978099E-02
  1.89098795E-02  6.13814271E-03  2.13275453E-02 -6.73708299E-02  7.54748462E-02
  5.27852769E-02  4.36595794E-04 -1.18274567E-01 -1.11426311E-01  5.61881190E-04
  4.50573739E-03  1.67948317E-04  5.25533155E-04 -2.05595210E-02  1.60748660E-02
 -6.61183486E-03 -2.20931203E-02  6.67709600E-02 -3.85519615E-02 -1.25701887E-02
  3.69118415E-03 -1.75771248E-02 -1.35648669E-01  2.99556925E-04  7.61962709E-04
  1.43265306E-03 -6.91629689E-05 -1.18402594E-02 -9.76754484E-03 -2.52523782E-03
 -9.60433429E-03  3.31566268E-02  8.86737456E-03 -2.02273808E-02 -5.46843572E-06
  7.78098831E-02 -8.38730476E-02  3.45354820E-05 -6.20984761E-03  1.02428540E-04
 -4.46006284E-04 -7.64421665E-03 -6.11512616E-03 -1.90492279E-04 -1.39209426E-03
  9.13933967E-03  1.02182062E-03 -2.07547588E-03 -7.40310361E-04  9.07620255E-02
  7.13625356E-02  6.71804799E-05 -5.94140980E-03 -5.04778778E-06  7.56268571E-05
  1.00952013E-03 -4.25235513E-03  1.26695419E-03  4.34021511E-03 -8.48696919E-03
 -7.85180742E-03 -6.55618830E-03  1.80702337E-04 -4.51653163E-03 -2.22233898E-02
  1.41583008E-04  1.09568221E-03  8.20843427E-06  5.28706330E-05  5.06602334E-04
  1.97786515E-02 -1.05784048E-03 -3.29823775E-03  3.50586543E-03  1.85577511E-02
  3.07348105E-03  6.91896269E-03 -2.09518779E-02  2.10324263E-02  5.89901183E-04
 -3.11011002E-03 -4.27575432E-04  8.73887829E-04  5.69759399E-03  1.57240518E-03
  4.60230633E-03  2.82463812E-02 -2.53883334E-03  1.03685056E-02 -1.10418134E-03
  9.52477599E-03  1.27276576E-02 -2.67264256E-03 -2.83110662E-03 -3.65059374E-04
 -5.88154681E-03 -2.04128572E-02  8.34698768E-02 -1.39034350E-02 -1.11205276E-02
 -2.12882202E-04  7.12595725E-03  2.36744500E-03 -1.29116423E-04 -5.05406210E-03
  9.82087928E-06 -2.00949700E-06  4.78955006E-04 -1.99744042E-03  6.63921481E-03
  2.30897954E-02 -9.53556614E-02  1.14450046E-02 -1.34730470E-02  1.24504759E-04
 -7.57001569E-03  4.57328548E-03  1.98189536E-05  5.56351837E-03 -6.07669440E-06
 -8.87544185E-06  1.52880458E-03  6.40293461E-04  2.09139232E-02  2.52950195E-02
  1.22671926E-02 -1.04983349E-02 -2.29970043E-05 -2.02428563E-02 -3.28029967E-02
  3.29682777E-02  1.95485876E-03  7.77845172E-03 -3.12002078E-02 -1.59931995E-02
  7.55073063E-03 -1.74499042E-04 -8.63932004E-03  9.42715505E-02 -5.29091386E-05
  3.11599514E-03  5.30810730E-05 -3.51344652E-05  7.57588324E-03 -8.29520693E-03
  1.28271848E-03  4.15027051E-03 -1.73457473E-02  1.96209305E-02 -1.55009992E-02
  2.41914775E-04 -8.44406526E-02  4.36977595E-02  1.99068013E-04 -6.01163920E-03
  8.85202290E-05 -2.82501958E-06  2.19826864E-02  4.61752656E-03 -1.01696513E-02
 -3.60142099E-02  1.18090790E-01  4.06291936E-02  1.85884214E-02  2.70369235E-04
 -9.04038150E-02 -4.53207870E-03 -1.53790295E-04 -1.14761987E-02  7.20731035E-05
  9.60879737E-05 -8.60938833E-03  5.87253276E-03 -4.49495541E-03 -1.54544871E-02
  4.41646153E-02 -4.43932282E-02 -6.03426819E-02  3.07622112E-04  6.64102413E-03
 -3.38503192E-02  7.84631412E-04 -8.63416979E-03  5.94325809E-04 -3.12919593E-04
 -3.03715744E-02  2.12089653E-02  6.87020394E-04  3.21935519E-03 -1.76671503E-02
  5.31972878E-03  2.35058348E-03  1.62044641E-04  3.26779997E-03 -3.28383882E-02
 -1.15624721E-04  4.43119942E-04 -6.35142483E-05 -1.07884250E-04 -1.95340135E-02
  3.55607278E-03  1.98355471E-03  7.51788633E-03 -2.55627717E-02 -3.70360737E-03
  6.06624849E-03 -2.91907268E-05  2.75311620E-02  7.11006931E-02  2.35629946E-04
  2.98265361E-04  4.03735952E-05  8.55508003E-05 -1.19617150E-03 -2.41610128E-03
  3.46139079E-04  1.06498181E-03  1.76830982E-03  7.13319719E-03 -3.69522432E-03
 -1.38064174E-04 -1.32215750E-02 -1.75073044E-02 -3.90597253E-05  8.94123530E-03
 -4.61719482E-05  3.87321064E-05  8.79148785E-03  9.36648149E-03  1.44530533E-03
  5.06491510E-03 -1.05636083E-02  1.93490557E-02  2.52821216E-03 -1.11210977E-03
 -6.69948283E-03  2.58106886E-03 -7.92367613E-04 -1.36565835E-03  3.57914061E-04
  3.34182180E-04  5.58284031E-03  1.01947590E-02 -9.69214813E-04  1.40175830E-02
  6.56141965E-05  4.07828564E-03 -1.57020229E-03  6.93233302E-03 -3.28736537E-03
  5.11988239E-04  1.02248472E-03  1.26878816E-04 -1.24487082E-03 -3.78529460E-03
  1.00545969E-02 -4.69140855E-03 -6.89764710E-04  6.38458362E-05  1.91268317E-03
 -7.72777375E-04  4.56868611E-05 -2.54606704E-03  3.20055839E-06 -1.31076790E-05
  4.69250581E-04 -9.70295088E-05  5.88867972E-03  2.08340322E-02 -8.99486087E-02
  8.60295420E-03 -1.09720543E-02  2.29879413E-04 -4.61992110E-03  6.28242260E-03
  1.11325414E-04  3.15490057E-03 -5.06237238E-06  6.67922730E-06  3.20871523E-03
 -3.10008484E-04  1.02400325E-03 -1.48712108E-03  1.32249197E-02 -8.40792596E-03
  2.86678709E-05  2.74771031E-02  4.00199554E-02  3.54054569E-03  2.57909826E-02
  4.16638769E-05  1.48844090E-04 -4.62086481E-04 -1.15159753E-04  1.02724945E-04
 -2.50338163E-03 -1.34720468E-04  1.51626455E-03  1.80069294E-03  1.98755375E-04
  1.74009118E-03 -7.42077683E-03  2.27612943E-04 -5.04636337E-05  1.85101915E-05
  9.41091870E-05 -5.00098468E-04 -2.40558602E-05 -1.10005508E-04  4.26897415E-02
 -1.08053823E-03  5.52200882E-04  6.44640286E-03 -1.22693615E-04  8.01346267E-03
 -1.34458394E-03  2.49640655E-04 -2.23868127E-05  1.14754245E-05  1.02342902E-05
  4.29206083E-04  3.14526613E-04  2.30095777E-04  5.85631499E-02 -3.15362063E-03
  1.24819218E-03  8.39820465E-03  4.30760754E-04 -2.92338200E-03  1.82900444E-03
 -6.28968004E-04 -3.96554830E-04  1.91989025E-04  5.75887380E-04 -1.51135436E-03
 -2.07406240E-03 -6.55612121E-05  2.57021407E-02  5.37958757E-03 -1.26087817E-03
  7.30175844E-03  1.88721345E-04 -7.42099047E-03 -6.85949745E-03 -1.10595217E-04
 -2.67056673E-04 -5.50837009E-06 -3.02437226E-05  4.06753915E-04  2.32867262E-04
 -4.54439477E-04  4.88047288E-03 -9.08959725E-04 -2.70676046E-03 -1.58467019E-04
  4.66191903E-04  4.09574483E-03 -2.21193900E-03 -6.04370371E-04  3.42754466E-04
  3.01916382E-05  1.05592426E-04 -2.95227679E-04 -5.48036839E-05 -2.55253835E-05
 -1.15970761E-02  9.82454557E-04  1.41318512E-03 -1.48852932E-03 -1.56795148E-04
  7.41389224E-04  5.33384599E-04  1.39584254E-04 -4.72146003E-07  2.35259329E-05
  7.93938007E-05 -1.20995717E-04 -9.60518097E-05 -9.65333178E-05 -8.26886098E-03
 -7.66304878E-05 -2.84576819E-04 -3.33234446E-03  9.69929551E-05 -1.74778898E-03
  1.11962507E-03 -4.72931433E-06  1.87305572E-04 -4.95867867E-04 -1.77580016E-03
  3.86946739E-03  5.04738666E-03 -1.84768066E-03 -2.32546209E-02  1.69983394E-03
 -6.49109862E-04 -1.23806691E-02 -7.66269361E-04 -2.85422350E-03 -8.16022516E-05
 -2.51947424E-04 -1.67884279E-04  1.42615988E-03  8.76241747E-04 -2.48808147E-04
  8.94961707E-04 -1.15832204E-03 -4.94606908E-04  7.01574239E-04 -2.51709976E-04
 -8.61579284E-04 -6.32840884E-04 -3.77904934E-05 -1.29127785E-04  5.01490146E-04
 -4.77205670E-05 -6.39659661E-05  9.75560019E-04  6.41803418E-05 -5.70968841E-06
  1.31139080E-03 -5.27362222E-05  1.90591505E-05 -5.22977226E-04  1.17097353E-05
 -3.94121700E-05  8.89577480E-05  3.13233795E-04 -1.33494178E-03  1.34088240E-04
 -1.66270613E-04  9.40461391E-03 -1.09380409E-04  7.90838224E-05  5.08983755E-03
  5.33484115E-05  2.27746017E-05  2.44029399E-04  4.15422801E-05  3.23814743E-05
 -4.10864695E-05  5.04847730E-04  2.71403002E-04 -1.06549183E-04  5.22879120E-03
  2.49051801E-05  1.75743450E-03  2.51498712E-04  2.32723677E-04  7.06200409E-03
 -2.78904961E-03 -9.79416822E-03  3.43210106E-02  2.08705760E-02  2.98291760E-02
  1.93827758E-04  4.71284461E-02  3.69506710E-03  1.58820614E-04  9.71692079E-03
  3.91004308E-05 -4.63541673E-05  8.79100837E-04 -2.50753016E-03 -1.34344418E-03
 -4.89474497E-03  1.72020792E-02  7.44724185E-03  5.92715226E-03  2.62017375E-05
 -1.77898599E-02 -1.41799697E-02 -3.52911397E-04 -1.35181563E-02 -8.71640422E-05
 -2.70064461E-05  5.91583592E-03 -9.66424854E-03 -2.40475900E-03 -8.43007085E-03
  2.83089596E-02  8.92848967E-03  2.92717851E-02 -3.59497167E-04 -3.85307201E-02
  2.04519862E-02  1.05744271E-03  3.50494291E-03  1.59120082E-04  2.38684162E-04
  1.57001315E-03 -5.64665872E-03  1.90466491E-03  7.31654167E-03 -4.08340260E-02
  1.73557278E-02 -4.93311100E-02 -1.04463001E-04  1.08228570E-01  1.13892931E-02
 -2.33161341E-03 -2.06070140E-02  1.82355688E-04  2.33211791E-05 -6.57113233E-02
  5.90954689E-03 -1.90419951E-02 -6.63512780E-02  2.15435511E-01  1.51957389E-01
  2.66762719E-01  9.26905806E-05 -3.46108353E-02 -1.37669893E-01  6.31658498E-04
 -2.36922457E-02  4.07852844E-04 -3.48600400E-04 -3.18712708E-02  6.93422490E-02
  2.38525279E-03  9.10556263E-03 -4.76833172E-02 -3.60570137E-02 -2.06523481E-02
 -3.55385561E-05  2.28123649E-02  1.25307195E-01  1.17815778E-04 -1.95597962E-02
  9.91889882E-05 -1.82940779E-05  2.33724274E-02  6.59062938E-02  6.76151119E-04
  2.43987601E-03 -7.38484015E-03 -1.17983237E-02  1.26486155E-03  4.16745021E-05
  6.82287976E-03  3.95266554E-03  1.45243024E-05 -6.10028650E-03  3.70439985E-05
 -7.18256001E-06 -2.17038595E-04  6.22097320E-03  1.11875421E-03  4.22805169E-03
 -9.31927702E-03  9.51388575E-03 -1.67757819E-02 -8.82951027E-04  4.44167392E-02
 -1.94305555E-02  4.56691082E-03 -1.44537920E-03  1.46338892E-03 -3.97636687E-04
 -3.68981956E-03  1.12121798E-03  6.41785734E-03 -4.30804040E-02  8.39303173E-03
 -8.41860917E-03  1.90963762E-03 -3.54766474E-04 -2.85907692E-02  2.29288711E-03
  6.93327906E-03  2.42869351E-04 -7.11678457E-04 -2.58261600E-03  1.25789212E-02
  8.65996565E-03  3.65712590E-04 -9.25692369E-05  5.58543289E-03  2.57992455E-03
 -5.33943811E-05  7.70872361E-04 -8.47638143E-06  3.53209938E-06 -1.29160080E-03
  6.89536648E-04 -7.42497263E-04 -2.81056638E-03  1.41628363E-02  1.45983379E-03
  3.64911699E-03 -7.16618812E-05 -2.55235155E-03 -3.09564553E-03 -4.06313993E-05
  8.67853642E-04 -9.90903947E-06 -1.09441001E-05 -1.15988371E-03 -1.17074286E-03
  6.53655623E-03 -1.75527156E-02 -1.83297760E-03 -1.49844080E-03  7.78580967E-05
 -7.18309519E-03 -2.36476587E-02  2.54695867E-03  2.07341371E-03 -1.08266091E-04
  2.16283655E-01  8.92918410E-04  6.86105753E-03 -4.16009578E-02 -2.98644104E-02
  3.23552118E-02 -3.48779699E-03 -4.54583005E-02  5.86672150E-02 -5.46898844E-04
  6.98902521E-03  3.87942701E-04 -2.64440140E-04  2.96200939E-02  1.43794361E-02
  7.06791958E-03  2.70501318E-02 -9.47898846E-02 -9.81230432E-03 -3.00577406E-02
  4.20412847E-03 -1.43547596E-01  3.29605375E-02  2.96264024E-03  1.40243942E-02
  1.58537548E-03 -5.37573527E-04 -8.81261556E-03  7.42598167E-03  4.71734135E-03
  2.04105921E-02 -8.12462402E-02  1.90049305E-02  3.01872687E-03  5.04936772E-03
 -1.64147374E-01 -7.76114728E-02 -5.62602498E-03  2.93465129E-02 -5.29183113E-04
 -2.02352658E-03 -2.33531653E-02 -1.20120238E-02  7.16321103E-03  2.28729576E-02
 -7.06590646E-02 -4.84532098E-03  2.30618343E-02 -1.42331990E-02  3.92852235E-02
 -1.23668050E-01  1.30195537E-02 -7.58404547E-03 -3.47963461E-03 -1.58975331E-04
 -5.13923819E-02 -2.28065293E-02 -2.15678262E-02 -7.64653679E-02  2.62739896E-01
  8.34481553E-02  1.82420457E-01  4.04352123E-03 -1.44614542E-02 -1.94909895E-01
 -6.57195316E-03 -1.00222224E-02 -2.46934565E-04  1.95674716E-03 -2.02887245E-02
  5.51858332E-02  5.35430241E-03  1.63772807E-02 -4.60962940E-02  5.48252800E-02
 -1.86204561E-02  2.74266443E-03  2.54344388E-02  1.33231540E-01  3.29390125E-03
 -1.34041242E-02  1.55898355E-03  4.54101834E-04  3.68036127E-02  4.41322974E-02
  1.40889374E-03  4.54603923E-03  4.75602544E-03  1.67278512E-02 -8.17787295E-03
 -3.49795039E-03 -4.25992812E-02 -4.13717374E-03 -1.84390827E-03  3.20230944E-02
 -1.21751942E-03  4.31365870E-05  3.54394369E-02  2.34030406E-02 -7.75497708E-03
 -2.66084431E-02  5.10969002E-02  8.07476275E-02  1.03203013E-02 -3.75271514E-02
 -1.15526815E-02  1.71597179E-02 -3.20197591E-02 -1.39868977E-03  3.26623690E-03
  1.33815096E-03 -3.29234577E-03 -5.81188811E-03  2.91989573E-02  5.55012913E-02
 -8.39100479E-03  2.06438283E-02 -3.40997673E-03  3.93635487E-02  6.50784924E-02
 -1.41803576E-02 -1.81979350E-02 -5.95221485E-03  5.74864638E-03  2.08515559E-02
 -9.72817765E-02 -3.11914461E-03  2.49579140E-02  3.42803259E-03  4.14085572E-03
 -9.05452911E-03  1.93392710E-03 -2.86108733E-03  4.86162661E-05 -1.52352730E-04
  6.62975601E-03 -2.36199641E-03  1.36311699E-02  4.94455437E-02 -2.25127406E-01
  1.11737164E-02 -2.93719214E-02  3.36046952E-03 -1.46906804E-02  1.86093063E-02
  1.90056278E-03  5.70527256E-03  2.33151510E-05  1.56557127E-04  6.76989263E-03
  1.74885933E-03 -9.73285017E-03 -9.51043258E-03 -7.66504206E-04 -2.25177016E-02
  1.03029152E-04 -2.36142406E-02 -1.24597432E-03  2.33689130E-02 -1.57404010E-03
  1.77090195E-03  1.59815523E-01  2.12527018E-01  7.55591739E-04  2.42902883E-03
 -4.08099578E-03 -3.69877350E-03 -5.74693932E-04 -2.33210495E-04 -1.82093281E-02
 -1.18731199E-01 -1.00205562E-04  4.12656865E-03 -1.26762314E-05  8.73001859E-05
 -1.03726285E-02 -5.89348389E-03 -2.06089452E-04 -1.44757373E-03  9.30763132E-03
  1.04382960E-03  2.09099549E-03 -7.28280313E-04  9.06724366E-02 -7.13959477E-02
  3.54012309E-05 -5.99316323E-03 -1.09353482E-05 -5.75909918E-05  1.05158237E-03
  4.22642498E-03 -2.53450998E-03 -9.63742117E-03  3.32482383E-02  8.83342103E-03
  2.02727924E-02 -2.00956943E-05  7.78101967E-02  8.38382230E-02  9.85337362E-05
 -6.24066053E-03  9.70933500E-05  4.45860614E-04 -7.60634684E-03  6.16033685E-03
 -6.62733447E-03 -2.21454694E-02  6.69066520E-02 -3.84747495E-02  1.25429549E-02
  3.67978675E-03 -1.72547410E-02  1.35503924E-01  2.61013476E-04  6.83312514E-04
  1.44293364E-03  6.70539328E-05 -1.17671164E-02  9.77842479E-03  6.12379200E-03
  2.12774972E-02 -6.72389792E-02  7.53761084E-02 -5.27743523E-02  3.77206271E-04
 -1.17985599E-01  1.11288273E-01  6.35810199E-04  4.46473988E-03  1.58092326E-04
 -5.17918133E-04 -2.05298609E-02 -1.60811370E-02  4.96640628E-03  1.76626163E-02
 -5.69944305E-02 -8.40830841E-02  2.06803616E-02 -7.82981384E-05 -1.10434464E-01
 -9.18843231E-02 -7.45696009E-05  1.02148543E-02  4.96510287E-05  3.94985131E-05
 -1.24673305E-02 -1.88611626E-02  1.25649704E-03  4.30651204E-03 -8.47218447E-03
 -7.84691797E-03  6.54480377E-03  1.32842986E-04 -4.35424424E-03  2.22096822E-02
  1.28551267E-04  9.88313117E-04  3.62076176E-05 -4.93743623E-05  4.58692499E-04
 -1.97668288E-02 -1.06899773E-03 -3.33697181E-03  3.58389908E-03  1.84381788E-02
 -3.11016334E-03  6.97886181E-03 -2.07779427E-02 -2.10101763E-02  6.52340839E-04
 -3.13602079E-03 -4.23616919E-04 -8.78508151E-04  5.70763895E-03 -1.57607280E-03
  9.53839629E-03  1.25092144E-02 -2.65333344E-03  2.79206946E-03 -3.56248980E-04
  4.60345679E-03  2.80065853E-02 -2.53282282E-03 -1.03035084E-02 -1.10511309E-03
  6.60574003E-03  2.29709226E-02 -9.48300525E-02  1.13933579E-02  1.33973478E-02
  7.12862922E-05 -7.56781056E-03 -4.49768750E-03  1.29211097E-05  5.56120463E-03
 -4.43254136E-06  1.24418011E-05  1.50823758E-03 -6.14331978E-04 -5.91308713E-03
 -2.05248125E-02  8.39700309E-02 -1.39172457E-02  1.12204649E-02 -2.87114321E-04
  7.12495505E-03 -2.42399066E-03 -1.52569785E-04 -5.05182279E-03  9.49796730E-06
  1.34043241E-06  4.46944120E-04  1.97490382E-03  7.93911715E-04 -2.33318380E-02
 -1.90910259E-02  3.77259106E-03 -8.24245244E-05  2.55602410E-03  2.32618451E-02
 -4.95418674E-03  5.22530920E-03  6.18394522E-05 -2.02040039E-02 -3.28865497E-02
  3.29199383E-02 -1.95156392E-03 -7.76606707E-03  3.11673128E-02  1.59716444E-02
  7.54128793E-03  1.34704391E-04  8.44665081E-03  9.42406909E-02  8.04207470E-05
 -3.12697651E-03 -4.85291108E-05 -1.22405493E-05 -7.56255585E-03 -8.30531588E-03
 -1.97575789E-03 -7.48982894E-03  2.54731937E-02  3.69162353E-03  6.06419639E-03
  2.03901211E-05 -2.74374609E-02  7.11353336E-02 -1.78138457E-04 -2.61097961E-04
 -3.39928057E-05  7.24788680E-05  1.17701471E-03 -2.40670910E-03 -6.81663054E-04
 -3.20007978E-03  1.76096718E-02 -5.29967361E-03  2.31857075E-03 -1.43993349E-04
 -3.23230516E-03 -3.28362688E-02  7.90196843E-05 -4.32129599E-04  7.04045391E-05
 -1.12339685E-04  1.95241930E-02  3.51840782E-03  4.50678216E-03  1.54939166E-02
 -4.42625480E-02  4.43462086E-02 -6.03562295E-02 -2.97124974E-04 -6.80741977E-03
 -3.37564644E-02 -7.53514628E-04  8.68541145E-03 -6.03048874E-04 -3.18980539E-04
  3.03711841E-02  2.11740054E-02  1.01777574E-02  3.60430796E-02 -1.18179909E-01
 -4.06061438E-02  1.85986248E-02 -2.44071677E-04  9.02608242E-02 -4.44537909E-03
  1.22006962E-04  1.15006100E-02 -6.39555809E-05  8.74200201E-05  8.61644377E-03
  5.88019226E-03 -1.27495468E-03 -4.12333044E-03  1.72668457E-02 -1.96371320E-02
 -1.54850784E-02 -2.61219711E-04  8.43590422E-02  4.35719369E-02 -1.96444368E-04
  6.03317955E-03 -7.24769230E-05  9.79513820E-06 -2.20084408E-02  4.60799798E-03
 -3.42243887E-04 -1.05284607E-03 -1.76114101E-03 -7.12824782E-03 -3.70899830E-03
  1.54684535E-04  1.31454229E-02 -1.75411889E-02  3.77150716E-05 -8.87927568E-03
  2.91753304E-05  2.25180463E-05 -8.75538949E-03  9.35703281E-03 -1.43533976E-03
 -5.03062926E-03  1.04972485E-02 -1.93107951E-02  2.54513572E-03  1.07779514E-03
  6.60819462E-03  2.57512994E-03  7.61765043E-04  1.38394251E-03 -3.59283267E-04
  3.36052601E-04 -5.57909076E-03  1.02030754E-02 -6.95557860E-03  3.40770625E-03
 -5.18649791E-04  1.04180257E-03 -1.28834558E-04  9.52047023E-04 -1.39095478E-02
 -7.00798160E-05  4.06273934E-03  1.57261577E-03 -5.87561694E-03 -2.07875359E-02
  8.97376542E-02 -8.58866150E-03 -1.09340982E-02 -2.02379183E-04  4.61977216E-03
  6.23463857E-03 -1.09966518E-04 -3.15942429E-03  4.93415835E-06  4.19933904E-06
 -3.19870511E-03 -3.32850391E-04  1.26987807E-03  3.87425591E-03 -1.04462392E-02
  4.70888846E-03 -7.66619675E-04 -1.11428916E-05 -1.92926522E-03 -7.54028373E-04
 -2.16775463E-05  2.55202256E-03 -1.04021473E-06 -1.27525958E-05 -4.60464079E-04
 -9.25482405E-05  2.95748510E-03  4.43260961E-02  1.93825168E-02  4.98415973E-03
  2.85595488E-05 -2.07989204E-03  1.62188081E-03 -5.23062307E-03  9.54005650E-04
 -1.03762704E-04 -2.75023678E-02 -3.99760414E-02 -3.52992534E-03  2.57946009E-02
  4.10065484E-05  1.46237174E-04 -4.52152164E-04 -1.02712659E-04 -8.95705386E-05
 -2.51246357E-03 -1.10187057E-04 -1.30803091E-03  1.80170928E-03  2.04762722E-04
  1.74241876E-03  7.42021513E-03  2.37873441E-04  4.68172861E-05  2.97759290E-05
  1.04315005E-04 -2.95475994E-04 -4.64161929E-05  2.87435881E-05 -1.15992115E-02
  8.36229253E-04 -1.27956171E-03 -1.48653673E-03 -1.52123358E-04  7.43048828E-04
 -5.34899589E-04  1.45574516E-04  1.76085122E-06 -6.10753151E-06 -3.29354462E-05
  4.20128289E-04  2.31834604E-04  4.65391692E-04  4.88359076E-03 -1.02933825E-03
  2.59933355E-03 -1.56527810E-04  4.64830925E-04  4.09890802E-03  2.21204029E-03
 -5.98532075E-04 -3.38894505E-04  1.92575662E-04  5.78299682E-04 -1.52085045E-03
 -2.06418948E-03  4.00356097E-05  2.57182900E-02  5.38856990E-03  1.08801879E-03
  7.29594262E-03  1.90754794E-04 -7.41552524E-03  6.86213869E-03 -9.87608103E-05
  2.86171597E-04  1.59709004E-05  2.60476005E-05  3.74667657E-04  2.96224335E-04
 -2.43477207E-04  5.85608616E-02 -2.99181962E-03 -1.35800313E-03  8.40647176E-03
  4.36900631E-04 -2.92291767E-03 -1.83113186E-03 -6.28413927E-04  4.09287883E-04
  1.68591604E-05  8.89471393E-05 -4.84161554E-04 -1.77278281E-06  5.90397002E-05
  4.26803453E-02 -9.16961963E-04 -4.19698630E-04  6.43961087E-03 -1.29046702E-04
  8.01242412E-03  1.34480663E-03  2.42372216E-04  2.98249637E-05  2.25939565E-05
  7.62811087E-05 -1.17994471E-04 -9.40262278E-05  8.31125901E-05 -8.26088326E-03
 -6.57542469E-05  2.49842600E-04 -3.32907523E-03  9.07769430E-05 -1.74835168E-03
 -1.11778214E-03 -1.70308268E-05 -1.66452647E-04 -4.95571945E-04 -1.77504332E-03
  3.86920822E-03  5.03995548E-03  1.87207612E-03 -2.32299092E-02  1.70642241E-03
  6.81510718E-04 -1.23664507E-02 -7.65373496E-04 -2.85585894E-03  8.51104018E-05
 -2.53744053E-04  1.73019009E-04 -4.94561254E-04  7.03595360E-04 -2.48619374E-04
  8.64649387E-04 -6.31976507E-04  1.42532548E-03  8.55175019E-04 -2.48834562E-04
 -8.86467941E-04 -1.15567008E-03  7.99357414E-05  2.81584628E-04 -1.20083430E-03
  1.28037067E-04  1.56290990E-04  9.39982063E-03 -9.56388847E-05 -6.74756059E-05
  5.08941332E-03  4.77650929E-05  2.34361396E-05 -2.43530857E-04  3.89787077E-05
 -3.21640838E-05 -3.39281412E-05 -1.15564424E-04  4.45514040E-04 -2.18519897E-05
  6.79681409E-05  9.94147088E-04  6.15240883E-05  1.00845423E-05  1.31790709E-03
 -4.85329042E-05  1.81317562E-05  5.22266547E-04  1.05590361E-05  3.69751050E-05
 -9.55008584E-05 -1.31818041E-04 -1.67524230E-04 -2.68831254E-05 -4.67888437E-04
 -1.11166332E-04  1.75349802E-03  7.08962038E-05  1.10030072E-04  1.05731331E-03
  1.34501194E-05  1.74953055E-03  2.38971971E-04 -2.17310115E-04  7.06060706E-03
  2.08376149E-03  7.93147428E-03 -4.26978800E-02 -1.98136453E-02 -4.65712000E-02
  2.11665709E-04 -4.99989655E-02  3.97518418E-02  3.69185596E-04 -1.50165427E-02
  4.80401754E-05  1.71135039E-04 -7.37919970E-02 -1.12015768E-02 -2.25572093E-03
 -7.82536623E-03  2.45036614E-02 -6.93272072E-03  2.87425716E-02 -1.38758198E-04
  3.34044397E-02  5.29983587E-03 -4.14988111E-04  2.21025996E-03 -1.45178500E-04
 -2.47363347E-05  4.60762603E-03  9.45616534E-03 -1.33535704E-03 -4.84858308E-03
  1.67348375E-02 -7.32494871E-03  5.56486659E-03 -2.02008385E-04  1.28133043E-02
 -2.97106602E-03  1.16545349E-03 -1.13120789E-02  1.30755354E-04  2.60927727E-04
  4.44847185E-03  1.24183621E-02 -3.00859260E-03 -1.05659797E-02  3.73636205E-02
 -2.12049354E-02  3.07036692E-02  4.55364750E-05  1.52916328E-02 -1.48703269E-02
 -2.38930959E-03  2.52978826E-03 -1.04126602E-04  2.39352033E-04  9.22167675E-03
  3.12534501E-03  2.43728066E-03  9.25532203E-03 -4.74383340E-02  3.61524920E-02
 -1.88692024E-02 -2.13260165E-04  5.87085078E-03  8.93223733E-02  1.18985012E-03
 -1.77395689E-02  8.78488462E-05 -1.97683807E-04  2.17225928E-02 -6.82611244E-02
 -1.90534269E-02 -6.64526377E-02  2.18006788E-01 -1.55283331E-01  2.71730793E-01
  7.93037255E-04  6.70530527E-02 -1.07188252E-01 -6.15962502E-04 -2.47601960E-02
 -2.20441344E-04  1.59321023E-04 -3.19961167E-02 -7.27112028E-02  7.80201758E-04
  2.90582889E-03 -7.94016425E-03 -2.24629907E-02 -9.08912048E-03 -1.02848794E-05
 -3.28144020E-03 -1.83238436E-02 -7.73142007E-05  4.63664078E-04  4.21481258E-05
 -1.47260334E-05  2.53510160E-03 -6.09297456E-03  4.89659666E-04  1.64990008E-03
 -3.10187384E-03  7.72997676E-03 -4.00423216E-04 -9.99547158E-05  3.21923259E-02
  8.20780180E-04  4.92772065E-03 -5.47227662E-03  1.06328588E-03 -4.31149891E-04
  3.80847508E-04 -6.41653149E-03  5.65126811E-03 -3.31590449E-02  4.85470985E-03
 -9.13616480E-03  6.92418412E-04 -1.01269899E-03 -3.40102146E-02  7.72908166E-03
  3.88316955E-03  1.09479476E-03 -1.15215930E-03 -4.28844775E-03  1.97391587E-02
  8.12737891E-03 -1.68204277E-03 -5.76109812E-05  3.66779888E-03  8.43449931E-04
 -3.71146033E-06 -6.57796006E-05 -3.23088661E-06  1.06259102E-05 -1.08346762E-03
  1.27015079E-03  8.73766000E-05  2.54495866E-04 -1.37049733E-03 -7.43107162E-03
 -1.27156020E-02 -7.67799167E-05  4.88988939E-04 -8.28646166E-03 -2.42906168E-06
 -1.25896025E-03  1.23286580E-05 -7.34657669E-07  5.49556484E-04  3.04656027E-03
 -7.63652794E-03 -3.33058404E-02 -3.68598983E-03  2.18967052E-03  8.09057432E-05
  6.54020441E-03 -9.74220114E-03  7.42755002E-04 -2.98463079E-03 -1.02306457E-04
 -1.77444216E-02 -4.64861600E-02  2.09444445E-02 -1.05425992E-03 -4.66041089E-05
  2.14892120E-01  2.28561357E-03  6.89535734E-03 -1.52939920E-02 -3.06878756E-02
  3.42420634E-02 -1.24280874E-03 -3.63316118E-02 -6.03066924E-01 -2.20231787E-04
 -5.16630366E-03 -5.69478964E-05  1.53675097E-04 -2.97655112E-02  5.64639215E-02
  8.95457379E-03  3.48482696E-02 -1.20549530E-01 -4.10231408E-02  1.06502733E-02
 -3.73708903E-04  4.64738690E-01 -3.82524610E-01  7.39315101E-04  2.24731425E-02
  2.98888869E-04 -2.01801814E-04 -4.87316348E-02 -1.81863790E-03  1.19972208E-02
  4.55847612E-02 -1.57172806E-01  1.88686851E-02 -4.12549304E-02  7.97772784E-04
  4.38983140E-01  2.19906060E-01 -1.90314330E-03  2.76834954E-02 -2.50902007E-04
 -7.03542412E-04 -9.92684956E-03 -2.38624220E-02  1.02606014E-02  3.97676904E-02
 -1.37661455E-01  3.01823817E-02  2.60257710E-02 -6.78642200E-04 -5.79152963E-02
  3.87776797E-01  2.83749640E-03  4.53024511E-02 -9.73872717E-04  3.01265790E-04
  3.18567459E-02 -2.65796643E-02  1.05848263E-02  3.61463275E-02 -1.12460517E-01
 -5.48851753E-02 -3.92211000E-03  1.73828077E-03 -3.02328423E-01  3.49761538E-01
 -5.76123011E-04  1.38828735E-03 -9.72428099E-05  4.21111052E-04  5.36949143E-02
 -3.30577616E-02 -1.83016365E-02 -6.47534467E-02  2.19693572E-01 -1.04508114E-01
  1.64472813E-01  1.23188160E-03 -3.65952028E-01 -5.02014071E-01 -2.46177020E-04
  8.81542207E-03  4.06242072E-04 -7.47848803E-05 -3.16232259E-03 -3.53365588E-02
 -8.30314325E-04 -2.01495130E-03 -3.57198975E-03 -1.25314268E-02  3.17921830E-02
 -5.50986749E-04  1.45365629E-03  1.17163994E-01 -4.37272765E-04 -7.40368039E-03
 -2.77769814E-04  7.67101457E-05 -1.25709096E-02 -7.16249905E-02  4.09535727E-03
  1.40591334E-02 -2.56714512E-02  3.04037588E-02  5.26905387E-03 -5.02772955E-03
  1.25931873E-03 -4.07702143E-02 -6.63915793E-03  9.37653191E-03 -9.76089002E-04
 -8.52526945E-04 -2.05169182E-02 -8.83566554E-03 -6.77943197E-03  6.52269832E-03
  3.68047882E-04 -5.51610794E-03  2.29961676E-03 -4.16756312E-03  5.28665974E-02
  5.62875916E-03 -1.16434346E-02 -2.21146093E-03  1.69005027E-02  6.29857032E-02
 -2.94651924E-01  5.85252357E-02  1.36813775E-02  2.76630392E-04 -1.32060245E-02
 -2.78033026E-02  2.83008643E-04  2.02062265E-02 -4.13313649E-06 -1.15959430E-05
  8.34812211E-03  7.33418404E-04 -2.78576148E-02 -9.67856696E-02  3.97131807E-01
 -9.73706581E-02  1.48348906E-02  1.43163129E-03  1.13896703E-02 -3.36281652E-02
  7.08869775E-04 -2.34287637E-02  9.42802304E-05 -6.57024819E-06 -9.07115680E-03
  6.89383772E-03 -3.33071980E-02 -1.07891427E-01 -1.03513504E-01  2.60491228E-03
 -1.14472182E-04 -1.75675202E-02 -9.48253290E-03 -2.32991548E-02 -4.42720488E-02
 -1.74109176E-04 -5.61762695E-02 -5.55521175E-02  2.52419435E-02  1.50764701E-03
  4.72947427E-04  1.42245308E-01  3.16228157E-01  8.04124185E-03  2.71447441E-02
 -7.97454681E-02 -2.80337013E-02 -1.00303144E-02 -4.90990646E-06  4.21678262E-02
 -4.93679288E-01 -2.81172961E-05  1.13828960E-02 -3.56830504E-05  8.66707965E-06
  1.33392282E-02  3.88204459E-02  4.11704909E-03  1.47665497E-02 -3.97907006E-02
 -7.47182128E-04 -1.82909041E-02 -1.14188453E-04  3.41033172E-01 -3.25637396E-01
  1.71307309E-04  1.07026451E-03 -1.90364477E-05 -7.87103799E-05 -8.68811556E-03
  3.14626473E-03  2.19213461E-03  8.59126937E-03 -3.26753423E-02  6.35509610E-03
 -9.17179769E-03 -7.07711507E-05  3.15827401E-01  2.10845770E-01 -2.19454367E-04
  7.12724042E-03 -8.34647291E-05 -7.53037123E-05 -1.30888032E-02 -4.63800278E-03
  1.08217045E-03  4.11182942E-03 -1.63309262E-02  2.19295139E-03  4.28302646E-03
 -1.14545901E-04 -1.89082740E-03  3.32404486E-01 -3.68107040E-04 -8.56172746E-04
 -6.41098946E-05  1.01101470E-04  1.42596486E-02 -2.32180810E-02 -3.55273119E-03
 -1.21519651E-02  3.56870499E-02 -7.96168165E-02 -1.94644969E-02  2.39672807E-04
 -2.83181705E-01  2.28459497E-01  7.76140811E-04 -5.05045174E-03  1.32228455E-04
 -1.81728294E-04  2.10089989E-02 -1.90649057E-02 -5.30110966E-03 -1.81068175E-02
  5.31408166E-02  6.77803178E-02  5.58270030E-02  3.08143194E-04 -3.52951866E-01
 -3.30210132E-01 -5.03014569E-04  9.10602500E-03 -2.45166332E-05 -1.99572602E-04
  4.20872428E-02 -1.25070182E-02  9.27981143E-04  3.10235832E-03 -1.07375401E-02
 -2.88900338E-03  3.02908733E-02 -1.01609317E-05  3.50668251E-03  9.29208126E-02
 -6.14530451E-05 -1.24486603E-02  3.38261792E-05 -7.50624126E-05 -2.62737901E-02
 -6.54289073E-02 -8.26839606E-04 -2.89392123E-03  6.70397164E-03  2.15508314E-03
 -5.95392628E-04  3.93588775E-04  1.08373542E-02 -3.67368543E-02  1.06510621E-03
  7.00848344E-04  5.86263308E-04 -6.55524223E-04 -1.85914110E-03 -4.20348427E-03
  1.52813112E-03 -2.63939239E-02 -7.08700622E-04 -7.04725024E-03  1.91106686E-03
  2.54869798E-03  1.21379248E-02  2.24227433E-03 -4.37438396E-03 -2.03040080E-03
  1.30157983E-02  4.60966995E-02 -1.94501775E-01  3.62258572E-02 -8.41696270E-03
  4.40059930E-05 -1.81976340E-02 -2.43318122E-02  4.66172356E-05  1.70600100E-02
 -1.94694668E-05  2.91858969E-05  6.10176405E-03  8.34661847E-04 -2.55799127E-02
 -9.08780387E-02  3.93364040E-01 -8.18232797E-02  3.25640746E-02 -5.17605515E-05
  9.56116260E-03 -2.65575388E-02  8.86672828E-07 -1.88660762E-02  5.02883738E-05
 -6.09360804E-06 -9.96008557E-03  2.39671203E-03 -3.65134946E-03 -1.03449420E-01
 -6.90903967E-02  2.66201421E-03  4.29183513E-06 -1.83290543E-03 -8.33433397E-04
 -1.91045798E-02 -1.93597717E-02 -2.02152233E-04 -2.50849261E-02 -2.93952933E-02
  1.22569568E-02 -1.32455894E-02  2.44304359E-04  2.12762948E-02  1.33073112E-01
  1.12176852E-01  6.02960349E-03  2.07342697E-02 -5.87256521E-02 -3.71182122E-02
 -6.07805446E-02  1.12141967E-04  7.12172383E-03 -5.47472774E-02 -2.34567611E-04
  1.14202420E-02 -1.78231470E-05 -4.81233322E-05  2.97842907E-02 -1.23498224E-02
 -2.26624877E-04 -1.63575766E-03  1.53211850E-02  2.29433583E-03 -1.72959977E-04
 -2.19407506E-05  8.23324009E-03 -3.90648503E-02  3.04261090E-04  8.63382125E-04
  1.10777080E-05  3.03766009E-05  1.42623128E-02 -2.75647822E-03 -1.23878967E-03
 -5.00639125E-03  1.89299649E-02 -1.55803291E-03  3.75648994E-03 -1.26665820E-04
  2.19711046E-02  4.42564290E-02 -8.42697914E-04 -1.38369876E-03 -2.10135167E-04
 -1.56409313E-04 -5.15603904E-03 -1.23830383E-03 -2.17512830E-03 -8.39604963E-03
  3.17142295E-02 -1.28332174E-02  1.00705751E-02  7.88005146E-05 -3.31879945E-02
  7.27788135E-02  1.80317264E-03 -2.42358465E-03  4.83874593E-04 -3.83610418E-05
 -1.17515568E-02  6.64073160E-04 -8.98317408E-04 -2.73690020E-03  1.15460038E-02
  2.15744454E-02 -1.54757044E-02 -2.94310150E-04 -7.28702152E-02  4.79602174E-02
 -6.49115494E-04  7.55808671E-03 -1.00497555E-04  9.84695492E-05 -2.04406045E-02
 -2.55708654E-03  1.07847255E-02  3.83540032E-02 -1.26892668E-01  3.98721244E-02
  2.25648742E-02 -1.20047566E-04 -9.62624721E-02 -1.58959946E-02  3.40739685E-04
  1.61068777E-02 -3.57252310E-05 -9.97770833E-05  1.34254959E-02 -7.18055051E-03
 -2.73756337E-04 -1.17149089E-03  4.73051771E-03  1.81090103E-02  3.30409706E-03
  6.51892931E-05 -1.31612441E-02  4.59339475E-03  9.99980994E-05  4.00060799E-03
  4.53267493E-05 -1.49837584E-05 -7.24057072E-03 -1.57020324E-02 -3.00587363E-04
 -9.52914237E-04  6.84817303E-04  4.66564863E-04 -2.53814178E-03  6.17117547E-04
 -3.09647741E-02 -1.10384978E-02 -3.54139855E-03  1.11449861E-03 -8.02116967E-04
 -3.34344442E-04  5.22400278E-03 -1.27795495E-03  1.80762292E-03  2.28184854E-02
 -4.47198549E-03  4.65555200E-03 -4.80381306E-04 -1.34681223E-03  3.34435958E-02
 -5.19880823E-03 -8.00814796E-03 -1.44966797E-03  3.73729727E-03  1.29626067E-02
 -5.41897204E-02 -5.14538430E-03  6.34458493E-03 -1.60621607E-05 -1.02293869E-02
 -3.50362382E-03 -1.80532463E-05  2.14084676E-03 -4.28944466E-06  9.10681420E-07
  2.31994469E-03 -4.47584995E-04 -3.54345247E-03 -1.23333857E-02  5.10968300E-02
  7.39993298E-03  2.07726905E-02 -1.95563733E-04  1.23191242E-02  6.47854392E-03
 -1.02460314E-04 -3.39817929E-03 -1.22212276E-07  5.27944763E-06  1.63132818E-03
 -4.39150606E-04 -2.16267401E-03 -2.55651858E-03 -2.60287608E-03  9.10687835E-04
 -7.63573994E-05  1.50264425E-03  2.24592683E-02 -3.74305148E-03  4.99856670E-03
  2.18947538E-05 -3.31575313E-03  3.27135745E-03  1.04565131E-02 -8.38722268E-03
  9.12813428E-05 -2.77242529E-02 -2.10011799E-02  1.19836975E-02  2.67319871E-02
 -2.92901839E-05 -1.01820021E-04  2.95176100E-04  1.83936539E-04 -1.51356055E-06
  2.48488112E-02  4.05940172E-04 -3.48451939E-04  1.14450748E-03 -1.03626784E-05
  1.50615862E-03  6.34360594E-03  1.12256019E-05 -7.50804650E-06 -3.26994513E-05
 -1.25605842E-04  4.53081739E-04  1.34469481E-04  5.15318701E-05 -5.48816370E-03
  5.01640591E-04 -4.06333710E-04  8.95280890E-04 -1.22978557E-04 -3.08417207E-03
  2.59820125E-03  6.29800971E-05 -1.01637014E-04 -9.12098997E-06 -3.97555547E-05
  1.58095713E-04 -2.37924236E-04 -1.40764695E-04 -9.40269820E-03  5.94989627E-05
  6.69500559E-04 -1.91725317E-03 -4.58107251E-05  1.87900029E-03  9.39945234E-04
 -2.03228185E-05 -4.62875647E-05 -8.92077638E-06 -3.22738437E-05  2.51280670E-05
  4.74120537E-05  1.28947560E-04  1.14178175E-02  1.22601025E-03  1.52445268E-04
  2.40993704E-03 -1.18949805E-05 -2.77347628E-03  6.69850152E-03  2.54332647E-05
 -2.20624986E-04 -4.18386174E-05 -1.45155198E-04  4.61467338E-04  2.33887351E-06
 -1.11115703E-04  4.29383676E-02 -1.67501483E-04 -1.85709190E-04  6.63981004E-03
 -5.78113604E-05 -5.01132821E-03 -4.73337492E-04  7.15660087E-06  6.45522443E-05
 -8.27215261E-06 -2.99656789E-05  4.89376186E-05  2.24843469E-04 -4.34005189E-04
  4.82542062E-02  1.45890728E-05 -1.12103350E-04  8.96620852E-03 -1.36049730E-04
  4.08968650E-03 -2.31498221E-03  1.07860149E-04  1.08376341E-04 -6.99780285E-06
 -2.35868626E-05 -3.04017141E-06 -1.85543528E-05  2.31269423E-05  3.76374969E-03
  1.92716893E-04  4.16338988E-05  3.07610905E-03 -1.39698336E-04  3.34523181E-03
  2.77772281E-03 -6.53726248E-05 -4.95260740E-05 -3.02620008E-05 -1.04916916E-04
  2.43184325E-04  1.19012996E-05 -6.90490864E-04 -5.33027176E-03  5.06244964E-04
 -9.15964668E-05 -2.29505696E-03 -1.65482447E-04 -1.36043390E-03 -4.80085247E-05
  1.53592425E-05 -1.43330165E-04 -2.06354793E-04 -3.93022155E-04 -6.54950830E-05
 -3.55214708E-05  2.62016493E-04 -6.05172697E-04 -5.52412443E-04  9.36473629E-05
  2.59935950E-05 -1.06299232E-04 -2.33053546E-05 -8.96101156E-05  4.60827019E-04
 -5.41269832E-05 -1.19024948E-04 -1.54477379E-02 -2.39785190E-05  2.66151752E-05
 -5.94159751E-03  1.43823120E-05 -2.66793629E-04 -3.83326873E-04 -2.65840126E-05
  1.57540493E-05 -4.52126943E-05 -1.65432666E-04  7.73856240E-04 -1.98016106E-04
  6.30869309E-05  8.05109627E-03 -3.88579766E-05 -8.60620649E-05  2.79023115E-03
 -9.70729297E-06 -6.46687325E-06 -5.76192574E-04 -4.11894120E-05 -1.80668926E-05
  7.58403024E-05 -1.19626846E-04 -1.25293380E-05  7.94795209E-05 -4.95115506E-04
  7.09789845E-05  1.16600283E-04 -8.89405635E-05 -2.90277898E-05 -4.68015682E-04
  1.12042170E-04 -2.04114724E-05 -8.35699094E-06 -3.65579004E-05  5.22666157E-03
 -1.27903238E-04 -1.00095405E-04  6.66737507E-05 -3.01066654E-05  5.79264889E-03
ONIOM Charges                              I   N=          16
           0           0           0           0           0           0
           0           0           0           0           0           0
           0           0           0           0
ONIOM Multiplicities                       I   N=          16
           1           0           0           0           0           0
           0           0           0           0           0           0
           0           0           0           0
Atom Layers                                I   N=          16
           1           1           1           1           1           1
           1           1           1           1           1           1
           1           1           1           1
Atom Modifiers                             I   N=          16
           0           0           0           0           0           0
           0           0           0           0           0           0
           0           0           0           0
Force Field                                I                0
Int Atom Modified Types                    I   N=          16
           0           0           0           0           0           0
           0           0           0           0           0           0
           0           0           0           0
Link Atoms                                 I   N=          16
           0           0           0           0           0           0
           0           0           0           0           0           0
           0           0           0           0
Atom Modified MM Charges                   R   N=          16
  0.00000000E+00  0.00000000E+00  0.00000000E+00  0.00000000E+00  0.00000000E+00
  0.00000000E+00  0.00000000E+00  0.00000000E+00  0.00000000E+00  0.00000000E+00
  0.00000000E+00  0.00000000E+00  0.00000000E+00  0.00000000E+00  0.00000000E+00
  0.00000000E+00
Link Distances                             R   N=          64
  0.00000000E+00  0.00000000E+00  0.00000000E+00  0.00000000E+00  0.00000000E+00
  0.00000000E+00  0.00000000E+00  0.00000000E+00  0.00000000E+00  0.00000000E+00
  0.00000000E+00  0.00000000E+00  0.00000000E+00  0.00000000E+00  0.00000000E+00
  0.00000000E+00  0.00000000E+00  0.00000000E+00  0.00000000E+00  0.00000000E+00
  0.00000000E+00  0.00000000E+00  0.00000000E+00  0.00000000E+00  0.00000000E+00
  0.00000000E+00  0.00000000E+00  0.00000000E+00  0.00000000E+00  0.00000000E+00
  0.00000000E+00  0.00000000E+00  0.00000000E+00  0.00000000E+00  0.00000000E+00
  0.00000000E+00  0.00000000E+00  0.00000000E+00  0.00000000E+00  0.00000000E+00
  0.00000000E+00  0.00000000E+00  0.00000000E+00  0.00000000E+00  0.00000000E+00
  0.00000000E+00  0.00000000E+00  0.00000000E+00  0.00000000E+00  0.00000000E+00
  0.00000000E+00  0.00000000E+00  0.00000000E+00  0.00000000E+00  0.00000000E+00
  0.00000000E+00  0.00000000E+00  0.00000000E+00  0.00000000E+00  0.00000000E+00
  0.00000000E+00  0.00000000E+00  0.00000000E+00  0.00000000E+00
Cartesian Gradient                         R   N=          48
  0.00000000E+00  0.00000000E+00  0.00000000E+00  0.00000000E+00  0.00000000E+00
  0.00000000E+00  0.00000000E+00  0.00000000E+00  0.00000000E+00  0.00000000E+00
  0.00000000E+00  0.00000000E+00  0.00000000E+00  0.00000000E+00  0.00000000E+00
  0.00000000E+00  0.00000000E+00  0.00000000E+00  0.00000000E+00  0.00000000E+00
  0.00000000E+00  0.00000000E+00  0.00000000E+00  0.00000000E+00  0.00000000E+00
  0.00000000E+00  0.00000000E+00  0.00000000E+00  0.00000000E+00  0.00000000E+00
  0.00000000E+00  0.00000000E+00  0.00000000E+00  0.00000000E+00  0.00000000E+00
  0.00000000E+00  0.00000000E+00  0.00000000E+00  0.00000000E+00  0.00000000E+00
  0.00000000E+00  0.00000000E+00  0.00000000E+00  0.00000000E+00  0.00000000E+00
  0.00000000E+00  0.00000000E+00  0.00000000E+00
Dipole Moment                              R   N=           3
  4.93693379E+00  3.70594383E-04  2.03336418E-01
Polarizability                             R   N=           6
  2.59545921E+02 -3.69407635E-03  1.29025312E+02 -1.04415582E+00 -1.44830857E-03
  6.57310577E+01
HyperPolarizability                        R   N=          10
 -5.86229418E+03 -1.76260604E-01  5.57506011E+02  1.72263200E-01  6.49276466E+01
 -2.17186482E-02  1.84375258E+00  9.97620610E+01  2.52695813E-02  5.46003367E+00
DQ Polarizability                          R   N=          18
  2.17687956E+02 -1.32573778E+02 -8.51141773E+01  2.02745954E-03 -8.11776561E+00
  2.47001112E-02 -2.70611698E-02  4.65275194E-02 -1.94663496E-02  3.05711909E+01
  5.62437747E-02  8.18043546E-01 -2.70141703E+00  2.26200315E+00  4.39413875E-01
  4.67891891E-02  5.13516706E+01  1.51391839E-02
Quadrupole Moment                          R   N=           6
 -1.47894398E+00  3.23293825E+00 -1.75399427E+00 -1.32024078E-03  1.56423513E+00
  6.62072440E-03
NDeriv for static properties               I                3
ND12 for static properties                 I                1
Dipole Moment num derivs                   R   N=           9
 -2.59545277E+02  3.30470010E-03  1.04405634E+00  2.72555034E-03 -1.29027894E+02
  1.47975644E-03  1.04462535E+00  7.18902717E-04 -6.57334115E+01
Polarizability num derivs                  R   N=          18
 -5.86153361E+03 -1.73473334E-01  5.57493720E+02  6.49224405E+01 -2.17439438E-02
  9.97218282E+01 -1.97401598E-01  5.57500195E+02  1.72435530E-01 -2.13395263E-02
  1.84531402E+00  2.58446405E-02  6.49625945E+01 -1.60342415E-02  1.85383944E+00
  9.97198731E+01  2.52545595E-02  5.47053719E+00
HyperPolarizability num derivs             R   N=          30
  7.69535195E+04 -1.06111413E+01 -1.47418431E+04 -5.02347881E+00 -2.13947734E+01
  2.39875000E+00  3.14040931E+02 -7.94419698E+02 -4.23394923E-01  2.92129502E+02
 -8.40841444E+00 -1.47463056E+04 -5.05986484E+00  2.03035234E+04  2.37739262E+00
  3.14090901E+02  2.39136239E+00 -4.30224899E-01  3.35160966E+03  1.18703032E+00
 -2.37016466E+01  2.20014782E+00  3.14186818E+02  2.41818029E+00 -7.94343948E+02
 -4.25070429E-01  3.35119332E+03  2.92170906E+02  1.19380716E+00  2.49147834E+03
DQ Polarizability num derivs               R   N=          54
  0.00000000E+00  0.00000000E+00  0.00000000E+00  0.00000000E+00  0.00000000E+00
  0.00000000E+00  0.00000000E+00  0.00000000E+00  0.00000000E+00  0.00000000E+00
  0.00000000E+00  0.00000000E+00  0.00000000E+00  0.00000000E+00  0.00000000E+00
  0.00000000E+00  0.00000000E+00  0.00000000E+00  0.00000000E+00  0.00000000E+00
  0.00000000E+00  0.00000000E+00  0.00000000E+00  0.00000000E+00  0.00000000E+00
  0.00000000E+00  0.00000000E+00  0.00000000E+00  0.00000000E+00  0.00000000E+00
  0.00000000E+00  0.00000000E+00  0.00000000E+00  0.00000000E+00  0.00000000E+00
  0.00000000E+00  0.00000000E+00  0.00000000E+00  0.00000000E+00  0.00000000E+00
  0.00000000E+00  0.00000000E+00  0.00000000E+00  0.00000000E+00  0.00000000E+00
  0.00000000E+00  0.00000000E+00  0.00000000E+00  0.00000000E+00  0.00000000E+00
  0.00000000E+00  0.00000000E+00  0.00000000E+00  0.00000000E+00
Quadrupole Moment num derivs               R   N=          18
 -2.17687956E+02  1.32573778E+02  8.51141773E+01 -2.02745954E-03  8.11776561E+00
 -2.47001112E-02  2.70611698E-02 -4.65275194E-02  1.94663496E-02 -3.05711909E+01
 -5.62437747E-02 -8.18043546E-01  2.70141703E+00 -2.26200315E+00 -4.39413875E-01
 -4.67891891E-02 -5.13516706E+01 -1.51391839E-02
QEq coupling tensors                       R   N=          96
 -2.83136904E-01  6.69733584E-02  1.98773601E-01  4.00260920E-03 -4.59302031E-03
  8.43633035E-02  2.03445975E-01  4.13441835E-02  1.40469914E-01 -9.48250400E-03
 -1.49701715E-02 -3.43915889E-01  8.75934258E-02 -4.22953315E-02  6.01589463E-02
 -8.76975556E-04 -4.88890678E-03 -1.47752372E-01  4.22973428E-02  3.57666081E-02
  3.04080012E-01 -2.25643709E-02 -1.83750910E-02 -3.46377355E-01  1.07344056E-01
  2.90741522E-02  4.02204067E-02 -3.58507906E-03 -7.51997721E-03 -1.47564462E-01
  1.77435737E-01 -5.20157783E-02  1.66326165E-01 -6.32871639E-03 -1.57228934E-02
 -3.43761901E-01  3.42578096E-01 -9.46481593E-02 -3.41768546E-01 -3.46730627E-03
  1.18007284E-02 -8.09550696E-04 -6.68791545E-01  3.50285437E-02 -4.55359358E-01
  1.61434595E-01  3.03769760E-02  1.12415090E+00  1.01074363E-01  2.33734548E-01
 -3.53482437E-01  4.03798496E-02 -7.81056401E-02  2.52408074E-01 -5.08889881E-02
 -3.12075702E-01 -1.89746666E-01  8.29745696E-02  9.60165794E-02  2.40635654E-01
  6.83018032E-01 -2.05357520E+00 -5.04864391E-01  4.66916193E-02  4.46425043E-02
 -1.78153642E-01  1.65230572E+00  1.45599289E+00 -1.47711916E+00 -7.35778844E-02
  1.40077865E-02 -1.75186554E-01 -1.91035573E-02 -2.45754300E-01 -1.50058473E-01
  1.01551479E-02  1.31102000E-02  1.69162030E-01  8.56557024E-02  1.73929580E-01
 -2.64436347E-01 -3.12487276E-03  1.05044517E-02  1.78780645E-01 -2.88591343E-02
 -2.39055117E-01 -1.49577279E-01  1.13938672E-02  1.39676053E-02  1.78436413E-01
  9.83875311E-02  1.76716013E-01 -2.67816518E-01 -4.64084471E-03  1.15931159E-02
  1.69428987E-01
NDeriv for magnetic props                  I                3
ND12 for magnetic props                    I                1
QEq coupling tensors num derivs            R   N=         288
  2.54474280E+00 -9.68781297E-05 -8.09833868E-01 -1.27132069E-02  2.87122546E-03
 -1.73490893E+00 -2.51138307E-01  7.06052863E-01  3.47678454E+00  2.94079786E-02
 -1.42869148E-02 -3.22564624E+00 -8.10273347E-01  1.68822579E+00 -4.46635508E+00
 -1.66494605E-02 -8.57288631E-03  5.27662843E+00 -5.66788746E+00  2.08233606E-03
 -1.42245065E-01 -6.06418985E-01  1.03522578E-03  5.81013253E+00 -8.11120063E-01
 -1.68940140E+00 -4.46729377E+00 -1.87096859E-02  5.33160153E-03  5.27841384E+00
 -2.52332259E-01 -7.03522947E-01  3.47595141E+00  2.61771533E-02  1.87942043E-02
 -3.22361915E+00 -1.63667595E+00 -7.05113391E-03  8.25691938E+00 -3.32341937E-02
 -7.92831790E-03 -6.62024343E+00 -6.23990423E+00 -4.25514809E-03 -1.98749249E+01
 -3.60267051E+00 -2.05910096E-02  2.61148291E+01 -6.39355430E-01  6.48132628E-01
 -2.94898677E-01 -2.87641213E-01  2.65447969E-01  9.34254107E-01 -6.39720827E-01
 -6.47651462E-01 -2.93821917E-01 -2.88747587E-01 -2.67365851E-01  9.33542744E-01
  1.83022731E+01 -1.79740640E+00  8.64876504E+00  1.23845380E-02 -3.15141795E-02
 -2.69510382E+01  1.83041475E+01  1.81339554E+00  8.66280454E+00  2.40264967E-02
 -7.56473146E-03 -2.69669520E+01  1.76070627E-01  4.09302159E-01  1.06739445E-01
 -9.04570181E-04 -1.35333201E-03 -2.82810072E-01 -2.60566108E-01  5.42672769E-01
 -1.89792495E-01 -7.10987812E-04 -7.71552998E-04  4.50358603E-01 -2.60352137E-01
 -5.42734296E-01 -1.90057952E-01 -7.64136383E-04  7.83589328E-04  4.50410089E-01
  1.75528461E-01 -4.09376049E-01  1.07052246E-01 -1.59933109E-03  1.87375699E-03
 -2.82580707E-01  2.93931976E-04 -1.96512010E+00  1.98093630E-04 -3.09412460E-04
 -1.15442516E-04 -4.92025492E-04  1.30927176E+00  3.31507308E+00  3.46505469E+00
 -1.87352492E-03 -1.31882916E-02 -4.77432645E+00  1.12653213E+00 -3.60620965E+00
  3.71741533E+00  1.70019785E-02  1.22019063E-02 -4.84394745E+00  2.55090197E-03
  2.12990123E+00 -2.22557674E-03 -4.41996397E-04  2.78950827E-02 -3.25325232E-04
 -1.12828916E+00 -3.60677582E+00 -3.71554751E+00 -1.74950607E-02  9.99573771E-03
  4.84383666E+00 -1.30682044E+00  3.31646527E+00 -3.47201945E+00  6.99621471E-03
 -2.15505896E-02  4.77883989E+00 -4.91258811E-03  2.89336759E+00  4.40178997E-03
 -2.07840533E-03  1.50522444E-03  5.10798145E-04 -3.11989015E-03 -5.34102357E+00
  7.29233966E-03 -1.67067036E-03 -1.24177836E+00 -4.17244974E-03 -2.23318195E-01
 -3.59576950E-01  5.71436972E-01  3.14153152E-02 -1.14116641E-01 -3.48118777E-01
  2.23175670E-01 -3.59511901E-01 -5.70687457E-01 -3.15859576E-02 -1.14911966E-01
  3.47511788E-01  8.02384231E+00 -2.67215980E+00  7.06069547E+00  6.56555590E-03
 -1.11701516E-02 -1.50845378E+01 -8.00912857E+00 -2.67667900E+00 -7.07091474E+00
 -2.18849146E-05  1.29417981E-02  1.50800433E+01 -3.13633397E-01  4.34579795E-01
  8.20342445E-01 -5.99353290E-04 -2.35273205E-03 -5.06709048E-01 -2.28819773E-01
 -4.59585081E-01  8.17935537E-01 -1.07334573E-03  2.63508655E-04 -5.89115764E-01
  2.29000239E-01 -4.59331592E-01 -8.18217177E-01  1.00182276E-03 -1.37224164E-04
  5.89216938E-01  3.13747063E-01  4.34359193E-01 -8.21130800E-01  1.16429219E-03
 -3.63651444E-03  5.07383737E-01  7.49181481E-05 -4.43632671E-04 -2.45519293E-02
 -3.26502861E-01 -2.49011739E-04  2.44770113E-02 -6.35611389E-03 -1.02013061E-02
 -2.65478320E-03 -1.21663263E-01 -1.56149908E-01  9.01089697E-03 -5.55219992E-03
 -4.96520786E-03 -2.05596351E-02  1.60116933E-01  1.36675683E-02  2.61118346E-02
 -8.15615977E-02  2.71970059E-04 -8.19923662E-03  2.99597143E-01 -2.81901706E-04
  8.97608338E-02 -5.54247811E-03  4.09603413E-03 -2.04434047E-02  1.60009541E-01
 -1.35304189E-02  2.59858825E-02 -7.23414121E-03  1.33391204E-02 -6.62320849E-03
 -1.20755876E-01  1.56186861E-01  1.38573500E-02 -3.46674501E-02 -2.22208142E-03
 -2.24308280E-02 -1.34227514E+00 -7.97245414E-04  5.70982781E-02  2.09927432E-01
 -2.31837144E-03 -6.63099709E-01 -1.43591549E+00 -9.62407708E-04  4.53172277E-01
  1.48832451E-02  3.51002422E-02 -1.69327037E-02 -1.72687600E-01  1.79410497E-01
  2.04945865E-03  1.51196610E-02 -3.52954191E-02 -1.70941668E-02 -1.72837076E-01
 -1.79494245E-01  1.97450583E-03 -6.36390544E-02  1.32134654E-02 -3.99900705E-02
  6.87523181E-01  1.30594663E+00  1.03629125E-01 -5.58383554E-02 -9.28449382E-03
 -3.40669933E-02  6.88662833E-01 -1.30575148E+00  8.99053484E-02  1.49322418E-03
 -8.67816401E-04 -1.22965120E-03  1.51439121E-01  3.21817633E-01 -2.63572977E-04
 -3.90302529E-04 -4.04897381E-04 -1.91457095E-03 -1.49348620E-01  2.98687587E-01
  2.30487348E-03 -3.06250159E-04  3.36024017E-04 -1.94845090E-03 -1.49287324E-01
 -2.98746261E-01  2.25470106E-03  1.80852751E-03  1.14619102E-03 -1.23196824E-03
  1.51290812E-01 -3.21916137E-01 -5.76559261E-04
NFreq for FD properties                    I                2
Frequencies for FD properties              R   N=           2
  0.00000000E+00  2.38926862E-02
Alpha(-w,w)                                R   N=          18
  2.59545921E+02 -3.69407635E-03 -1.04415582E+00 -3.69407635E-03  1.29025312E+02
 -1.44830857E-03 -1.04415582E+00 -1.44830857E-03  6.57310577E+01  2.09195393E+02
 -3.22058213E-03 -6.96585266E-01 -3.22058213E-03  1.06452347E+02 -5.45903148E-04
 -6.96585266E-01 -5.45903148E-04  5.46181464E+01
Beta(-w,w,0)                               R   N=          36
 -5.86229418E+03 -1.76260604E-01  5.57506011E+02  6.49276466E+01 -2.17186482E-02
  9.97620610E+01 -1.76260604E-01  5.57506011E+02  1.72263200E-01 -2.17186482E-02
  1.84375258E+00  2.52695813E-02  6.49276466E+01 -2.17186482E-02  1.84375258E+00
  9.97620610E+01  2.52695813E-02  5.46003367E+00 -3.83916783E+03 -1.17634406E-01
  3.84121631E+02  4.25983899E+01 -1.39623420E-02  7.67318032E+01 -1.22250030E-01
  3.87152391E+02  1.26725141E-01 -9.74751080E-03  1.84838303E+00  1.90005288E-02
  4.48539459E+01 -1.08639544E-02  1.70105517E+00  7.28292838E+01  1.90445998E-02
  4.04540453E+00
Beta(w,w,-2w)                              R   N=          36
 -5.86229418E+03 -1.76260604E-01  5.57506011E+02  6.49276466E+01 -2.17186482E-02
  9.97620610E+01 -1.76260604E-01  5.57506011E+02  1.72263200E-01 -2.17186482E-02
  1.84375258E+00  2.52695813E-02  6.49276466E+01 -2.17186482E-02  1.84375258E+00
  9.97620610E+01  2.52695813E-02  5.46003367E+00 -3.44522551E+03 -1.02150446E-01
  3.61851555E+02  3.89169662E+01 -6.23693101E-03  6.87150983E+01 -1.21899897E-01
  3.26460893E+02  1.12620107E-01 -8.67177608E-03  1.69057889E+00  1.68775310E-02
  3.82147932E+01 -7.98878565E-03  1.47666311E+00  6.33179543E+01  1.62611029E-02
  3.53125652E+00
NFreq for DFD properties                   I                2
NDeriv for DFD properties                  I                3
ND12 for DFD properties                    I                1
Frequencies for DFD properties             R   N=           2
  0.00000000E+00  2.38926862E-02
Derivative Alpha(-w,w)                     R   N=          54
 -5.86153361E+03 -1.73473334E-01  6.49224405E+01 -1.73473334E-01  5.57493720E+02
 -2.17439438E-02  6.49224405E+01 -2.17439438E-02  9.97218282E+01 -1.97401598E-01
  5.57500195E+02 -2.13395263E-02  5.57500195E+02  1.72435530E-01  1.84531402E+00
 -2.13395263E-02  1.84531402E+00  2.58446405E-02  6.49625945E+01 -1.60342415E-02
  9.97198731E+01 -1.60342415E-02  1.85383944E+00  2.52545595E-02  9.97198731E+01
  2.52545595E-02  5.47053719E+00 -3.85173467E+03 -1.15885078E-01  4.33900640E+01
 -1.15885078E-01  3.83531046E+02 -1.43215051E-02  4.33900640E+01 -1.43215051E-02
  7.42268753E+01 -1.36728827E-01  3.86598364E+02 -9.93824191E-03  3.86598364E+02
  1.24462556E-01  1.75844701E+00 -9.93824191E-03  1.75844701E+00  1.84217908E-02
  4.56122727E+01 -7.41356729E-03  7.04306993E+01 -7.41356729E-03  1.61627009E+00
  1.81274957E-02  7.04306993E+01  1.81274957E-02  4.07883204E+00
Derivative Beta(-w,w,0)                    R   N=         108
  7.69535195E+04 -1.06111413E+01 -1.47418431E+04 -2.13947734E+01  2.39875000E+00
 -7.94419698E+02 -1.06111413E+01 -1.47418431E+04 -5.02347881E+00  2.39875000E+00
  3.14040931E+02 -4.23394923E-01 -2.13947734E+01  2.39875000E+00  3.14040931E+02
 -7.94419698E+02 -4.23394923E-01  2.92129502E+02 -8.40841444E+00 -1.47463056E+04
 -5.05986484E+00  2.37739262E+00  3.14090901E+02 -4.30224899E-01 -1.47463056E+04
 -5.05986484E+00  2.03035234E+04  3.14090901E+02  2.39136239E+00  3.35160966E+03
  2.37739262E+00  3.14090901E+02  2.39136239E+00 -4.30224899E-01  3.35160966E+03
  1.18703032E+00 -2.37016466E+01  2.20014782E+00  3.14186818E+02 -7.94343948E+02
 -4.25070429E-01  2.92170906E+02  2.20014782E+00  3.14186818E+02  2.41818029E+00
 -4.25070429E-01  3.35119332E+03  1.19380716E+00 -7.94343948E+02 -4.25070429E-01
  3.35119332E+03  2.92170906E+02  1.19380716E+00  2.49147834E+03  1.23531634E+04
 -8.73185044E+00 -1.03025088E+04  4.02228979E+02  1.61701559E+00 -6.19092551E+02
 -8.55614190E+00 -8.69870689E+03 -3.44203516E+00  1.41908329E+00  2.11109406E+02
 -2.68884217E-01  3.79910085E+02  1.48138194E+00  2.21634987E+02 -1.76203726E+02
 -2.52271485E-01  2.22925054E+02 -7.19274584E+00 -8.70587017E+03 -3.48336660E+00
  1.39364698E+00  2.11587455E+02 -2.77251996E-01 -9.92826271E+03 -3.36568844E+00
  1.41200177E+04  2.18428610E+02  1.92933718E+00  2.41895314E+03  1.67817355E+00
  2.13126748E+02  1.83088743E+00 -2.48121412E-01  2.42180369E+03  9.50211389E-01
  3.29876976E+02  1.36707346E+00  2.22020270E+02 -8.61267302E+01 -2.50925593E-01
  2.25061634E+02  1.57282207E+00  2.12954060E+02  1.83296848E+00 -2.39390099E-01
  2.41536890E+03  9.57986915E-01 -7.34733548E+02 -2.63812570E-01  2.19795067E+03
  2.14490952E+02  9.11682738E-01  1.78643697E+03
Derivative Beta(w,w,-2w)                   R   N=         108
  7.69535195E+04 -1.06111413E+01 -1.47418431E+04 -2.13947734E+01  2.39875000E+00
 -7.94419698E+02 -1.06111413E+01 -1.47418431E+04 -5.02347881E+00  2.39875000E+00
  3.14040931E+02 -4.23394923E-01 -2.13947734E+01  2.39875000E+00  3.14040931E+02
 -7.94419698E+02 -4.23394923E-01  2.92129502E+02 -8.40841444E+00 -1.47463056E+04
 -5.05986484E+00  2.37739262E+00  3.14090901E+02 -4.30224899E-01 -1.47463056E+04
 -5.05986484E+00  2.03035234E+04  3.14090901E+02  2.39136239E+00  3.35160966E+03
  2.37739262E+00  3.14090901E+02  2.39136239E+00 -4.30224899E-01  3.35160966E+03
  1.18703032E+00 -2.37016466E+01  2.20014782E+00  3.14186818E+02 -7.94343948E+02
 -4.25070429E-01  2.92170906E+02  2.20014782E+00  3.14186818E+02  2.41818029E+00
 -4.25070429E-01  3.35119332E+03  1.19380716E+00 -7.94343948E+02 -4.25070429E-01
  3.35119332E+03  2.92170906E+02  1.19380716E+00  2.49147834E+03 -1.49936298E+03
 -9.05000953E+00 -1.00068967E+04  4.25002137E+02  1.14024709E+00 -4.88805352E+02
 -8.16816865E+00 -7.71818234E+03 -2.97856846E+00  1.14676915E+00  1.80805342E+02
 -2.23685853E-01  4.09788954E+02  1.08840959E+00  1.97793859E+02 -1.37796132E+02
 -1.99154001E-01  1.98713858E+02 -7.66984434E+00 -7.58046134E+03 -2.83375374E+00
  1.32896848E+00  1.83166041E+02 -2.09141942E-01 -9.60443686E+03 -2.89572518E+00
  1.20512292E+04  1.96027819E+02  1.71900511E+00  2.07899529E+03  9.13575903E-01
  1.81067259E+02  1.71699319E+00 -1.96373175E-01  2.05137857E+03  8.57445044E-01
  3.65468038E+02  1.29827685E+00  2.02883718E+02 -2.94829371E+02 -1.97957649E-01
  2.01990818E+02  9.66566368E-01  1.82412142E+02  1.62908124E+00 -2.08462211E-01
  1.96895742E+03  8.23895827E-01 -3.40436972E+02 -1.97534261E-01  1.97454918E+03
  1.91565742E+02  8.25359546E-01  1.49161138E+03
