%chk=pNA_g16-C01_beta-static.chk
%mem=15Gb
%nproc=4
#p B3LYP/gen gfinput scf=(maxcycle=200) polar=enonly scrf=(IEFPCM,read,solvent=Acetone)

Polar

0 1
  C           0.37591892016436      0.88315209399461      0.01672126785308
  C          -0.47781526025485      1.98823132703490     -0.00757384574132
  C          -1.83587798042957      1.80531759350426      0.01508474874043
  C          -2.38822216082252      0.50740873843923      0.06206396416335
  C          -1.50847364595841     -0.59584843865791      0.08872770820132
  C          -0.15075206560909     -0.40949713737208      0.06640519912610
  N           1.79271003358079      1.07637879693920     -0.00706695431381
  N          -3.72483240886892      0.32481607971686      0.04917635046210
  H          -4.34247344786634      1.10609970791007      0.18116302585781
  H          -4.11208538843134     -0.58363804054947      0.23386676727367
  O           2.23885709631394      2.23614917686736     -0.04973626263170
  O           2.53475165948310      0.07902930183578      0.01509367844063
  H          -0.06396885679001      2.98335854172507     -0.04300375979251
  H          -2.49679512821954      2.66082312346126     -0.00372640395338
  H          -1.91559521532270     -1.59675328795423      0.12705852104008
  H           0.51427384903114     -1.25804757689494      0.08857599527415

H 0
S  3  1.0
        18.7358400       0.01260
        2.82571200       0.09062
        0.64013700       0.36204
S  2  1.0
        0.17560800       0.58103
        0.04817400       0.10057
P  2  1.0
        0.60583900       0.06243
        0.12517700       0.51108
****
C 0
S  5  1.0
        6779.90000       0.00068
        1017.20000       0.00522
        231.570000       0.02661
        65.5470000       0.10061
        7.53390000       0.22507
S  3  1.0
        21.2530000       0.27367
        7.53390000       0.07546
        2.80310000       0.28605
S  3  1.0
        0.52151000       0.01607
        0.15957000       0.00513
        0.04882500       0.01588
P  4  1.0
        18.7340000       0.01364
        4.13620000       0.08563
        1.20040000       0.27954
        0.38346000       0.47211
P  2  1.0
        0.12129000       0.36772
        0.03836500       0.04179
D  2  1.0
        0.41690000       0.00393
        0.10856090       0.00902
****
N 0
S  5  1.0
        9155.60000       0.00069
        1373.60000       0.00531
        312.730000       0.02706
        88.5470000       0.10226
        10.2460000       0.22455
S  3  1.0
        28.7560000       0.27778
        10.2460000       0.08053
        3.84430000       0.27936
S  3  1.0
        0.74650000       0.58370
        0.22475000       0.00474
        0.06766600       0.00778
P  4  1.0
        26.6670000       0.01444
        5.95570000       0.09127
        1.74400000       0.19910
        0.55629000       0.35770
P  2  1.0
        0.17315000       0.34974
        0.05389400       0.03511
D  2  1.0
        0.66710400       0.00510
        0.14809700       0.01473
****
O 0
S  5  1.0
        11852.0000       0.00070
        1778.20000       0.00540
        404.860000       0.02753
        114.660000       0.10401
        13.3340000       0.22480
S  3  1.0
        37.2790000       0.28191
        13.3340000       0.08266
        5.03850000       0.27214
S  3  1.0
        1.01360000       0.01634
        0.30250000       0.00425
        0.09027800       0.01796
P  4  1.0
        34.4930000       0.01578
        7.75620000       0.09950
        2.28200000       0.30618
        0.71691000       0.48410
P  2  1.0
        0.21461000       0.33645
        0.06424400       0.02689
D  2  1.0
        1.37401000       0.00168
        0.22845000       0.00611
****

Radii=UFF



